LAMMPS data file via write_data, version 7 Feb 2024, timestep = 1000000, units = real

1800 atoms
2 atom types
1200 bonds
1 bond types
600 angles
1 angle types

1.837017194044984 28.162982805954137 xlo xhi
1.837017194044984 28.162982805954137 ylo yhi
1.837017194044984 28.162982805954137 zlo zhi

Masses

1 15.9994
2 1.008

Pair Coeffs # lj/cut/coul/long

1 0.1553 3.166
2 0 0

Bond Coeffs # harmonic

1 600 1

Angle Coeffs # harmonic

1 75 109.47

Atoms # full

1496 499 2 0.4238 2.7195315191932368 6.245832800385127 3.8150132583950063 0 1 0
1495 499 1 -0.8476 2.9753593607527447 6.534259428354648 4.737676696075386 0 1 0
1497 499 2 0.4238 3.95270241447682 6.744359779789112 4.762240176034995 0 1 0
271 91 1 -0.8476 5.422141274073357 4.001500703145081 7.167212463431816 1 0 0
860 287 2 0.4238 6.157570671862076 5.127476144328278 2.86403807401153 -1 1 0
859 287 1 -0.8476 5.7862865118652955 6.031612893690727 2.6527810785427235 -1 1 0
264 88 2 0.4238 12.5184758841646 2.311535758373169 6.478765704843667 0 0 0
1724 575 2 0.4238 8.279061423804322 9.64109196574017 3.693189066720892 0 -1 1
861 287 2 0.4238 5.6125993001741605 6.527691398314888 3.5034767889467826 -1 1 0
1031 344 2 0.4238 6.115358977265573 7.154297675544821 5.754923401634096 0 -1 1
1325 442 2 0.4238 1.890644862398204 5.707937701428551 7.299471721070669 0 1 0
1030 344 1 -0.8476 5.710501310529327 7.490744033931121 4.904723946831773 0 -1 1
542 181 2 0.4238 3.732052769786436 3.808159170275915 6.231580409829151 1 0 -1
1032 344 2 0.4238 6.167341259590228 8.336760363054772 4.629953373046668 0 -1 1
309 103 2 0.4238 6.352636118510076 2.817168154342885 3.545254223881752 0 1 1
876 292 2 0.4238 9.974135882951932 9.270357043522488 2.7281769250073973 0 -1 1
1006 336 1 -0.8476 2.3346071031896107 5.860699730943001 1.895761001815566 0 0 -1
308 103 2 0.4238 7.415032449656563 3.598875279375166 4.507920534258695 0 1 1
1348 450 1 -0.8476 10.891676595034195 2.422908629188402 3.94417774658521 1 3 1
307 103 1 -0.8476 6.991860888855224 3.5840541727574724 3.6020224518289936 0 1 1
541 181 1 -0.8476 3.3650554346063664 2.9849624219812028 5.798447124213729 1 0 -1
1327 443 1 -0.8476 2.1615107975217116 9.197837917696575 5.430366854460285 0 2 1
415 139 1 -0.8476 3.453481221721236 5.599212560713344 8.347257605684685 -2 0 0
273 91 2 0.4238 6.307826107806724 4.136023506205527 6.722903735953462 1 0 0
1480 494 1 -0.8476 7.333829893687161 8.342995464760733 7.60819687677294 1 1 1
1287 429 2 0.4238 7.579537033877695 9.221285050543681 5.905748419050043 2 -1 0
1329 443 2 0.4238 2.4074133349970825 8.24123665515691 5.274191189170306 0 2 1
1137 379 2 0.4238 11.115359246878706 5.634286013793627 4.312774295447872 0 1 -1
1725 575 2 0.4238 7.4380434473801715 9.535540301160946 2.2974722626746975 0 -1 1
1390 464 1 -0.8476 13.933864342525952 3.273628142564866 7.035357363151276 1 0 -1
272 91 2 0.4238 5.479298974561044 3.226616548985366 7.796681950030201 1 0 0
1135 379 1 -0.8476 10.603858769191637 5.009213306983174 4.90234829710302 0 1 -1
1775 592 2 0.4238 3.840916366670983 10.375432663150722 5.103284720593035 -2 -1 0
512 171 2 0.4238 14.878372198591789 8.70936973915186 4.874711755718277 -1 -2 1
1391 464 2 0.4238 14.277272673042726 3.1651148213212528 7.968224029513644 1 0 -1
376 126 1 -0.8476 14.592465728567145 3.875841122136993 4.04351591288299 0 0 0
543 181 2 0.4238 4.115470966542612 2.3626414818831503 5.5758767983721595 1 0 -1
1349 450 2 0.4238 10.721780213430334 3.405922355225042 4.013196774177599 1 3 1
1482 494 2 0.4238 7.640518598802898 7.693102160940656 8.30355647742551 1 1 1
378 126 2 0.4238 14.20585343519264 3.0959496234543478 3.551331123831214 0 0 0
1723 575 1 -0.8476 8.337377809566203 9.712072165882308 2.6974454315829135 0 -1 1
1481 494 2 0.4238 7.049458578570701 9.193989004677839 8.04965775778956 1 1 1
591 197 2 0.4238 9.885151021609667 2.5710359476765725 1.9313481627785107 0 1 1
874 292 1 -0.8476 10.960920990157998 9.108596203389556 2.733913795509922 0 -1 1
314 105 2 0.4238 12.325102416812834 8.7323861994746 8.404463650589967 1 1 1
416 139 2 0.4238 4.176409307994854 5.1205545437258975 7.849053896201452 -2 0 0
1136 379 2 0.4238 11.107643923462188 4.867446617045301 5.754432779321613 0 1 -1
1405 469 1 -0.8476 8.51311896030007 3.7967863744977537 6.077538708325868 0 -1 0
315 105 2 0.4238 13.252834154664027 8.329730795436348 7.122410559704447 1 1 1
885 295 2 0.4238 9.307783931048647 8.943513151254828 7.655154344718249 0 0 -1
656 219 2 0.4238 12.99380450955865 6.753453780266977 3.1493460524366954 1 -1 -1
443 148 2 0.4238 11.816190718802439 5.715007341956885 7.729990367473703 0 2 3
1350 450 2 0.4238 11.229000239216262 2.0805856664420013 4.821088259692151 1 3 1
372 124 2 0.4238 2.1796687143719593 2.366406929967802 7.022092931728495 3 1 0
883 295 1 -0.8476 10.140891719764763 9.005525981904004 8.20472691116555 0 0 -1
657 219 2 0.4238 11.601074930662687 7.605970400394717 3.1497564195569696 1 -1 -1
1406 469 2 0.4238 9.20732365818851 4.309256890537364 5.572169468068846 0 -1 0
1407 469 2 0.4238 8.960199308621274 3.172143078939474 6.717761088592838 0 -1 0
1618 540 1 -0.8476 12.997297756184008 9.145127438883751 5.473893632828572 1 -1 2
590 197 2 0.4238 8.456930489005273 3.3217043527199497 2.1826667893089096 0 1 1
655 219 1 -0.8476 12.06345885458007 6.79728985274237 3.5133257090447856 1 -1 -1
1392 464 2 0.4238 14.688737697981436 3.168665937656499 6.387982975337868 1 0 -1
1619 540 2 0.4238 12.447430837320196 8.81013980189846 4.708795991266317 1 -1 2
442 148 1 -0.8476 11.850113887916288 4.762506594530117 7.427441410520304 0 2 3
1285 429 1 -0.8476 7.344098572264046 9.721992821971291 5.072798586770448 2 -1 0
444 148 2 0.4238 12.776026953673941 4.40598918261643 7.552044296946859 0 2 3
1620 540 2 0.4238 12.567487012406396 9.96065633749721 5.861348220008338 1 -1 2
313 105 1 -0.8476 13.201417763545464 8.342965743633712 8.120972327267495 1 1 1
1605 535 2 0.4238 14.69535661374027 5.50416902508987 3.276959820648036 -1 1 0
875 292 2 0.4238 11.417820528728408 9.81628083644689 2.195054307970299 0 -1 1
1603 535 1 -0.8476 14.6590557502968 6.36871846137724 2.775779813706094 -1 1 0
1286 429 2 0.4238 6.561526323486853 10.318099166101335 5.252195451274643 2 -1 0
636 212 2 0.4238 12.543337031104116 1.879849774267356 3.000716273372828 0 1 0
971 324 2 0.4238 6.962010689800115 4.15971408947653 11.588854304857376 0 0 0
525 175 2 0.4238 12.739282372506521 1.9015518386949388 11.857961285310443 0 1 1
953 318 2 0.4238 7.446166265365 8.193216249795645 10.43356938834311 0 0 0
952 318 1 -0.8476 7.632510278375765 9.096488934698492 10.819988107094487 0 0 0
240 80 2 0.4238 3.8496220720089624 7.435040272297697 10.847988760551425 2 0 -2
491 164 2 0.4238 6.335935222431832 6.761963211516187 9.802450007249888 1 -1 0
238 80 1 -0.8476 4.502853648182905 7.4937603358919995 10.093147952855249 2 0 -2
239 80 2 0.4238 4.771209887620529 8.447528168995344 9.958032677074867 2 0 -2
1498 500 1 -0.8476 2.937426603486954 8.138793183886929 12.318635329931475 1 1 1
492 164 2 0.4238 7.414806560111299 5.537723273923342 9.741199620087457 1 -1 0
490 164 1 -0.8476 7.308281124603965 6.531746724044149 9.76387014305234 1 -1 0
1499 500 2 0.4238 3.79839154733418 8.22310415660775 12.82020916548233 1 1 1
1500 500 2 0.4238 2.6732382337889913 7.175601470661763 12.269531171742614 1 1 1
1755 585 2 0.4238 14.097765726828758 9.094593112704526 14.858729093720527 0 0 0
4 2 1 -0.8476 7.813412885180041 3.841537658750095 10.042216267053854 -1 0 0
970 324 1 -0.8476 6.647003000803812 3.7947187928566732 12.464920971180694 0 0 0
5 2 2 0.4238 7.167609308304054 3.222067301633288 9.595964756147534 -1 0 0
1651 551 1 -0.8476 3.920684409572369 5.332134567903494 12.955702791951246 0 0 -1
417 139 2 0.4238 3.863896404018658 6.231827777407527 9.00399454508404 -2 0 0
1511 504 2 0.4238 13.415977615218669 3.9160600995885635 13.474273105682538 2 0 0
1177 393 1 -0.8476 5.512963946899476 8.313861112724108 13.989896033516372 -1 2 -1
524 175 2 0.4238 11.699982590234397 2.271648494205964 10.654066669430156 0 1 1
866 289 2 0.4238 5.2579081261804355 10.137453027102714 13.296191819730941 1 1 -1
1035 345 2 0.4238 13.999886490952512 7.240183544617504 9.009753109577591 0 1 0
972 324 2 0.4238 6.36028602461178 2.8441148647744425 12.346220653927563 0 0 0
1653 551 2 0.4238 3.773775820306528 5.31239272939274 13.944628352644125 0 0 -1
1652 551 2 0.4238 4.81523726572687 4.938713284383641 12.743711515781774 0 0 -1
1337 446 2 0.4238 14.314165421922818 9.688227814425765 8.863181119462958 1 0 0
1512 504 2 0.4238 12.335904031666066 2.7776597127699185 13.925897741389223 2 0 0
1179 393 2 0.4238 6.461438506353584 8.598042187446636 14.129832735429982 -1 2 -1
1742 581 2 0.4238 10.595087405601772 9.601472543267223 12.31370958784878 -1 0 1
267 89 2 0.4238 2.4794500956438292 2.6754746786749184 13.578204508154768 1 0 0
954 318 2 0.4238 7.505768001361481 9.793522196627272 10.11427823418137 0 0 0
986 329 2 0.4238 8.89363961696855 9.160908631046889 13.754138456140048 1 1 0
985 329 1 -0.8476 8.095487825592063 9.391589268625832 14.310631841969595 1 1 0
1033 345 1 -0.8476 14.531457989964686 6.449350821378525 9.313001600098929 0 1 0
356 119 2 0.4238 6.052751994664102 1.9422755369273297 10.025042445422203 2 1 0
1353 451 2 0.4238 14.702038096888131 6.357437924596457 13.017494037361024 0 1 1
1743 581 2 0.4238 9.271961933439878 8.779564694818527 11.82352097738627 -1 0 1
1096 366 1 -0.8476 12.611662078358282 7.969591860313839 13.807913222059753 0 1 0
1097 366 2 0.4238 11.649811486983364 8.099124665387166 13.56706132526097 0 1 0
1510 504 1 -0.8476 13.108080581725531 2.9768433137985406 13.322561468505373 2 0 0
1036 346 1 -0.8476 4.8126800034865 10.51608022416267 10.00050392084898 1 0 0
1741 581 1 -0.8476 10.09289783020124 8.740403390493825 12.393148959829144 -1 0 1
355 119 1 -0.8476 6.020834051611748 2.0444681757636154 9.030818075414714 2 1 0
1786 596 1 -0.8476 8.177198947313654 5.926157137741362 13.286630266751418 0 -1 -1
1178 393 2 0.4238 4.96297802442707 8.588238508554301 14.778678478467661 -1 2 -1
6 2 2 0.4238 8.739668007063667 3.4740771769635685 9.958734627648754 -1 0 0
1098 366 2 0.4238 12.67611816313064 7.404634038379864 14.630478287177912 0 1 0
1787 596 2 0.4238 7.560302816089582 6.649675000148419 12.976943801317413 0 -1 -1
1054 352 1 -0.8476 10.301262872321104 7.130844852823495 10.220765558124382 0 1 1
339 113 2 0.4238 13.250532047464674 5.221489832485251 11.661365377742705 1 1 0
679 227 1 -0.8476 10.707781382737506 3.7266220172600395 10.045487098827248 1 0 2
681 227 2 0.4238 10.799948394697912 3.799957519694372 9.052475794701664 1 0 2
1554 518 2 0.4238 10.8267719972085 10.455067101969108 9.03490761142745 1 0 2
987 329 2 0.4238 8.02003937115676 10.38560405404038 14.389293867682937 1 1 0
1056 352 2 0.4238 10.451464160930108 7.642889867611435 11.066457607265624 0 1 1
1611 537 2 0.4238 9.613031418172591 4.564851771574747 13.424387922929412 -1 1 1
1055 352 2 0.4238 9.661091850523816 6.3823343731760005 10.393560767239395 0 1 1
483 161 2 0.4238 12.701338723761381 9.636865945837098 12.439628949756319 -1 0 1
1609 537 1 -0.8476 10.495073587662604 4.100799740470396 13.343136288386082 -1 1 1
337 113 1 -0.8476 12.953761363547867 4.973021868381786 10.739337246473264 1 1 0
680 227 2 0.4238 11.437552914787265 4.248257721303562 10.487385234444691 1 0 2
338 113 2 0.4238 13.4166172664004 5.556137601531408 10.071740950482072 1 1 0
1610 537 2 0.4238 10.990433592091756 4.462412792654783 12.553326968197064 -1 1 1
1788 596 2 0.4238 7.6903984044232505 5.052690992148767 13.291896831265225 0 -1 -1
1351 451 1 -0.8476 14.462062258585187 5.389234705217229 13.087771521367811 0 1 1
481 161 1 -0.8476 12.31548824066722 10.401716002120024 11.923810489262195 -1 0 1
1283 428 2 0.4238 10.641766297940983 2.3908891803745864 14.048133312854938 1 1 0
884 295 2 0.4238 10.098718929881848 8.340342060210208 8.950177149002425 0 0 -1
104 35 2 0.4238 2.456166977341952 4.366094233089016 12.551226350932998 1 1 0
1133 378 2 0.4238 14.705170969764554 10.358064020441681 11.548028462299655 -2 0 1
13 5 1 -0.8476 6.362635872959181 5.135663561020605 16.490562370013635 2 -1 0
942 314 2 0.4238 2.057701832215602 9.710824566120259 18.81606199752261 -1 0 0
921 307 2 0.4238 6.170724985415871 4.030172928185322 18.015120808787508 1 1 0
15 5 2 0.4238 6.67510574002633 6.085243421638598 16.465964267621555 2 -1 0
14 5 2 0.4238 5.454643699133814 5.072727965748183 16.076395925237712 2 -1 0
941 314 2 0.4238 3.427680111021621 9.026209458057405 19.382577307027525 -1 0 0
1622 541 2 0.4238 7.756309298278624 7.50515731210709 19.221506572739244 0 0 1
1621 541 1 -0.8476 7.082234624846847 7.601893915464289 18.489243041493815 0 0 1
1623 541 2 0.4238 6.244001994813673 7.118688193153831 18.74187548474115 0 0 1
1769 590 2 0.4238 13.69253470345317 3.0304729612230217 18.582854625620172 -1 1 -1
7 3 1 -0.8476 5.544000062350848 9.638057037284394 17.258248294050944 0 -1 1
920 307 2 0.4238 4.8902940041375125 3.02320652926854 18.12910719983533 1 1 0
1690 564 1 -0.8476 3.5339332819256 8.335891810677364 15.655733150554212 1 0 0
412 138 1 -0.8476 3.7835371825788515 5.487923312693892 15.79382300803633 -1 0 0
843 281 2 0.4238 4.4281159756934745 5.471098722150998 19.974891592817734 -1 0 0
841 281 1 -0.8476 5.1145425376118325 6.1814473214284265 20.13035227563583 -1 0 0
9 3 2 0.4238 6.143374118198151 9.007347516211485 17.751098328996047 0 -1 1
853 285 1 -0.8476 3.4698545524497604 2.7101028289558577 17.690754307273103 2 0 -1
1063 355 1 -0.8476 9.352482751382665 7.431542562040874 15.98861285586781 1 2 -1
842 281 2 0.4238 5.936935902908677 5.769978558334911 20.523171672270927 -1 0 0
414 138 2 0.4238 3.446826024177578 6.421821818561983 15.673805987510594 -1 0 0
465 155 2 0.4238 6.26284233668168 2.5484596386453626 20.371522841717436 -1 1 -1
1692 564 2 0.4238 3.8450458521703212 8.779609983906386 16.496131161605277 1 0 0
1691 564 2 0.4238 2.6533053065498997 8.72203729012615 15.381268432702166 1 0 0
855 285 2 0.4238 2.6410803792122888 3.2367015734637876 17.501620639348104 2 0 -1
1791 597 2 0.4238 5.089367906892594 8.03938831222824 20.162360078090536 1 -1 0
940 314 1 -0.8476 2.6878938622763533 8.941001309373808 18.715194078313445 -1 0 0
413 138 2 0.4238 3.2255390495578906 5.017723466785084 16.47755895703147 -1 0 0
1789 597 1 -0.8476 4.739196794993104 8.917573074829479 20.48811525347913 1 -1 0
962 321 2 0.4238 7.050242103570878 2.188200517650038 18.456410527442593 2 0 0
854 285 2 0.4238 3.3320194310250715 2.154809133031256 18.510873052330048 2 0 -1
499 167 1 -0.8476 8.347280477076104 3.434838227055422 15.780039197874036 1 1 0
463 155 1 -0.8476 6.402194927272516 2.1615869252167004 21.28303544016036 -1 1 -1
128 43 2 0.4238 14.924140893011485 8.02381280549767 20.739939058870213 -1 -1 2
919 307 1 -0.8476 5.781577877462444 3.2578069105848098 18.5170764778668 1 1 0
1790 597 2 0.4238 5.431682105324112 9.362621828464945 21.055865862285103 1 -1 0
1502 501 2 0.4238 13.412846437503461 3.000714220626754 20.96759102684004 0 1 1
38 13 2 0.4238 11.75485078149584 6.419180642324164 20.79738174582262 -1 0 0
501 167 2 0.4238 7.49025768885386 3.9315752362044245 15.916818332358028 1 1 0
926 309 2 0.4238 7.822501402552651 6.864837560016677 20.983807647104335 -1 0 0
1704 568 2 0.4238 9.833964119494954 5.922966066496933 16.913125146888824 2 0 1
1665 555 2 0.4238 13.139079326344916 5.498721644785265 16.50829284362336 1 -1 -1
1478 493 2 0.4238 13.611902806483576 3.340606595336532 16.914403136783555 1 0 -1
846 282 2 0.4238 14.165137243257911 8.159176177534349 18.937423068320747 0 0 1
1703 568 2 0.4238 10.977832999362464 4.791462586802839 16.63430322487941 2 0 1
1244 415 2 0.4238 7.996368355581965 1.9258278276718477 15.07607093928577 1 0 -1
1388 463 2 0.4238 8.228582494125295 10.007586489103458 18.832912722226048 1 -1 0
709 237 1 -0.8476 3.102386117054074 4.366957265841073 20.46185901211689 1 0 0
1663 555 1 -0.8476 13.294698974783683 6.456709118954269 16.26748746772536 1 -1 -1
710 237 2 0.4238 3.5840692762181057 3.5024986654243984 20.318202285642897 1 0 0
254 85 2 0.4238 14.290961734393736 10.112184628390759 17.946589627209505 -1 -1 1
37 13 1 -0.8476 12.641340108225696 5.9820079841259535 20.94891191899965 -1 0 0
1768 590 1 -0.8476 14.584469350360507 3.325101782985999 18.239938723489004 -1 1 -1
795 265 2 0.4238 8.87932550978256 2.911320025407137 19.234810332601874 1 0 0
1477 493 1 -0.8476 12.825077793078483 3.534040611164471 16.328369890216905 1 0 -1
844 282 1 -0.8476 13.8583690536028 8.548485872158622 18.06893207361786 0 0 1
793 265 1 -0.8476 9.41804960233275 3.721433470014353 19.465974399807784 1 0 0
59 20 2 0.4238 8.066717646631059 4.61842026060672 20.448069490901034 2 1 -1
58 20 1 -0.8476 7.439892373325163 5.122667205746939 21.042013657306583 2 1 -1
711 237 2 0.4238 2.269223353727818 4.200626988430533 20.989228498788172 1 0 0
845 282 2 0.4238 13.350708624018855 7.85729620318946 17.5546531951317 0 0 1
794 265 2 0.4238 9.60462540541614 4.2458301369202935 18.63522661596538 1 0 0
1580 527 2 0.4238 11.384964519304075 2.747629175310491 19.79100255731901 1 0 -1
1579 527 1 -0.8476 12.269793601773257 2.315723557628488 19.965588848420637 1 0 -1
632 211 2 0.4238 4.525050889509238 2.287555727926282 16.265952202822042 0 0 1
1702 568 1 -0.8476 10.0988566971638 4.97247255735708 17.0754158526322 2 0 1
1479 493 2 0.4238 12.270995167429781 2.7073616673153738 16.23070281708241 1 0 -1
500 167 2 0.4238 9.0820175565844 3.894050336453244 16.279268454355886 1 1 0
129 43 2 0.4238 14.315415414513822 6.5298151691968975 20.48714613254304 -1 -1 2
8 3 2 0.4238 5.986445851263272 9.922362186401212 16.407744499281176 0 -1 1
1065 355 2 0.4238 9.1158241894383 8.392033078305102 15.842341113035934 1 2 -1
1064 355 2 0.4238 9.070105334795562 6.89396995569941 15.19411710936766 1 2 -1
251 84 2 0.4238 3.5188623494272693 7.306560419860941 21.558293130382395 0 1 0
1664 555 2 0.4238 14.242298288275173 6.576243049716065 15.971326116041585 1 -1 -1
252 84 2 0.4238 2.3828194448393187 6.136707691513159 21.4726839366543 0 1 0
925 309 1 -0.8476 8.314876071679969 7.665817180691529 21.324312088770483 -1 0 0
127 43 1 -0.8476 14.979077149614112 7.205939302868473 20.167217599813583 -1 -1 2
187 63 1 -0.8476 3.9582682938321705 4.0217793256134 23.83360975391698 0 -1 -1
1615 539 1 -0.8476 2.929090008190003 8.417156589201578 26.010995764280167 1 0 -1
1308 436 2 0.4238 5.195678621501337 2.4770561481525313 27.433785531037437 1 -1 -1
1163 388 2 0.4238 14.11403480457233 2.1817169463705515 27.695635413351688 0 0 0
836 279 2 0.4238 9.389991974016493 2.6417313364572212 22.09905023724457 -1 0 0
1150 384 1 -0.8476 5.503782879927712 3.5649351433829137 25.849705213589765 1 0 -1
1152 384 2 0.4238 4.843678440725084 3.671895080101984 25.10622262132639 1 0 -1
1151 384 2 0.4238 6.323437667382072 3.1078320188044337 25.50449913906254 1 0 -1
342 114 2 0.4238 4.587386071022707 7.904150075368935 23.554650247490834 1 1 0
1413 471 2 0.4238 3.9253866152342773 9.777329201400065 25.09907418321648 -2 0 0
1617 539 2 0.4238 3.4835314178200134 7.587675504522314 26.07807963105354 1 0 -1
340 114 1 -0.8476 5.2400773959784805 7.185039347608372 23.793016138168667 1 1 0
1714 572 1 -0.8476 11.801096622597768 2.1936103619750593 25.626312126497396 1 1 1
341 114 2 0.4238 4.922044915849988 6.703622655183084 24.609740454724957 1 1 0
1782 594 2 0.4238 5.92373322947344 9.784718570291941 23.267220951108747 0 2 -1
1781 594 2 0.4238 7.150824745968256 9.124357498943837 22.41595824404653 0 2 -1
1160 387 2 0.4238 5.839215813194241 9.757049985053431 25.97071069326759 0 0 0
1411 471 1 -0.8476 4.759093920328527 10.024493759097407 24.605325925701088 -2 0 0
204 68 2 0.4238 14.84568331018113 9.674136693297866 22.378398418669505 -2 2 1
489 163 2 0.4238 4.697587615595415 5.275821216380294 26.12534143652565 1 0 -2
189 63 2 0.4238 3.4556629005728254 3.1577812549343873 23.862616052728114 0 -1 -1
1367 456 2 0.4238 14.830661495402678 4.039267743479073 26.754381805433553 0 0 1
1771 591 1 -0.8476 11.027220233095575 8.533945559662277 21.77602824436967 -2 0 0
675 225 2 0.4238 10.894768615807342 6.845600104741042 26.094342849411234 0 1 0
835 279 1 -0.8476 8.572600037166485 3.005100952616303 22.546014910708728 -1 0 0
1709 570 2 0.4238 7.24790055052421 8.045235234159499 27.012609922334633 0 0 1
1159 387 1 -0.8476 5.9717045187843585 9.55947783126857 26.941976662270335 0 0 0
188 63 2 0.4238 3.8675091754176765 4.429837142852129 22.92520659976615 0 -1 -1
505 169 1 -0.8476 8.430742088424962 2.099159598111953 25.350411714340524 0 -1 0
1501 501 1 -0.8476 14.091099850772364 3.188526892225176 21.677973379971398 0 1 1
1161 387 2 0.4238 5.497991818464877 10.248849483057063 27.489979717960097 0 0 0
837 279 2 0.4238 8.64823935310134 2.8762654303103496 23.534764407732148 -1 0 0
487 163 1 -0.8476 4.454183331437912 6.230458610453752 26.296707287890584 1 0 -2
932 311 2 0.4238 6.971117203237475 7.350967643193792 23.759163760442775 0 1 -1
931 311 1 -0.8476 7.911724459869477 7.3401205357731145 24.098405288641416 0 1 -1
1086 362 2 0.4238 2.0426827769900395 9.42720999402643 27.413539032276923 -1 1 -1
933 311 2 0.4238 7.916021593236281 7.066526355487673 25.060212205271093 0 1 -1
1780 594 1 -0.8476 6.395390381778959 9.778830607507217 22.385489572748227 0 2 -1
1624 542 1 -0.8476 9.38085316159799 10.26645510158912 24.419163265160634 0 -1 -1
464 155 2 0.4238 7.275913304031237 2.4803428926318745 21.65039974311859 -1 1 -1
250 84 1 -0.8476 2.5465596585325265 7.102744961805033 21.67244782022894 0 1 0
488 163 2 0.4238 5.131466840956151 6.642924571358451 26.90588977887319 1 0 -2
60 20 2 0.4238 7.3966798399964695 4.676843066199734 21.936059667421773 2 1 -1
1162 388 1 -0.8476 14.138059682127329 2.429511794893376 26.727149369090178 0 0 0
1717 573 1 -0.8476 14.17431841816642 6.880219514215834 25.254295350142037 -1 0 0
1368 456 2 0.4238 14.961459373184983 5.560729793437453 26.176001047876355 0 0 1
1503 501 2 0.4238 13.811221778618386 3.9931246169118535 22.20164826478635 0 1 1
1616 539 2 0.4238 2.174075139411405 8.262765417733931 25.37376712017489 1 0 -1
589 197 1 -0.8476 9.105689762338542 3.0127900667968333 27.81319815242754 0 1 0
75 25 2 0.4238 10.060481930698334 4.715106359785386 24.876827239741893 -1 1 0
1626 542 2 0.4238 10.339057913216386 10.190846490246008 24.143352099913024 0 -1 -1
507 169 2 0.4238 8.626405466526872 2.519161891693306 26.23656067694113 0 -1 0
248 83 2 0.4238 12.125829202946257 8.843040940194577 25.27566756954458 0 1 0
73 25 1 -0.8476 10.499403277933702 4.547951981931252 23.994018216881045 -1 1 0
249 83 2 0.4238 12.839470593891358 9.834604075072516 24.19215627320323 0 1 0
983 328 2 0.4238 12.264376806252509 4.730548757250198 23.73079337229847 -1 1 -1
1625 542 2 0.4238 9.123853402044988 9.462338803209583 24.9551600928567 0 -1 -1
1164 388 2 0.4238 13.21436633973406 2.3796756480826096 26.347344604230912 0 0 0
1007 336 2 0.4238 3.0317527910468227 6.085124405319276 27.540869946254695 0 0 -2
1258 420 1 -0.8476 9.454092753036107 5.286229291589855 26.39173242750539 0 1 1
1084 362 1 -0.8476 2.0915856858600637 10.416997224132931 27.54723399193925 -1 1 -1
984 328 2 0.4238 13.48770324609236 5.68780384235064 24.234394657657944 -1 1 -1
1259 420 2 0.4238 9.560843368575014 4.544535139557782 27.05387929035802 0 1 1
674 225 2 0.4238 11.356453937215585 8.099617199023008 27.032834107581863 0 1 0
1260 420 2 0.4238 8.815370041811882 5.965782564970296 26.752543833607547 0 1 1
74 25 2 0.4238 9.8023658479731 4.503001279768518 23.27843269414776 -1 1 0
1718 573 2 0.4238 13.364467812417626 6.887198834708413 25.840842464651494 -1 0 0
673 225 1 -0.8476 11.679204210650045 7.332810068892585 26.478051376197435 0 1 0
247 83 1 -0.8476 12.035385568211696 9.26913181216078 24.375550394724833 0 1 0
982 328 1 -0.8476 13.190088082651629 5.048230111979619 23.525652333592213 -1 1 -1
1708 570 1 -0.8476 7.4933924269756185 7.079572475216625 27.097306360399323 0 0 1
1715 572 2 0.4238 11.066866075077657 2.863645653394544 25.51721112867463 1 1 1
1719 573 2 0.4238 14.718366728992338 7.701174583690931 25.427467427084224 -1 0 0
927 309 2 0.4238 8.341550602948786 7.6407160705585415 22.32361333273085 -1 0 0
1773 591 2 0.4238 11.472492344269812 8.684350609059173 22.658669734465747 -2 0 0
39 13 2 0.4238 12.690035844722187 5.644151545261156 21.888820173022893 -1 0 0
1710 570 2 0.4238 6.866826145026 6.631038030480794 27.73462577101175 0 0 1
1396 466 1 -0.8476 2.3173216806137398 1.9330863302144077 24.63478179074486 -1 0 1
1604 535 2 0.4238 14.883405141248234 6.206614632797542 28.140842434754227 -1 1 -1
1772 591 2 0.4238 10.05073550512286 8.37237278410272 21.918563980995827 -2 0 0
889 297 1 -0.8476 14.71507922230397 12.519311344854922 5.173289394123922 1 2 1
1752 584 2 0.4238 11.228743650677696 19.340075875202906 4.952954951749886 -1 0 0
729 243 2 0.4238 4.613559044234559 16.193102651346248 7.702749920297157 1 -1 0
1238 413 2 0.4238 4.277806309113437 18.997642181772335 2.0807339167231413 1 0 0
606 202 2 0.4238 6.600992701094687 17.2048157814881 7.818914532494567 -1 0 0
707 236 2 0.4238 6.256432472648174 16.219913083244947 2.5555118427713346 -2 0 1
235 79 1 -0.8476 4.170330924649251 14.375142623976691 4.950207076618161 -1 0 0
237 79 2 0.4238 4.0986018440549365 14.790097004740371 5.8571873855219465 -1 0 0
236 79 2 0.4238 4.774075800418993 14.929126721890421 4.377023810331689 -1 0 0
946 316 1 -0.8476 5.708789243564515 18.81282772749185 6.7088169395655886 0 1 1
660 220 2 0.4238 6.959513330193125 17.84441625664924 5.682974441414604 -1 0 2
1427 476 2 0.4238 9.029024423938404 16.41613217021717 6.181358080594239 -1 1 0
1408 470 1 -0.8476 4.518720498751593 13.785262565165649 1.8717909092083196 0 0 1
12 4 2 0.4238 2.5957868878732153 11.390538185763866 7.820079894048971 0 1 -2
708 236 2 0.4238 6.933344802203663 16.492453170069556 4.016330349174547 -2 0 1
1409 470 2 0.4238 4.108774886962994 14.000149597951777 2.7581951987278646 0 0 1
706 236 1 -0.8476 6.326600071489156 15.89061847498671 3.497099473237621 -2 0 1
857 286 2 0.4238 8.526958704105159 14.567092153975109 5.069675655849527 1 1 1
392 131 2 0.4238 4.721590036872411 12.228315562033426 2.073609270785648 1 1 -1
1776 592 2 0.4238 4.3054566110800785 11.90137774586012 5.452816041903099 -2 -1 0
77 26 2 0.4238 2.043214770608748 15.739427741721393 6.5542231491605225 1 1 -1
520 174 1 -0.8476 2.4286870697096923 18.004690055694724 2.526695063464157 0 -1 0
1774 592 1 -0.8476 4.592050274560366 11.033200921140311 5.047750613789846 -2 -1 0
226 76 1 -0.8476 1.8693529066372614 13.394294214659805 3.6796081696548164 0 0 0
439 147 1 -0.8476 11.338552314722024 16.447338288856464 2.9632727972060167 0 1 1
948 316 2 0.4238 4.819233864710054 19.261286790775422 6.622096393363058 0 1 1
393 131 2 0.4238 4.5922182250892085 11.152197602120543 3.294965530797693 1 1 -1
228 76 2 0.4238 2.732515809379928 13.423147579715016 4.183653558894035 0 0 0
391 131 1 -0.8476 4.6434298130149365 11.257897208813151 2.3019150563625206 1 1 -1
858 286 2 0.4238 7.3415171518347035 14.483784818775773 3.9497348593084607 1 1 1
521 174 2 0.4238 2.012660587416748 18.26126767887002 3.3990680464246763 0 -1 0
1519 507 1 -0.8476 11.674382818417543 11.590574747774623 6.437438730431524 -1 0 0
1446 482 2 0.4238 2.514054336695441 13.388044111169972 7.540431798476145 0 0 0
1444 482 1 -0.8476 2.068826271459776 12.86452463158715 6.81404044975237 0 0 0
494 165 2 0.4238 14.189227384481239 14.96486591440768 3.40321525822315 -1 1 0
441 147 2 0.4238 12.162985953181698 16.92591244093265 3.2653005290228414 0 1 1
484 162 1 -0.8476 8.990151821650462 12.546889684880849 2.32498788597382 0 1 2
658 220 1 -0.8476 7.7854285204700115 17.533017403640454 5.213037442751324 -1 0 2
1628 543 2 0.4238 7.503818199802708 11.556711564462276 8.129863153198809 1 0 1
232 78 1 -0.8476 8.100642077790898 13.074354195224464 7.236969885584298 -2 1 0
1428 476 2 0.4238 10.512642439182716 15.805478058601478 6.485425495378057 -1 1 0
233 78 2 0.4238 8.796834951994075 13.788535672289722 7.309111997892985 -2 1 0
234 78 2 0.4238 7.742990956168365 13.0506150401707 6.303446255593631 -2 1 0
728 243 2 0.4238 3.520306033796305 15.031780099870442 8.052902207580926 1 -1 0
486 162 2 0.4238 8.713688652587706 11.588276766425716 2.392622864519536 0 1 2
890 297 2 0.4238 13.85677460841468 12.589595709851524 4.665038691414409 1 2 1
1520 507 2 0.4238 10.941352504925577 11.42721978405009 7.097685984872291 -1 0 0
1068 356 2 0.4238 14.01943329890516 18.951726397066608 3.0677459267485334 -2 1 2
659 220 2 0.4238 8.146156413052262 18.274053619818915 4.646746437106397 -1 0 2
1612 538 1 -0.8476 13.657624312244975 14.11368874699878 2.182245466719664 0 2 0
485 162 2 0.4238 8.553508499025163 13.072036505440417 3.0554045805372976 0 1 2
1067 356 2 0.4238 14.19222479985164 17.393894373937556 3.5257657176848642 -2 1 2
218 73 2 0.4238 14.206637469517489 18.08982960063684 6.84114421374702 0 -1 0
727 243 1 -0.8476 3.788138419125639 15.72638113867092 7.385264890671472 1 -1 0
522 174 2 0.4238 2.1133021542865476 17.093339125145377 2.2622774677324253 0 -1 0
1521 507 2 0.4238 12.438729527190748 12.0459391777744 6.893905339844181 -1 0 0
856 286 1 -0.8476 8.049401957138116 13.965417660801958 4.429462941952878 1 1 1
1043 348 2 0.4238 11.209222136760431 13.174761825957564 4.710951611607234 0 0 1
317 106 2 0.4238 12.054948276365273 16.812806531510287 8.126518823486549 0 -2 1
440 147 2 0.4238 11.035375450291497 15.820332707205175 3.680833389262115 0 1 1
219 73 2 0.4238 12.890607434380039 19.014990684385253 7.121536660278852 0 -1 0
1044 348 2 0.4238 10.572275549111728 13.658781511057715 3.2873991327545484 0 0 1
1066 356 1 -0.8476 13.533977994655672 18.100021451910315 3.2649182507168293 -2 1 2
217 73 1 -0.8476 13.29130239228195 18.106950465375732 7.243404580126231 0 -1 0
911 304 2 0.4238 9.95304101551659 16.284294798195212 1.9181525636767631 2 -1 1
1042 348 1 -0.8476 11.036854744139307 13.962257457129864 4.119272304021551 0 0 1
1426 476 1 -0.8476 9.557092839406554 15.57545456718485 6.3011472545689164 -1 1 0
1614 538 2 0.4238 12.683798156394909 14.084045924062092 1.9570154182411976 0 2 0
493 165 1 -0.8476 14.735495160910517 15.581045791097521 3.970540871442336 -1 1 0
35 12 2 0.4238 7.252960955731017 13.60397451532073 12.213198390095267 0 0 0
34 12 1 -0.8476 6.826318589716745 14.3472154099992 11.697917832773031 0 0 0
1192 398 1 -0.8476 8.273142328152883 11.89201614751452 11.781124825077507 1 -1 0
934 312 1 -0.8476 3.283351323041127 12.416976630885982 14.326935843903772 2 0 -1
648 216 2 0.4238 4.220506500308941 13.747248220608038 9.255449403122487 2 0 1
1194 398 2 0.4238 8.887909670064838 11.867476633731394 12.569416734503426 1 -1 0
25 9 1 -0.8476 5.90955789797671 17.08134341223966 14.753446107189873 1 0 0
643 215 1 -0.8476 6.514154810146148 19.264623427783256 11.450727932036932 1 1 2
1553 518 2 0.4238 11.614007076654465 10.813754067870402 10.419856626098762 1 0 2
1193 398 2 0.4238 7.658061747210129 11.1042512177986 11.813480837805875 1 -1 0
290 97 2 0.4238 5.394114260864504 16.576914279315098 13.197975678159235 1 -1 0
428 143 2 0.4238 9.300896727589528 13.09483142102622 10.781461100429118 -1 -1 1
289 97 1 -0.8476 5.23692165327687 16.527776687878884 12.211659103868591 1 -1 0
291 97 2 0.4238 5.791633900961913 15.792677767041127 11.821956292760479 1 -1 0
1796 599 2 0.4238 2.806236414521904 12.718725684770881 12.293778725478171 1 0 1
1081 361 1 -0.8476 3.122566107334658 18.46083786671349 10.694186806139632 0 -1 0
646 216 1 -0.8476 3.2392936434349653 13.907904442032638 9.148888528747928 2 0 1
644 215 2 0.4238 5.739130884267307 18.825391680311903 11.904994624142809 1 1 2
10 4 1 -0.8476 2.3793508270875217 10.886092401618518 8.65592360273136 0 1 -2
904 302 1 -0.8476 2.7085247932706245 15.606728473234964 12.915568420737676 0 0 0
1630 544 1 -0.8476 8.113709299025476 17.286628404639465 13.078003042337734 1 1 1
1631 544 2 0.4238 7.742608921751856 16.66895949642862 13.771338799553979 1 1 1
1632 544 2 0.4238 7.40055527817535 17.921748251833655 12.781390610293625 1 1 1
276 92 2 0.4238 8.662205242827557 18.181611937832457 9.445665108759787 3 0 0
750 250 2 0.4238 2.1957740078026835 17.307872154269248 13.52242169186909 0 -1 1
647 216 2 0.4238 2.731101208220202 13.236106911922722 9.687751305563614 2 0 1
905 302 2 0.4238 3.515130683379102 15.772136564118249 12.348142589079243 0 0 0
36 12 2 0.4238 6.589580329319507 14.024449331576664 10.781554095694327 0 0 0
906 302 2 0.4238 1.8835413521437139 15.706795689141734 12.359389352272748 0 0 0
1666 556 1 -0.8476 8.491227737058395 16.649193762025206 10.477346069065494 0 1 0
1083 361 2 0.4238 3.8522805047416724 17.777901736096176 10.661628115717333 0 -1 0
936 312 2 0.4238 2.3311324121295023 12.468885150745633 14.627816480566509 2 0 -1
246 82 2 0.4238 13.833296893372074 13.507167079809163 12.840833799240908 0 -1 -1
865 289 1 -0.8476 4.870061794598954 10.80471069799395 12.660355694225132 1 1 -1
1552 518 1 -0.8476 11.331518453467165 11.164326648060412 9.526971202561835 1 0 2
482 161 2 0.4238 12.294232002111329 11.216991460703529 12.502446265139211 -1 0 1
867 289 2 0.4238 3.978958149705371 11.10791477469836 12.99791541037239 1 1 -1
1542 514 2 0.4238 10.932096837969787 18.808827213419917 10.957864829939032 1 0 1
1668 556 2 0.4238 8.30692246130226 16.850000729909944 11.439454559050898 0 1 0
1795 599 1 -0.8476 2.3664114430052625 12.61123273757357 11.402182469236221 1 0 1
935 312 2 0.4238 3.85274875568088 12.982328564152025 14.92368379490602 2 0 -1
1667 556 2 0.4238 8.984717261578425 15.782374077442242 10.406378552397635 0 1 0
422 141 2 0.4238 13.908686974454051 17.315568919657874 12.48043367959871 0 0 1
397 133 1 -0.8476 10.096401685947543 11.649031050035441 13.874178421999913 -2 1 1
1540 514 1 -0.8476 11.75070561633129 18.43234444792037 10.524177327625692 1 0 1
274 92 1 -0.8476 8.226184504072108 19.05112761290416 9.213775398063245 3 0 0
605 202 2 0.4238 7.371267061572306 16.76807957462256 9.190926901333096 -1 0 0
1629 543 2 0.4238 6.2292922020570005 11.06257987322882 9.02311420440017 1 0 1
399 133 2 0.4238 10.751589983633245 11.387415457918902 14.582860380401478 -2 1 1
1289 430 2 0.4238 13.040293820821612 13.85694241758629 9.391117205913234 -1 -2 3
318 106 2 0.4238 11.452421061169611 15.665386048820569 9.119929708064848 0 -2 1
1474 492 1 -0.8476 14.289245369727505 14.53556668241734 10.580271032124914 0 -2 -1
421 141 1 -0.8476 13.659019801098923 17.008343317173367 11.562161876818958 0 0 1
558 186 2 0.4238 9.765811434651358 17.361625295634646 13.685138807216722 -1 -1 -1
427 143 1 -0.8476 9.874628582091427 13.900071912568785 10.63191232699791 -1 -1 1
991 331 1 -0.8476 10.685259338776126 14.399159671804373 13.403402627149998 0 0 0
1541 514 2 0.4238 11.490697489050392 17.935337723713396 9.6963340188086 1 0 1
398 133 2 0.4238 10.101664669632394 12.643119150379963 13.765985969653313 -2 1 1
1476 492 2 0.4238 13.838288875406954 15.368086371652211 10.90197520370273 0 -2 -1
993 331 2 0.4238 10.543633074208858 14.401926596580882 12.413513865418667 0 0 0
864 288 2 0.4238 3.1836451197363154 15.518069125097783 14.857700581941616 0 0 0
429 143 2 0.4238 10.579543449455363 13.68614129424615 9.955691967422094 -1 -1 1
1563 521 2 0.4238 12.79186396350481 16.91582015608207 14.626476626770751 1 0 1
245 82 2 0.4238 12.244529971534973 13.589899453212434 13.208873701357064 0 -1 -1
621 207 2 0.4238 6.3293770118758905 14.819049334875753 8.826395392727296 1 1 -1
556 186 1 -0.8476 10.678244090149015 17.142411403345733 14.030618374803387 -1 -1 -1
423 141 2 0.4238 12.844064989027268 17.50042648787363 11.256143743823163 0 0 1
244 82 1 -0.8476 13.016998031230564 12.972658943153446 13.059699855117676 0 -1 -1
1561 521 1 -0.8476 13.752649566336475 16.638629690517316 14.625616416657815 1 0 1
1290 430 2 0.4238 11.915634022381903 12.722774644543989 9.051584630488446 -1 -2 3
604 202 1 -0.8476 6.63098007931917 16.53466745558483 8.560498559131904 -1 0 0
992 331 2 0.4238 10.58689573951815 15.329427533276965 13.756774267900495 0 0 0
966 322 2 0.4238 2.45695106528568 19.104295641819604 9.33912208294182 -1 -3 0
619 207 1 -0.8476 6.155592930966639 13.857436063366945 9.038629447067128 1 1 -1
1082 361 2 0.4238 3.0972258897770546 18.878493995623977 11.602408452922186 0 -1 0
27 9 2 0.4238 6.091921643193086 18.06353361605604 14.708834446542777 1 0 0
1797 599 2 0.4238 1.900201820910592 11.72737570254003 11.364905915266867 1 0 1
748 250 1 -0.8476 1.911015486863857 18.22956535076503 13.785745395086874 0 -1 1
1288 430 1 -0.8476 12.227745466362288 13.650308424077641 8.84612904291414 -1 -2 3
316 106 1 -0.8476 11.27370432489475 16.552119200017536 8.69365623608524 0 -2 1
509 170 2 0.4238 10.11661745444412 18.935491824374644 12.59278804194188 1 0 0
1451 484 2 0.4238 14.750111520485426 19.360048201500817 9.95834797177487 -1 -1 1
1038 346 2 0.4238 3.897286751602275 10.72774186159199 9.65816054015164 1 0 0
1200 400 2 0.4238 12.759285051257367 11.847806658866112 14.852849406764003 0 1 0
1037 346 2 0.4238 4.871585728793443 10.761271505493566 10.968158728212364 1 0 0
1627 543 1 -0.8476 7.115604674280185 10.793482228535973 8.646308793521968 1 0 1
620 207 2 0.4238 6.758510114965242 13.280314544414129 8.487842900039825 1 1 -1
275 92 2 0.4238 7.571466729973268 19.296760011385523 9.928585662634502 3 0 0
806 269 2 0.4238 2.8834589184170243 19.3609495238712 13.317482834215253 0 1 0
69 23 2 0.4238 4.556599129526726 14.125732971171143 16.209534275506975 -2 -1 0
1167 389 2 0.4238 8.632012803976965 12.600274198590927 17.98759863230986 0 0 -1
67 23 1 -0.8476 5.130870209698518 13.321035551709445 16.35993596299174 -2 -1 0
1165 389 1 -0.8476 8.130293871738818 13.413803882293633 17.693673794722237 0 0 -1
70 24 1 -0.8476 4.693256137933034 17.048068786385826 17.44823115706012 1 0 -1
71 24 2 0.4238 4.29388637608721 16.575090638965523 16.662903355130837 1 0 -1
1166 389 2 0.4238 7.1571827409970865 13.19620308740115 17.618515098283478 0 0 -1
1252 418 1 -0.8476 7.154942210250075 11.854973425208108 15.256243541750472 2 0 -1
72 24 2 0.4238 4.1670011471718365 16.831735539226056 18.27054489856222 1 0 -1
68 23 2 0.4238 5.093276413040742 13.060319869409149 17.324591145140403 -2 -1 0
1727 576 2 0.4238 10.360204070543205 16.39364242248842 18.780521256253337 1 0 1
785 262 2 0.4238 6.382041824900873 16.486716093187724 17.594193902246023 1 2 1
1331 444 2 0.4238 6.342888738105503 14.111306013335021 21.049987825739194 1 0 0
124 42 1 -0.8476 13.814141780345617 15.055653142203345 20.799649750520423 0 0 -1
1737 579 2 0.4238 5.643688274971284 11.859615325969553 19.685513641685475 0 0 0
613 205 1 -0.8476 14.996704319342903 16.824053379665187 16.98325217008092 0 0 0
199 67 1 -0.8476 9.669406183980707 15.224540406189883 19.535787778184464 0 0 -1
1489 497 1 -0.8476 8.515076483443703 18.733698271369846 19.827519035489125 1 -1 -1
1642 548 1 -0.8476 3.8056808515334293 16.25545267789722 19.740871092207534 0 0 0
82 28 1 -0.8476 8.68497286005578 18.590959825465248 16.414712108858378 -1 -1 -1
159 53 2 0.4238 3.746683859716151 13.156930772107817 19.779553204484934 -1 -1 0
862 288 1 -0.8476 3.1750038146397443 15.505908925086182 15.857561489823846 0 0 0
1643 548 2 0.4238 2.872174896709332 16.196253741377596 20.09443339106658 0 0 0
1148 383 2 0.4238 1.980056564866403 18.911736828492636 15.995637063467921 0 -1 1
1696 566 1 -0.8476 4.159919095490489 18.973836348710627 20.953802899225465 2 -1 0
1735 579 1 -0.8476 5.135575946647638 12.054264655385536 18.846539404054916 0 0 0
389 130 2 0.4238 10.969059537454472 16.30125956323989 20.632012005370036 0 0 -1
201 67 2 0.4238 9.39572767876112 14.638745605305932 18.772970651659016 0 0 -1
1644 548 2 0.4238 4.410038207352643 15.686586783315038 20.298623765893183 0 0 0
360 120 2 0.4238 11.300572467544779 10.669812497296146 21.052886809937604 1 1 1
579 193 2 0.4238 7.649749324501525 17.68542831379851 21.14435763784205 0 0 1
1726 576 1 -0.8476 10.832488832420506 17.20916659696819 18.446138678899956 1 0 1
1147 383 1 -0.8476 2.046806302103241 19.36066098850975 16.886679245207894 0 -1 1
1253 418 2 0.4238 6.195100058782474 12.129639798175004 15.19961971128365 2 0 -1
66 22 2 0.4238 14.837241671756486 11.669788041182581 16.11750120238213 0 0 1
125 42 2 0.4238 14.665091155059308 15.423323332320432 20.424618443829367 0 0 -1
1736 579 2 0.4238 5.211574786431084 11.276392308827392 18.222774241347565 0 0 0
784 262 1 -0.8476 7.288101548169786 16.306119636246084 17.211589813500176 1 2 1
1199 400 2 0.4238 12.761342066119322 11.080858173519964 16.294468081118495 0 1 0
83 28 2 0.4238 8.141917166808884 17.778755832661087 16.62769303940116 -1 -1 -1
816 272 2 0.4238 14.472208933785643 18.777234579148185 19.74816814195752 0 0 -1
802 268 1 -0.8476 12.858760520502218 19.148913809882878 18.796399087811615 0 -1 0
1562 521 2 0.4238 14.183813877373877 16.928058265814567 15.480176517331268 1 0 1
1387 463 1 -0.8476 8.474582813896276 10.975827985586252 18.876918814849063 1 -1 0
1728 576 2 0.4238 10.198640740895025 17.98256667279003 18.440381930514896 1 0 1
557 186 2 0.4238 10.653199778394004 17.091142536351253 15.02896132874875 -1 -1 -1
1389 463 2 0.4238 9.333517202001254 11.079031875783873 19.378441636456508 1 -1 0
358 120 1 -0.8476 11.017937016904941 11.53431947302198 20.637326949403118 1 1 1
207 69 2 0.4238 13.264944962461682 12.119587731916388 18.558117709528823 -1 -1 0
46 16 1 -0.8476 6.6635526191894945 12.08090703405087 20.90041839552554 0 1 -1
1372 458 1 -0.8476 12.982312583186921 14.803705056116344 17.232525678961153 0 -1 0
1374 458 2 0.4238 13.013978666293209 15.029338178838023 16.25885612168313 0 -1 0
1490 497 2 0.4238 9.222521521286229 19.23761044254627 20.32303770988264 1 -1 -1
206 69 2 0.4238 12.842915184319901 13.693395999645231 18.45089731813828 -1 -1 0
1373 458 2 0.4238 12.644103164638768 15.591984242916205 17.74650523092254 0 -1 0
1198 400 1 -0.8476 12.29000249318871 11.168424841524187 15.416905830574958 0 1 0
786 262 2 0.4238 7.576479555485617 15.381384927427726 17.459880429379183 1 2 1
359 120 2 0.4238 11.766322357012655 11.897887383349008 20.082635520234405 1 1 1
126 42 2 0.4238 13.565969311691942 14.221382821491819 20.30735979337293 0 0 -1
863 288 2 0.4238 2.2314738901194002 15.438991454473804 16.181934153393325 0 0 0
803 268 2 0.4238 12.280052175553275 18.333560221357274 18.811872400936302 0 -1 0
200 67 2 0.4238 9.422163087303076 14.78474541482042 20.399151477273264 0 0 -1
157 53 1 -0.8476 2.7547790470621534 13.209207856735269 19.895041888939602 -1 -1 0
253 85 1 -0.8476 14.562674557884362 11.060922982366156 17.785307427129865 -1 -1 1
1254 418 2 0.4238 7.661370536429082 12.52353023759004 15.800767992775917 2 0 -1
205 69 1 -0.8476 13.01296580304696 12.934693920358617 19.079704379108435 -1 -1 0
1697 566 2 0.4238 4.006082089677305 18.08667246167206 20.51880977739031 2 -1 0
561 187 2 0.4238 11.446267204250857 18.734385096989392 21.400441674016335 -1 -1 -1
26 9 2 0.4238 5.954847891944434 16.776809176542557 15.704840821922964 1 0 0
1330 444 1 -0.8476 5.961088609306822 14.919094123315512 21.499045026165767 1 0 0
48 16 2 0.4238 7.548312860584467 12.518756712556625 20.740945906000093 0 1 -1
158 53 2 0.4238 2.309612497610991 12.611965925402114 19.227903250461274 -1 -1 0
390 130 2 0.4238 12.45220636576578 15.920513363145622 21.19927366811323 0 0 -1
388 130 1 -0.8476 11.678865010733299 16.547661041496063 21.29186557378148 0 0 -1
1491 497 2 0.4238 7.888153282681637 19.380064412550304 19.392636276882378 1 -1 -1
1073 358 2 0.4238 9.804228408993517 12.68044736213255 21.431446479437433 -1 -1 1
47 16 2 0.4238 6.7960708086441795 11.24707938523832 21.43624934770633 0 1 -1
461 154 2 0.4238 14.986381521062313 14.44521771420119 18.107205623190872 0 -1 -1
578 193 2 0.4238 6.522828062118572 16.569100112800484 21.532092719845636 0 0 1
773 258 2 0.4238 6.512186491980604 14.543493468716276 25.152290081940777 1 0 0
190 64 1 -0.8476 2.5856525755831132 13.079553989981383 26.56872681393415 1 -1 1
1513 505 1 -0.8476 14.155284842105736 10.794304087197943 23.504267562212938 0 1 1
774 258 2 0.4238 5.075313736782819 15.17916976635909 24.70755388251456 1 0 0
1261 421 1 -0.8476 7.150452481775542 13.634709688507172 26.808601608158682 0 2 -1
719 240 2 0.4238 12.986832808857649 10.959602106090589 27.46498846998383 0 1 0
1318 440 1 -0.8476 3.7026157652289458 15.884273461220195 25.34721058128776 -1 0 0
1698 566 2 0.4238 4.736727494320837 18.85336628243457 21.761715931690766 2 -1 0
772 258 1 -0.8476 5.8509321959804215 14.624415047767004 24.40654302768653 1 0 0
1313 438 2 0.4238 5.926898561795071 18.42632784570165 23.77296758075949 -1 -1 0
1319 440 2 0.4238 3.7955587330369633 16.556374892334404 26.081776163567078 -1 0 0
1312 438 1 -0.8476 5.457787022170459 19.308899337217248 23.742203415567182 -1 -1 0
1129 377 1 -0.8476 6.232589752321139 16.599473548370113 27.10322161174082 1 -1 -1
720 240 2 0.4238 11.679112972547248 11.875017178148852 27.120951049159856 0 1 0
1320 440 2 0.4238 2.8918114580379144 15.32219883334359 25.510347378055883 -1 0 0
1412 471 2 0.4238 4.67616515588338 10.958461507341568 24.257802551749286 -2 0 0
1131 377 2 0.4238 6.179137440849567 15.968252385797268 26.329498684166794 1 -1 -1
192 64 2 0.4238 2.129953581371523 12.309779072554996 27.01563846031722 1 -1 1
1332 444 2 0.4238 6.200452894398686 14.905153051435017 22.469846960071585 1 0 0
456 152 2 0.4238 4.937884853524274 13.312515144679733 23.721204640675815 0 -1 1
1085 362 2 0.4238 3.045192734560124 10.689303374802005 27.675404883264775 -1 1 -1
738 246 2 0.4238 2.7185701672378406 11.61452052286862 23.210402318001016 1 -1 -1
577 193 1 -0.8476 7.170240693569079 17.23720393246061 21.89875264611956 0 0 1
718 240 1 -0.8476 11.988822499214098 10.966954736948233 27.402814304157836 0 1 0
455 152 2 0.4238 4.768728893223121 12.427572693384203 22.359315872956316 0 -1 1
454 152 1 -0.8476 4.467643279342642 12.533245735692226 23.307010413828515 0 -1 1
1365 455 2 0.4238 9.298957741474322 17.746974912735396 24.1626812614062 1 -1 -1
1190 397 2 0.4238 11.29440284075864 18.89727240605793 24.264713130308508 0 -1 0
1262 421 2 0.4238 6.317248414211659 13.759686611719685 27.347208267976143 0 2 -1
1364 455 2 0.4238 7.866683914308369 17.825286854343776 23.382337265457046 1 -1 -1
1101 367 2 0.4238 8.994083004476675 14.268752625683769 24.770387292641615 -1 1 0
1099 367 1 -0.8476 9.677803242820291 14.825318286852127 25.242307152790637 -1 1 0
1100 367 2 0.4238 9.303441619506708 15.146484950414953 26.112163788862468 -1 1 0
1263 421 2 0.4238 7.944787972819441 13.646235798497443 27.415926328060763 0 2 -1
216 72 2 0.4238 7.575205371427784 13.044013996377483 25.11585594158536 0 1 -2
1515 505 2 0.4238 14.63970251526341 10.764569815154948 24.378567310821268 0 1 1
1300 434 1 -0.8476 14.975719586439538 10.937515773150206 27.81957566734512 0 -1 -1
1363 455 1 -0.8476 8.402499395268837 18.189644982756207 24.14397357612605 1 -1 -1
1514 505 2 0.4238 14.065795452423098 11.744220696736798 23.204943666926397 0 1 1
122 41 2 0.4238 13.255714562363215 19.15819803192673 26.463230024477625 1 -2 0
736 246 1 -0.8476 1.9003965010581343 11.050075343568478 23.319664322628647 1 -1 -1
979 327 1 -0.8476 8.11395379623211 18.4862750049045 26.750995620415395 0 -1 -1
191 64 2 0.4238 1.9680221420397717 13.487978806195182 25.896664607179268 1 -1 1
1593 531 2 0.4238 1.902016799181576 19.307026454749966 27.39422346315034 0 1 -1
1130 377 2 0.4238 6.854500076979597 17.349724719329966 26.878952392869017 1 -1 -1
1785 595 2 0.4238 10.85173032268105 13.943918707253507 26.10701411789539 0 1 -2
214 72 1 -0.8476 8.232450983224886 12.881207164986812 24.38001196501512 0 1 -2
873 291 2 0.4238 14.385960544303803 18.073940035763087 24.37086193607621 1 -1 0
872 291 2 0.4238 12.913354476038414 17.486475756352924 24.761751577940615 1 -1 0
1783 595 1 -0.8476 11.1126575752516 13.426083905025202 26.92169725585267 0 1 -2
215 72 2 0.4238 8.450716922522815 11.906262828441635 24.337730322002635 0 1 -2
980 327 2 0.4238 8.460815677132796 18.387475543704163 25.818326891867244 0 -1 -1
1072 358 1 -0.8476 9.007556330898861 13.202277005043708 21.736327748738994 -1 -1 1
871 291 1 -0.8476 13.847186182137435 17.632369250693333 25.088275131570995 1 -1 0
758 253 2 0.4238 11.061787279539157 17.040589425459835 23.204393863599407 0 1 -1
1410 470 2 0.4238 3.796998794216267 13.567554726536214 27.54074406051039 0 0 0
1784 595 2 0.4238 10.29199035810495 13.063053509457395 27.362898756375472 0 1 -2
1613 538 2 0.4238 14.1169995666207 14.77460474962409 27.91482234507427 0 2 -1
910 304 1 -0.8476 9.133716637900417 16.153508953882103 27.685954377834996 2 -1 0
759 253 2 0.4238 10.739349706650902 16.2013816854379 24.567567495877555 0 1 -1
912 304 2 0.4238 8.80717238819352 17.04077266849645 27.36026048930968 2 -1 0
757 253 1 -0.8476 11.11317077564626 17.054175949613114 24.202952530362438 0 1 -1
1074 358 2 0.4238 8.761922771285395 12.923553559439794 22.66472554754033 -1 -1 1
1172 391 2 0.4238 14.586668675422931 16.132721144754136 26.270647753739567 0 0 -1
518 173 2 0.4238 14.647456343497606 14.051976179713284 23.666574344986635 -2 0 0
1237 413 1 -0.8476 4.620874792274259 19.928882367214015 2.203373098569409 1 0 0
1075 359 1 -0.8476 5.51817100628886 23.62158905492752 8.325532954652836 1 0 1
1527 509 2 0.4238 8.345301229531213 19.48415154866666 2.451920130113375 0 0 1
131 44 2 0.4238 8.749221859164766 27.43478975804196 7.853456605242597 0 0 1
145 49 1 -0.8476 5.7090786202749655 25.236804038461273 5.9796282772038145 0 0 0
1506 502 2 0.4238 5.601932966473932 26.885839849911356 4.981172712111657 1 -1 1
146 49 2 0.4238 5.496018773583395 24.683494761138867 6.784860845748385 0 0 0
1378 460 1 -0.8476 3.094542054867967 22.97686395410141 7.322770989634851 0 -1 1
1505 502 2 0.4238 4.902777336134263 27.4816467865069 3.6311078990173504 1 -1 1
830 277 2 0.4238 6.509545974164306 21.06117115983176 5.58790154904098 0 0 -1
182 61 2 0.4238 6.655757528935983 22.664313304038245 3.105039167093913 1 -2 0
147 49 2 0.4238 5.1284232399974545 24.95254290048367 5.2167520994119165 0 0 0
829 277 1 -0.8476 7.467547235745302 20.781931011395358 5.652730595837128 0 0 -1
1684 562 1 -0.8476 5.289679404032317 21.626312277047276 4.219658494622886 0 0 0
1201 401 1 -0.8476 1.9031291628913203 25.507425474534926 3.8220170440116092 0 0 1
831 277 2 0.4238 7.732333433017845 20.302525787724377 4.816068661059816 0 0 -1
1686 562 2 0.4238 5.011229871033333 22.57414892655286 4.064688061337072 0 0 0
1517 506 2 0.4238 3.4752071626053174 24.71454525099672 3.870062117772977 0 0 2
1685 562 2 0.4238 4.9485872928516486 21.052712613096006 3.474954282507159 0 0 0
95 32 2 0.4238 6.97100601726859 25.75262668425922 7.318024099715016 0 -2 0
1379 460 2 0.4238 4.004126356572796 22.968726829147045 7.738145336557479 0 -1 1
94 32 1 -0.8476 7.406433018943778 26.267137785018704 8.056689312167602 0 -2 0
677 226 2 0.4238 4.013699615050188 20.599043087624665 5.3658802401569865 1 0 0
424 142 1 -0.8476 9.420445426564683 20.811526310144963 7.468427846290696 1 -1 -1
1576 526 1 -0.8476 9.179482972560113 23.87665400809312 4.725460502113597 0 2 0
1578 526 2 0.4238 8.617756900380812 23.95506218975939 5.549026013699871 0 2 0
426 142 2 0.4238 8.80867596016413 20.852025053184903 6.678464406823158 1 -1 -1
1577 526 2 0.4238 9.439070192282362 24.78967465395585 4.410894156857269 0 2 0
1456 486 1 -0.8476 13.716460598046496 24.97916353847539 6.258596523935458 -1 1 2
1751 584 2 0.4238 12.235200422965653 19.40001729662717 3.6684590149942657 -1 0 0
923 308 2 0.4238 8.804822100850679 22.209551769164364 8.334925430511188 0 0 2
676 226 1 -0.8476 3.403576442521188 20.27172632722654 6.087377341186684 1 0 0
1069 357 1 -0.8476 9.553782643712097 26.44383516965044 3.8894949276167066 1 -1 1
1516 506 1 -0.8476 4.418975020276772 24.51767187642654 3.60456682442166 0 0 2
181 61 1 -0.8476 7.603462496501414 22.757326616265246 2.799836951880963 1 -2 0
1070 357 2 0.4238 9.32061326700208 26.153584983690898 2.961414434655297 1 -1 1
183 61 2 0.4238 8.164775913552432 23.09726443873315 3.5543664925739495 1 -2 0
300 100 2 0.4238 11.010358796387154 21.432524070255518 3.8043773689306937 0 -1 0
1504 502 1 -0.8476 5.151289136278667 27.682600442105247 4.578633397840931 1 -1 1
194 65 2 0.4238 12.76108805006455 22.689951550519112 4.500757823570474 0 0 0
1584 528 2 0.4238 14.028706947789 25.537732947470815 4.526071964271969 1 -1 1
1380 460 2 0.4238 2.8970377106180596 22.076447767032136 6.935231048261692 0 -1 1
947 316 2 0.4238 6.419807362829735 19.50447159020868 6.835413053549081 0 1 1
965 322 2 0.4238 2.7725251545609737 19.933939175220615 7.968507803451891 -1 -3 0
1202 401 2 0.4238 1.9251842171241744 26.134136779832765 3.0431126068757033 0 0 1
262 88 1 -0.8476 11.826646994039207 27.938841976040706 6.29657402485815 0 -1 0
425 142 2 0.4238 9.066005184078204 20.15174541211495 8.13100278990731 1 -1 -1
263 88 2 0.4238 11.038778455941687 28.086030710594265 6.894523689968493 0 -1 0
298 100 1 -0.8476 11.088069829520412 22.404544558337648 3.5828309603272137 0 -1 0
1518 506 2 0.4238 4.443006671648996 24.23174984539215 2.6466444297787053 0 0 2
1323 441 2 0.4238 12.434058376929999 21.262329689167352 6.222081832914585 0 -1 0
634 212 1 -0.8476 13.531964818558881 28.11418279641134 2.8817046806637583 0 0 0
195 65 2 0.4238 13.518908729040767 23.433178751366533 5.741644248032728 0 0 0
1582 528 1 -0.8476 14.642928872934844 25.684801284000685 3.750799859506129 1 -1 1
1525 509 1 -0.8476 8.561842964043915 19.695457327591022 3.4050225207954288 0 0 1
130 44 1 -0.8476 9.551291715835026 28.024722845998213 7.946231246078189 0 0 1
1526 509 2 0.4238 9.55383254297424 19.688317719786397 3.5309224634155107 0 0 1
1458 486 2 0.4238 12.979037373140264 25.65025742622573 6.1825400526295375 -1 1 2
1322 441 2 0.4238 11.090660347074254 20.572861245036343 6.8436891360512595 0 -1 0
1457 486 2 0.4238 14.141020053170784 25.051322526942577 7.161085682764859 -1 1 2
635 212 2 0.4238 13.79758933144969 27.160408584180495 3.0220770192522606 0 0 0
678 226 2 0.4238 2.6677597391532104 19.729877246580635 5.681275812446471 1 0 0
1750 584 1 -0.8476 11.384972037518756 19.755333174656833 4.056797391956406 -1 0 0
193 65 1 -0.8476 13.38529441884331 22.56092650404998 5.271253529596942 0 0 0
299 100 2 0.4238 10.483857795903555 22.93188150570529 4.180149456629236 0 -1 0
1321 441 1 -0.8476 12.08939618231703 20.53336373410791 6.813489970143243 0 -1 0
1071 357 2 0.4238 9.923644020986062 27.37257632831802 3.865237106771948 1 -1 1
52 18 1 -0.8476 6.7432184546243565 21.905841422590207 11.291382542682541 1 0 2
54 18 2 0.4238 5.808460035411977 22.108178366984255 10.999439388772021 1 0 2
1335 445 2 0.4238 3.3328133182388884 21.863534406380445 10.816339343722637 -1 0 1
1433 478 2 0.4238 5.12417633318131 27.393630333686886 12.421713385271664 1 0 -2
457 153 1 -0.8476 5.425511438237885 25.032071922549306 10.635748354555727 0 0 0
1333 445 1 -0.8476 4.236744792249212 22.287888039762187 10.869028740349494 -1 0 1
92 31 2 0.4238 2.9404045605096165 26.923405320700176 12.220057189102524 1 0 0
91 31 1 -0.8476 3.468977514289266 26.079085419249196 12.132428364033927 1 0 0
964 322 1 -0.8476 2.0958612378019152 19.77018529547668 8.686320824194695 -1 -3 0
1311 437 2 0.4238 14.562526816364542 26.09252181591515 8.996212596282891 1 -1 0
852 284 2 0.4238 7.906949955058508 27.039026421308535 13.300464097711837 1 0 0
1334 445 2 0.4238 4.137852320017988 23.28292316732611 10.877377226784334 -1 0 1
508 170 1 -0.8476 9.754632043338173 19.68576502408944 12.039614452534433 1 0 0
357 119 2 0.4238 6.4323997533336845 27.567431133305384 8.59983696077679 2 0 0
654 218 2 0.4238 5.846215071181635 22.978791670751413 14.746279662734585 1 0 -1
850 284 1 -0.8476 8.285519485095023 26.45270214156568 12.584325258595353 1 0 0
1432 478 1 -0.8476 5.992240431949335 27.591550505724825 11.966480067806033 1 0 -2
93 31 2 0.4238 3.0050024572247027 25.342763123371903 12.62487210249637 1 0 0
645 215 2 0.4238 6.410714401409511 20.257959315928808 11.501010243051923 1 1 2
1245 415 2 0.4238 6.409576152051701 27.87925457958002 14.977160705410423 1 -1 -1
459 153 2 0.4238 6.25906739793401 25.380668921367025 11.064244446250182 0 0 0
1309 437 1 -0.8476 14.625858728442825 25.10537439857754 8.84967372705952 1 -1 0
725 242 2 0.4238 13.906136183951448 25.61795288041297 12.664397771305941 0 1 0
96 32 2 0.4238 7.893046358141416 25.635986519346602 8.66067675557018 0 -2 0
724 242 1 -0.8476 13.897327081804585 25.025785590848635 11.858665467326885 0 1 0
523 175 1 -0.8476 12.298202061448361 27.888419052516596 11.02705534390576 0 0 1
807 269 2 0.4238 3.0552803688701866 20.906182722433932 12.81827183194664 0 1 0
406 136 1 -0.8476 2.3603771555961313 24.19949877780489 13.825002938252936 3 0 0
1469 490 2 0.4238 10.173189578126276 25.099048802304296 9.883907331442275 2 0 -1
1536 512 2 0.4238 7.254030257063992 21.98100071449781 13.06743086414349 0 -1 1
1535 512 2 0.4238 8.001522087233292 22.504036110289356 14.421745728840033 0 -1 1
1534 512 1 -0.8476 7.280707085910452 21.910094024813837 14.064529549324467 0 -1 1
458 153 2 0.4238 4.628107044360812 25.4608589563379 11.060285891360309 0 0 0
53 18 2 0.4238 7.389164571233349 22.38259543629715 10.69522521036084 1 0 2
851 284 2 0.4238 9.038397491289665 25.912041908328547 12.95956582829706 1 0 0
266 89 2 0.4238 3.376644925130867 27.884619527560083 14.361933605535647 1 -1 0
301 101 1 -0.8476 11.912397095013285 21.546104774427704 14.486395279026967 1 -1 0
922 308 1 -0.8476 8.238412838429449 22.764211561333056 8.944415474952619 0 0 2
1076 359 2 0.4238 5.275211900927453 24.16727787484779 9.127492585268406 1 0 1
1470 490 2 0.4238 8.943934228526338 25.556666958492855 10.8565302042134 2 0 -1
510 170 2 0.4238 8.80661793732402 19.488548676963973 11.789976040963126 1 0 0
1564 522 1 -0.8476 14.609321458841427 28.0462590959892 9.406721918933112 -3 1 0
302 101 2 0.4238 11.92022602695132 21.557201125083964 13.486514808179079 1 -1 0
1431 477 2 0.4238 12.326117611655445 24.79206465230716 10.291744682610906 -2 0 0
1361 454 2 0.4238 13.5522536954097 27.5359104218607 13.66681065464413 0 0 0
924 308 2 0.4238 8.782215952734251 23.52025012477177 9.30859782459298 0 0 2
1429 477 1 -0.8476 11.54022907590693 24.31292311531221 9.900913227056982 -2 0 0
1455 485 2 0.4238 14.451185265520673 22.64568412104373 11.313803758029643 3 -1 0
1430 477 2 0.4238 11.823366182416787 23.82768793146741 9.073673801953143 -2 0 0
1218 406 2 0.4238 5.107585194622274 19.851534672853006 14.253160962499537 -1 0 0
1217 406 2 0.4238 6.63829307767594 20.361916264794793 14.504004735211618 -1 0 0
629 210 2 0.4238 2.013648169497453 23.635836965960756 8.727459303568654 1 0 0
1417 473 1 -0.8476 11.000490841833525 25.38722437163966 13.036314133581955 -1 0 0
1468 490 1 -0.8476 9.181467295219115 25.209209924844018 9.949449030684828 2 0 -1
430 144 1 -0.8476 11.856639856668465 21.825276414454017 11.716357084436625 1 1 0
431 144 2 0.4238 11.806235441419814 22.35009936376632 10.866671949265237 1 1 0
1360 454 1 -0.8476 13.985617690133392 26.759663704699975 14.124612306510079 0 0 0
1216 406 1 -0.8476 6.031039310446513 19.567474150702125 14.511011462624845 -1 0 0
432 144 2 0.4238 11.100910748690238 21.171272857782697 11.74948746968803 1 1 0
1419 473 2 0.4238 11.860566392649766 25.082131722101998 12.627495044333378 -1 0 0
1434 478 2 0.4238 6.743849265448272 27.200217000860974 12.497410942339641 1 0 -2
132 44 2 0.4238 10.070920851483336 27.755684560469398 8.757124659628342 0 0 1
1418 473 2 0.4238 11.150158923524673 26.246692352803564 13.525046393334376 -1 0 0
408 136 2 0.4238 3.2644915149363336 24.041934286337785 14.222112671937033 3 0 0
1454 485 2 0.4238 14.696413414638565 21.3698034078095 10.324626527070635 3 -1 0
221 74 2 0.4238 9.739489950066698 24.099336716461252 14.889263986762119 1 0 2
303 101 2 0.4238 12.169679182579973 22.448587693644654 14.831758813040812 1 -1 0
805 269 1 -0.8476 3.490053914409869 20.00635624209987 12.853329919227845 0 1 0
1018 340 1 -0.8476 13.360212460565245 20.59217602080699 9.288815390226262 0 -1 0
1077 359 2 0.4238 6.397431575984911 23.17185523422833 8.48232908705091 1 0 1
265 89 1 -0.8476 2.6000000407763273 28.023302704527588 13.747494940285545 1 -1 0
1019 340 2 0.4238 12.891339816511346 19.976880523207505 9.922467674712694 0 -1 0
1243 415 1 -0.8476 7.328268837932209 27.625246497625163 14.67479017495722 1 -1 -1
960 320 2 0.4238 13.251039992779763 24.480439126101203 14.659840245537874 0 -1 0
1282 428 1 -0.8476 11.073412055301846 27.987073611589288 14.578270775846699 1 0 0
726 242 2 0.4238 14.834761341597504 24.877482454202266 11.543756393883758 0 1 0
1565 522 2 0.4238 13.68156467243477 27.898774216131528 9.74944593350035 -3 1 0
630 210 2 0.4238 2.022295108099475 24.736866591235867 9.933336036481618 1 0 0
1020 340 2 0.4238 12.837659718076225 20.656552368940183 8.438674271552664 0 -1 0
400 134 1 -0.8476 3.6277598776878577 25.35543945316229 18.659365240345274 -2 0 -1
401 134 2 0.4238 4.271801663714793 25.448992444895175 17.90015190929872 -2 0 -1
652 218 1 -0.8476 5.017015796735203 23.372312625815837 15.143161621623774 1 0 -1
325 109 1 -0.8476 5.397696828883761 25.717135017304003 16.714652790157402 0 -2 0
653 218 2 0.4238 4.629978610404168 22.733332292900393 15.807880591045139 1 0 -1
326 109 2 0.4238 5.293632835050142 24.926092684069424 16.111853399437955 0 -2 0
327 109 2 0.4238 6.2766253675016666 25.661883349454065 17.188336533481866 0 -2 0
827 276 2 0.4238 2.91694216634746 21.767325828184077 17.990358608219374 0 0 0
402 134 2 0.4238 2.8052813835155623 24.88316263492485 18.34245964169105 -2 0 -1
176 59 2 0.4238 3.421327664436061 20.20734286921808 16.743676212159407 1 0 -1
826 276 1 -0.8476 2.5515701390784304 22.048979969152114 18.877556092523392 0 0 0
55 19 1 -0.8476 4.903031823880534 21.342296639432924 19.968254967919364 0 0 1
959 320 2 0.4238 13.663629655046808 23.590464471332794 15.96528785846673 0 -1 0
1317 439 2 0.4238 7.972904696167263 21.93560756820189 20.03229195041761 0 -1 -1
175 59 1 -0.8476 4.179192986850517 20.859519621833492 16.75948439662173 1 0 -1
1158 386 2 0.4238 4.77095434481487 27.878914522170703 20.88748215311154 1 -1 0
961 321 1 -0.8476 7.9385806645647605 28.061070729173558 18.382215461244982 2 -1 0
1316 439 2 0.4238 6.553015754372506 21.34765881319887 19.48028707452837 0 -1 -1
20 7 2 0.4238 8.06804770007417 24.851291766148655 21.134184947818554 0 1 0
586 196 1 -0.8476 2.1690263713856197 21.756615203829725 21.542996623133526 1 -1 -1
343 115 1 -0.8476 7.899744637584531 25.3233011755363 17.97385808712953 -2 -1 1
344 115 2 0.4238 8.392897417323642 24.724838344865077 17.342520395538436 -2 -1 1
345 115 2 0.4238 8.008348696015416 24.98402046437205 18.908223308246292 -2 -1 1
311 104 2 0.4238 11.874145890903394 22.371472168581676 21.28071331079373 -1 -1 -1
587 196 2 0.4238 2.4615048660982555 21.64139809943528 20.593718803338064 1 -1 -1
1157 386 2 0.4238 4.0588323493592515 26.855735852023024 19.832746149954268 1 -1 0
220 74 1 -0.8476 9.008937227263425 23.75293222057146 15.477686652474208 1 0 2
1315 439 1 -0.8476 7.542137476583857 21.36366078840547 19.33425129684452 0 -1 -1
1156 386 1 -0.8476 3.9649676495197372 27.72636548788507 20.315590935066318 1 -1 0
633 211 2 0.4238 4.77125063052826 27.133612769955434 15.621177692110747 0 -1 1
804 268 2 0.4238 12.62481309087244 19.708648799971833 18.001471426978988 0 -1 0
177 59 2 0.4238 5.035008319424581 20.37188454231562 16.931927154781377 1 0 -1
138 46 2 0.4238 12.599856885467297 24.964763680595134 20.6016446862807 -1 -1 0
142 48 1 -0.8476 11.444020910494766 24.87880857166595 17.562974299219857 1 -1 0
631 211 1 -0.8476 4.778285129419572 28.116291796577535 15.436145269032602 0 -1 1
57 19 2 0.4238 4.5650857596759895 20.451315059859795 20.27138651642405 0 0 1
821 274 2 0.4238 10.288138696113668 21.789653095406564 17.395133711935465 0 -1 0
475 159 1 -0.8476 11.065501121433291 20.326940831756865 16.843053333296687 0 0 -1
963 321 2 0.4238 7.804644739991256 27.106389823467318 18.116525635242972 2 -1 0
697 233 1 -0.8476 10.381689086858481 27.511875590993682 17.05316372055112 1 0 1
136 46 1 -0.8476 12.512080909696023 25.846973008846227 20.13910071825952 -1 -1 0
144 48 2 0.4238 11.7862529416699 24.561189614491255 16.67870071176222 1 -1 0
699 233 2 0.4238 9.499239922112857 27.86239343013409 17.366796249444086 1 0 1
21 7 2 0.4238 9.061218494216682 23.61592746825574 20.74180057271667 0 1 0
775 259 1 -0.8476 9.552860473655063 21.893313287820597 21.332945281870956 1 0 -1
777 259 2 0.4238 10.152858044060409 21.093362879566556 21.33809914018935 1 0 -1
56 19 2 0.4238 4.189503750637648 21.809350252521632 19.446064577842947 0 0 1
476 159 2 0.4238 11.546638380749304 20.5874184462494 16.00603301684477 0 0 -1
84 28 2 0.4238 8.088068511468792 19.3926968896004 16.38526144428537 -1 -1 -1
559 187 1 -0.8476 11.15492155881685 19.45134110373767 20.767166972433195 -1 -1 -1
222 74 2 0.4238 9.392870756462443 23.11505456241556 16.1452590360949 1 0 2
698 233 2 0.4238 10.626578896119423 26.701422649530343 17.58527224188123 1 0 1
143 48 2 0.4238 11.016433457959423 24.116210761807125 18.04831743868474 1 -1 0
19 7 1 -0.8476 8.47637744577783 24.340662150344016 20.37756834065941 0 1 0
958 320 1 -0.8476 12.902039763536681 24.005666090431994 15.46775965523953 0 -1 0
137 46 2 0.4238 12.070322533001272 25.71553749032161 19.251677651539225 -1 -1 0
822 274 2 0.4238 9.056687020246738 22.30999530435721 18.332816987726275 0 -1 0
477 159 2 0.4238 10.337968069093476 19.677825186654715 16.621041684324744 0 0 -1
1284 428 2 0.4238 10.603357123208356 27.88957412671313 15.455474643894592 1 0 0
820 274 1 -0.8476 9.798498904281825 22.596171732963477 17.726382207087767 0 -1 0
453 151 2 0.4238 14.252726150906858 26.487180543967504 19.576239437877383 0 -1 -1
1581 527 2 0.4238 12.125892914195626 27.739913860789265 20.373068085629 1 -1 -1
560 187 2 0.4238 11.834375129722316 19.550181269353907 20.040174061829056 -1 -1 -1
516 172 2 0.4238 14.903921985396819 25.637587434567337 16.499072428847818 0 0 0
1362 454 2 0.4238 14.1742908119778 26.997537140681864 15.077378638620281 0 0 0
448 150 1 -0.8476 5.340213725428101 24.29750865138906 23.922268800604982 0 0 -1
450 150 2 0.4238 4.651390596441625 24.306580766924824 23.197433550835918 0 0 -1
449 150 2 0.4238 4.893532098794835 24.150294518304165 24.804735976356383 0 0 -1
1488 496 2 0.4238 6.594891433105257 24.91384238906509 22.730312319255297 0 -2 1
106 36 1 -0.8476 2.942218989754683 19.783129179752585 24.305875799466108 1 -1 -1
107 36 2 0.4238 2.8417888337669384 20.776914941460028 24.353292495243814 1 -1 -1
1234 412 1 -0.8476 5.698299338549453 22.094640387319153 25.97175641508509 1 1 -1
1235 412 2 0.4238 5.617676931460464 22.38859465240224 25.01937239638159 1 1 -1
1212 404 2 0.4238 3.216537633487251 27.560503082251415 27.856460299257947 1 1 -1
1095 365 2 0.4238 4.606482532684552 23.1259472201413 26.634062724178193 1 0 0
1093 365 1 -0.8476 4.265110249339504 23.939882505112884 27.10408459805945 1 0 0
1094 365 2 0.4238 3.2652422308397164 23.926651071274748 27.109907380904623 1 0 0
1306 436 1 -0.8476 5.014598659247489 27.93223081490693 27.89081768529681 1 -2 -1
1767 589 2 0.4238 6.682460592402788 25.621999798479045 25.62375401803689 2 0 0
1295 432 2 0.4238 8.786479582556964 24.471862254311517 28.15449840334211 0 0 0
108 36 2 0.4238 3.8949521958009017 19.553518627942978 24.107067097851747 1 -1 -1
1211 404 2 0.4238 1.854845669850212 27.42403074407237 26.965590585661182 1 1 -1
1687 563 1 -0.8476 7.342486075601849 21.118772892788897 23.422217967579165 -1 -1 0
1716 572 2 0.4238 11.43608958676106 27.691420003177086 26.05160384360081 1 0 1
1748 583 2 0.4238 13.63608575538116 27.90658166262324 22.753933175913616 -1 1 -1
310 104 1 -0.8476 12.580422952762905 22.898528642151284 21.75329070705461 -1 -1 -1
1765 589 1 -0.8476 6.355958097784657 25.671339865484327 26.567632285761846 2 0 0
1766 589 2 0.4238 5.588414334106279 25.041817626344532 26.68814574447429 2 0 0
1236 412 2 0.4238 6.5935355906924515 21.673038968183945 26.115802681027958 1 1 -1
1689 563 2 0.4238 8.261123818110498 21.311916461078702 23.766811920657744 -1 -1 0
1355 452 2 0.4238 2.567897121563223 23.363664033635274 21.873163314725453 1 -2 -1
1749 583 2 0.4238 12.949536493998865 27.945213960922466 24.235025889118987 -1 1 -1
1486 496 1 -0.8476 7.236072086459167 25.550675786278894 22.30220479600552 0 -2 1
320 107 2 0.4238 2.381640258725116 23.24165197482479 24.113154527653997 0 1 0
319 107 1 -0.8476 2.093442667646724 22.59845243155422 24.82250715384079 0 1 0
1296 432 2 0.4238 7.775320574655679 25.617218990240147 27.578136114142602 0 0 0
1307 436 2 0.4238 5.5771927308904985 27.215899181964666 27.47814052025582 1 -2 -1
981 327 2 0.4238 7.705683202886264 19.39251173859943 26.860515677355366 0 -1 -1
121 41 1 -0.8476 13.03081658676635 20.088346793168945 26.753383148542213 1 -2 0
1747 583 1 -0.8476 13.15893561932675 27.3662997830004 23.447018817747406 -1 1 -1
977 326 2 0.4238 14.268962434544623 22.730803538421398 22.09499584897116 1 0 0
1487 496 2 0.4238 6.7410613709116065 26.360073706356687 21.986317937059766 0 -2 1
1356 452 2 0.4238 2.2699452995338625 24.927929093772946 22.234794970423742 1 -2 -1
385 129 1 -0.8476 12.18394018593294 23.770839354877218 26.023642423937687 0 1 -1
732 244 2 0.4238 8.542169014751178 25.636052762930788 23.68437783572223 -1 -2 0
312 104 2 0.4238 12.148454117696893 23.576558437531077 22.347953455085168 -1 -1 -1
695 232 2 0.4238 10.533109927636957 25.940745721850057 27.655272883872563 0 -1 -1
1239 413 2 0.4238 4.729223054468531 20.364544643481203 27.635804411367467 1 0 -1
85 29 1 -0.8476 8.2042209269631 21.39128502713664 26.831638631389332 1 -1 0
386 129 2 0.4238 13.169793123498014 23.664727817880063 26.15317561330084 0 1 -1
668 223 2 0.4238 12.151702751244121 25.8994219148166 23.39888319269373 2 0 -1
791 264 2 0.4238 10.375134845086885 21.224609371504343 24.15641588375894 -1 -2 -3
123 41 2 0.4238 13.853639018158017 20.536719631972396 27.102481505741785 1 -2 0
1210 404 1 -0.8476 2.351904480945274 27.06811431492762 27.756919003445567 1 1 -1
694 232 1 -0.8476 11.355136764589236 26.182968086415784 27.13996190068365 0 -1 -1
87 29 2 0.4238 9.198465871599986 21.340175028579687 26.737781164756647 1 -1 0
1354 452 1 -0.8476 2.865015779833297 24.146036272119687 22.420483263583 1 -2 -1
1108 370 1 -0.8476 10.841023052961992 21.68914668607232 27.165353379631284 1 1 -1
1688 563 2 0.4238 7.35062792926387 21.13810814015701 22.422465773269572 -1 -1 0
667 223 1 -0.8476 11.756924744018503 24.987645539867863 23.511836544692486 2 0 -1
669 223 2 0.4238 12.041402257382142 24.6079789913791 24.39210356523229 2 0 -1
696 232 2 0.4238 11.793008189596192 25.3505561701416 26.80039769651323 0 -1 -1
1189 397 1 -0.8476 11.321521987606193 19.889818287944124 24.383295706808653 0 -1 0
1191 397 2 0.4238 12.043800933324153 20.12832729730188 25.03242669109573 0 -1 0
1110 370 2 0.4238 11.583854548745986 21.113733685252058 26.823234350782876 1 1 -1
790 264 1 -0.8476 10.026221154118094 22.156991292198335 24.06224653523244 -1 -2 -3
1398 466 2 0.4238 1.8906351158748853 27.46938915090943 24.193968069793847 -1 -1 1
792 264 2 0.4238 10.328047670600169 22.706114333604773 24.841547476183045 -1 -2 -3
730 244 1 -0.8476 8.948374963044646 25.763486888288384 24.589199833459794 -1 -2 0
387 129 2 0.4238 11.701280526984931 23.07215912652405 26.551687014899763 0 1 -1
776 259 2 0.4238 9.511958127173578 22.28519998864291 22.25201901714567 1 0 -1
1294 432 1 -0.8476 8.690187762756857 25.44445378001265 27.94298473991828 0 0 0
731 244 2 0.4238 9.879183847971833 25.398061653422673 24.591146568538733 -1 -2 0
506 169 2 0.4238 8.44636478232928 27.429544341235776 25.442716287586777 0 -2 0
1314 438 2 0.4238 6.133554804108694 20.04594929977045 23.748513199415463 -1 -1 0
86 29 2 0.4238 7.973330193941842 21.796507888384525 27.716188365831833 1 -1 0
1109 370 2 0.4238 10.986696339278321 21.87918125799829 28.136234667935724 1 1 -1
588 196 2 0.4238 2.3014939995420645 20.898527118376897 22.039062999581056 1 -1 -1
818 273 2 0.4238 18.582818175814303 6.279479425675345 4.574138158926251 0 0 -1
819 273 2 0.4238 17.767026622362298 7.63479543957927 4.979206882428876 0 0 -1
817 273 1 -0.8476 18.349698797383155 6.898809339739297 5.323825575932187 0 0 -1
346 116 1 -0.8476 16.621667852746473 2.6925730142472313 5.337574278188004 0 0 1
348 116 2 0.4238 16.96599461620697 1.8885062065986682 4.8529507326991395 0 0 1
347 116 2 0.4238 16.898224484437698 2.6469758888566255 6.297460537174808 0 0 1
1213 405 1 -0.8476 18.70984146490833 10.183217743273788 6.881491088820513 1 -1 -1
1214 405 2 0.4238 17.915161127654414 10.012974498374453 6.298872301124704 1 -1 -1
766 256 1 -0.8476 27.513371221866308 4.1273267832153815 3.6334338844069576 0 0 0
879 293 2 0.4238 19.063395449065176 10.005653887118289 2.6475891225469574 1 1 1
1695 565 2 0.4238 16.374890183903915 9.986904973384354 3.8805501550797183 1 -1 1
511 171 1 -0.8476 15.749689638066204 8.465671248141621 4.448846581236329 -1 -2 1
1196 399 2 0.4238 20.50879223570233 2.7204647532192374 7.045280199987556 0 1 0
767 256 2 0.4238 27.992849602341288 4.758119238464253 3.0233957109036016 0 0 0
1279 427 1 -0.8476 21.510328643833034 10.237616999767242 4.479658704902628 0 0 0
16 6 1 -0.8476 25.442014036950376 6.8461004786205235 4.206215181272306 -2 -1 2
1483 495 1 -0.8476 19.482667295751362 5.812227409274485 7.7264260836330925 0 0 1
1197 399 2 0.4238 20.419512150566796 4.207391763906189 7.714275551764066 0 1 0
1485 495 2 0.4238 18.640625367482578 5.805323725548844 7.187109823063316 0 0 1
1706 569 2 0.4238 16.195392090196123 6.480178309287144 6.431715070475844 0 1 1
555 185 2 0.4238 20.28464969487318 8.882763424194177 6.9479823859253464 1 0 0
899 300 2 0.4238 27.081174247765112 9.929374606820678 4.100799770920153 -1 0 1
1305 435 2 0.4238 20.332523867216416 5.941822384894385 2.7811172481792474 0 1 1
539 180 2 0.4238 23.688098478581203 8.0021770279574 5.405765118620954 0 1 0
1673 558 2 0.4238 25.54585896223883 9.22178821151133 6.212033422770015 1 1 0
1195 399 1 -0.8476 20.36010460705944 3.2257376840177074 7.89530104878186 0 1 0
1303 435 1 -0.8476 19.393250621169493 6.22853240540137 2.5926819110044823 0 1 1
1633 545 1 -0.8476 20.365198994042437 1.9651093710452123 5.383611562816694 0 2 1
550 184 1 -0.8476 21.968529193287168 5.742040914780499 3.7807392531719843 -1 1 1
1304 435 2 0.4238 18.938074476687305 5.5338227654764225 2.0357808191208857 0 1 1
1484 495 2 0.4238 20.070497001122483 6.559687706660662 7.417065972308511 0 0 1
553 185 1 -0.8476 20.815229474648326 8.156027104680886 7.384199278800658 1 0 0
1705 569 1 -0.8476 15.536862417711042 5.816739915517065 6.786866710773412 0 1 1
554 185 2 0.4238 21.602083695813945 7.927749534974167 6.810879252140095 1 0 0
374 125 2 0.4238 25.84422319446091 9.49279397660399 8.302328925498449 0 1 1
540 180 2 0.4238 22.31768781819477 8.68669119682291 4.840173954784189 0 1 0
17 6 2 0.4238 26.372000987403133 6.494810025488595 4.314213871535256 -2 -1 2
373 125 1 -0.8476 26.39232487945791 8.922655292400737 7.690388814758345 0 1 1
1635 545 2 0.4238 21.06983182500248 1.9572154149126704 4.67412130494701 0 2 1
538 180 1 -0.8476 22.701731040048138 7.882257140180819 5.2933205038765765 0 1 0
1707 569 2 0.4238 15.198656450323913 5.248514546768586 6.036746043682915 0 1 1
1324 442 1 -0.8476 27.53886646024573 5.84598093549411 6.577286510625594 -1 1 0
1672 558 1 -0.8476 24.84726624994223 9.538873971449576 5.570651371886654 1 1 0
1358 453 2 0.4238 24.204071706744784 2.8499606590862947 7.601427031181125 0 0 1
18 6 2 0.4238 24.78626174430591 6.108933846882547 4.369061283462996 -2 -1 2
575 192 2 0.4238 25.78480451615976 6.050134149611764 7.512302637047774 -1 1 0
1524 508 2 0.4238 24.2356780614778 3.6221210748701105 5.5091358795647185 -1 0 0
371 124 2 0.4238 26.885100812300323 2.5560869319580943 7.088222025310518 2 1 0
1679 560 2 0.4238 24.32967686645832 8.327886746340173 2.594737048388076 1 0 -1
375 125 2 0.4238 26.13355828948702 7.963843167410004 7.807280668840134 0 1 1
370 124 1 -0.8476 27.70617583348809 2.3557311209628926 7.622674343699335 2 1 0
670 224 1 -0.8476 25.963022102141963 2.2948703730250735 2.4709793545403254 1 1 0
878 293 2 0.4238 19.959601535752547 10.409946138512423 3.9513682975672317 1 1 1
1674 558 2 0.4238 25.282563402546394 9.817343789761903 4.71454629081736 1 1 0
671 224 2 0.4238 26.489656228183577 3.0266770287019265 2.9034834214671967 1 1 0
1678 560 1 -0.8476 24.575781258125055 9.095623557195804 2.003165294156965 1 0 -1
1523 508 2 0.4238 24.03049305361339 3.2434421178910258 3.934023493272928 -1 0 0
1680 560 2 0.4238 24.814436898513122 9.886944288744171 2.5660146341384467 1 0 -1
1522 508 1 -0.8476 23.95328413634097 3.971077407131153 4.615588110791306 -1 0 0
1275 425 2 0.4238 22.868200149529883 5.55409715140625 2.037470694313258 0 0 0
1328 443 2 0.4238 27.99735545052608 9.278572916602645 6.298242521307939 -1 2 1
574 192 1 -0.8476 25.27004373433259 6.599248723445567 8.170663681636896 -1 1 0
551 184 2 0.4238 21.984021836282324 6.569098649476596 4.342593163186557 -1 1 1
513 171 2 0.4238 15.641762022554419 7.617059923661588 3.9310100649097244 -1 -2 1
552 184 2 0.4238 22.718609551089685 5.139646376262329 4.053585700532159 -1 1 1
1357 453 1 -0.8476 24.718360650769853 2.526013406561729 6.8073806362880305 0 0 1
377 126 2 0.4238 15.463519129329041 3.6105547550214103 4.4568366202130285 0 0 0
768 256 2 0.4238 28.156845265163625 3.758452295425259 4.304118279499731 0 0 0
1326 442 2 0.4238 27.98001715496801 6.259440174687389 5.780805613742158 -1 1 0
1281 427 2 0.4238 22.420050066872165 10.450293278564319 4.123119620520533 0 0 0
898 300 1 -0.8476 26.63420475372589 10.610252883524538 3.5206540032431253 -1 0 1
917 306 2 0.4238 18.896277580522593 6.059754206586896 12.363338674144035 -1 -1 0
916 306 1 -0.8476 17.966477093816955 5.691774067570632 12.3608085292397 -1 -1 0
1753 585 1 -0.8476 15.097516272994772 9.077865292831312 14.871562502413846 0 0 0
918 306 2 0.4238 17.345717532892948 6.357398169107832 11.946625183490783 -1 -1 0
1142 381 2 0.4238 19.98134401443066 3.9758228042198005 10.509867863679013 -1 0 1
1549 517 1 -0.8476 24.135664888814027 5.878298764911619 14.675321863066474 0 -1 0
1661 554 2 0.4238 15.787341533675445 8.394719709060487 11.546782964607853 0 0 0
379 127 1 -0.8476 27.451810472648354 10.1554430913717 11.839521102923861 0 1 0
764 255 2 0.4238 20.13213107130514 9.917197803704894 10.682935945439887 -1 0 0
90 30 2 0.4238 18.395547495757015 9.410829029954296 9.103668217745929 0 0 1
1660 554 1 -0.8476 16.200634290065874 7.522144464259271 11.286500054671153 0 0 0
164 55 2 0.4238 23.9366797346556 3.990234417497819 9.93274381776653 -1 0 0
612 204 2 0.4238 27.494664254951772 3.473005162951707 9.01005158674751 1 -1 0
1662 554 2 0.4238 15.541989737834967 6.985544916356784 10.759059395802492 0 0 0
1132 378 1 -0.8476 15.434007722672892 9.95012631294135 12.097873191049702 -2 0 1
1141 381 1 -0.8476 20.354252921908582 4.8983871055010395 10.411078997695201 -1 0 1
1763 588 2 0.4238 17.664677288069065 2.331351915307586 8.439758824877037 -1 0 1
1754 585 2 0.4238 15.446456000423103 9.311766138399719 13.964106574049637 0 0 0
1143 381 2 0.4238 20.164436212801974 5.23772984864935 9.489796437153888 -1 0 1
1594 532 1 -0.8476 25.453895635990243 10.50668342337205 9.696024981457278 0 1 1
89 30 2 0.4238 17.5008800510841 8.447249302536353 10.071946442787372 0 0 1
185 62 2 0.4238 19.731004884577416 2.473383592054946 9.241572914422967 0 1 0
549 183 2 0.4238 20.49768686625586 8.155742015819925 8.944613204407617 0 2 0
334 112 1 -0.8476 16.651623909295196 3.478308987129606 13.800081472034162 1 1 0
1352 451 2 0.4238 15.280845953730408 4.857810585099886 13.304858849451861 0 1 1
418 140 1 -0.8476 22.889146374591313 2.694238333084877 9.24721123376917 0 1 1
336 112 2 0.4238 17.288539661798673 4.2235802985204085 13.602967686813491 1 1 0
335 112 2 0.4238 16.520222346901974 3.4048587089711067 14.78865817895606 1 1 0
576 192 2 0.4238 24.979867512371648 6.020487408064397 8.932751797392928 -1 1 0
1338 446 2 0.4238 15.938235593502458 9.851636417750502 8.909781791888884 1 0 0
1058 353 2 0.4238 24.1287491837272 9.617772482288132 13.099596216486384 -2 0 0
548 183 2 0.4238 20.459605791027215 7.534683542936691 10.454352957461463 0 2 0
547 183 1 -0.8476 20.459814969698364 8.379026569767145 9.918601983804734 0 2 0
88 30 1 -0.8476 17.465269580845067 9.147383699587884 9.358862722500088 0 0 1
257 86 2 0.4238 22.283677173356487 9.320707073203845 9.912665694720616 -1 0 0
420 140 2 0.4238 21.96522935821111 3.0619408779247363 9.141774539737654 0 1 1
165 55 2 0.4238 25.469160833407194 4.51103324146027 10.148958727723441 -1 0 0
687 229 2 0.4238 25.994857410565842 3.614894051690612 12.683488201389572 0 1 -1
103 35 1 -0.8476 27.966876816387696 3.8910503803866536 12.220112414757391 0 1 0
380 127 2 0.4238 28.159760790909736 9.505439301563493 12.115650020879556 0 1 0
1034 345 2 0.4238 15.03638970198519 6.0700092533826915 8.537702521311697 0 1 0
256 86 1 -0.8476 22.870977450490372 9.794030168241814 10.569162716875608 -1 0 0
664 222 1 -0.8476 19.344756997798946 6.8730718140728815 14.849503174131904 0 0 1
611 204 2 0.4238 27.860244359887545 5.048705183119254 9.23365611894998 1 -1 0
382 128 1 -0.8476 23.34487473638029 6.8858776944145665 12.286581073869751 0 0 0
1595 532 2 0.4238 24.637286707067886 10.330957137647736 10.245766350840919 0 1 1
470 157 2 0.4238 21.652951953157135 7.0947539512569024 12.420340797901563 1 0 0
163 55 1 -0.8476 24.508211076487605 4.786942788479407 10.129094759059212 -1 0 0
1597 533 1 -0.8476 27.069014187687387 9.19738420554829 14.985325958672616 0 1 1
381 127 2 0.4238 26.575628511185627 9.882690992400759 12.236833028435539 0 1 0
686 229 2 0.4238 24.995144832494255 4.415496664725756 13.69644870616176 0 1 -1
384 128 2 0.4238 23.474235347870625 6.233689132983468 11.539680650644472 0 0 0
383 128 2 0.4238 23.755734006496787 6.5214118979945965 13.122226733045064 0 0 0
258 86 2 0.4238 22.698034630053797 9.438712434797562 11.487740416503643 -1 0 0
665 222 2 0.4238 19.851459434826616 6.236470056693645 14.268180508135302 0 0 1
685 229 1 -0.8476 25.07318630193525 3.639495120767193 13.070608492929551 0 1 -1
1425 475 2 0.4238 22.01491861792472 9.52961779192329 14.09289529040923 0 -1 0
469 157 1 -0.8476 20.722615781782388 6.7669251539090824 12.256184944189373 1 0 0
1057 353 1 -0.8476 24.994214777854836 9.219806403746013 12.795397386009197 -2 0 0
471 157 2 0.4238 20.755972560889056 5.9261059339567455 11.715949052260795 1 0 0
1059 353 2 0.4238 24.86402200531873 8.247525572163642 12.601323886250862 -2 0 0
1423 475 1 -0.8476 22.596909695391354 9.997503263153737 13.427828167163316 0 -1 0
1599 533 2 0.4238 26.583368567946287 8.85511474991445 14.18099714266852 0 1 1
1670 557 2 0.4238 16.56260053901129 2.296565076475516 12.320660203222873 0 0 0
184 62 1 -0.8476 19.21746961627015 2.2147734022332113 10.059709201458675 0 1 0
765 255 2 0.4238 20.792796130035974 10.552347355814389 12.034448122998487 -1 0 0
105 35 2 0.4238 27.865768810704154 4.047734861714073 11.237680370529372 0 1 0
610 204 1 -0.8476 27.325061744368533 4.277760784174591 9.578864217556 1 -1 0
1336 446 1 -0.8476 15.066504465306908 10.336445616258754 8.980416162346973 1 0 0
1134 378 2 0.4238 16.213253159578542 10.575687553621346 12.135232692008156 -2 0 1
666 222 2 0.4238 19.63801021794506 7.8088166311526495 14.65372416624435 0 0 1
1341 447 2 0.4238 24.256005697007076 1.8727388243029708 13.752827739448396 0 1 -1
11 4 2 0.4238 28.111555973745812 10.11265445117552 8.434142881017788 -1 1 -2
1770 590 2 0.4238 15.307940807987265 2.8622289943947017 18.752074295045418 -1 1 -1
269 90 2 0.4238 18.524591594336343 9.853270255827425 17.36858353643329 -1 -1 0
1139 380 2 0.4238 19.208616177520028 2.5735278063233165 15.734719330769417 -1 1 0
704 235 2 0.4238 17.130232150634114 3.231756131261536 20.364787786917553 1 0 1
975 325 2 0.4238 18.84462884971427 6.007622553995819 17.771185118527782 0 1 0
306 102 2 0.4238 21.547225510832924 10.070335469255852 19.912493678282402 0 0 -1
259 87 1 -0.8476 17.393625459524245 6.779911106854126 18.824285366991226 0 0 0
270 90 2 0.4238 18.257543401627096 8.581224077879924 18.357049184763177 -1 -1 0
97 33 1 -0.8476 16.69411658704339 4.128480799248404 16.59542899139398 0 1 0
1347 449 2 0.4238 19.82702766844026 6.971950883546293 21.412108618465062 1 1 0
268 90 1 -0.8476 18.339848385813532 9.576768754074859 18.311643431113495 -1 -1 0
1573 525 1 -0.8476 25.405494438047143 3.4903774776740164 17.56417634355182 0 0 0
808 270 1 -0.8476 19.204142695529583 5.611881196198323 20.683659078826203 -1 0 0
98 33 2 0.4238 15.834412085832192 3.7745677872081753 16.96366702069067 0 1 0
997 333 1 -0.8476 21.94547359655541 5.259820900181376 18.899296995178823 0 1 -1
998 333 2 0.4238 21.604080877062707 4.790967575122247 19.713896319415078 0 1 -1
809 270 2 0.4238 18.74016331222475 5.015111332428235 21.338283819029392 -1 0 0
1091 364 2 0.4238 25.01036202655562 2.3223529954225324 20.205829604585894 -1 1 -2
260 87 2 0.4238 16.58548935017771 6.8442131740559455 19.409713026289737 0 0 0
973 325 1 -0.8476 19.787048983064473 5.975642659092126 17.43836948396255 0 1 0
810 270 2 0.4238 18.525336407698667 6.060411457981206 20.10229217827127 -1 0 0
703 235 1 -0.8476 17.078647236374323 2.5961588452251076 19.594528315875586 1 0 1
396 132 2 0.4238 24.643000401349425 7.527111510955223 19.595783838346627 0 0 -1
999 333 2 0.4238 21.180382127238616 5.470940388068208 18.291013432244817 0 1 -1
261 87 2 0.4238 17.114110151948175 6.818040457950044 17.864930582474187 0 0 0
798 266 2 0.4238 17.53803161459233 6.926228682439506 15.598559887502256 -2 0 1
1570 524 1 -0.8476 26.11748546363677 7.616046940063495 16.88717863162902 1 0 0
1025 342 2 0.4238 28.01686632736223 7.379953259813928 19.009711408586874 -1 0 0
99 33 2 0.4238 16.78164235141228 5.097553860899023 16.826040142909036 0 1 0
149 50 2 0.4238 20.216660795502783 10.255474787083157 15.35017942036067 0 0 1
150 50 2 0.4238 21.54652758365674 9.742143068290957 16.146686489074916 0 0 1
1598 533 2 0.4238 26.788655855065564 10.139710440453566 15.167987121008162 0 1 1
394 132 1 -0.8476 24.478794459523748 8.471613297813384 19.880208492635113 0 0 -1
974 325 2 0.4238 19.835069277732053 6.396362721632687 16.53248120851086 0 1 0
203 68 2 0.4238 15.785423121055583 10.329870393137657 21.215049774488072 -2 2 1
1092 364 2 0.4238 24.528920010727504 3.8827032150545824 20.204955281185235 -1 1 -2
148 50 1 -0.8476 20.89990154549136 9.528162040551063 15.414544850677615 0 0 1
796 266 1 -0.8476 16.760000714599045 7.092734417238331 16.204273222172567 -2 0 1
797 266 2 0.4238 16.218232493368802 7.854551117416841 15.849213499175322 -2 0 1
1551 517 2 0.4238 23.706144279231715 5.124549521560239 15.172633158643558 0 -1 0
562 188 1 -0.8476 21.495182874859438 2.7253373692355067 20.599932373441973 1 1 -1
1090 364 1 -0.8476 24.328381805340165 2.966573306402042 20.551993234302465 -1 1 -2
564 188 2 0.4238 20.905474710790386 2.382044038832088 19.868946724592163 1 1 -1
834 278 2 0.4238 22.50293645774933 3.285998502790509 16.48008959370386 0 0 1
1733 578 2 0.4238 18.73907321940449 2.1932222899302967 19.0988834668604 1 -1 0
1046 349 2 0.4238 25.24540649881211 5.019022905494486 18.710959311187416 0 -2 0
304 102 1 -0.8476 22.15692644362774 9.739505116493177 20.632743876151032 0 0 -1
1117 373 1 -0.8476 26.975102585782082 4.510035181940143 21.30618033354613 0 1 -1
1047 349 2 0.4238 23.74630293180833 5.471614756859584 19.173914801757185 0 -2 0
1045 349 1 -0.8476 24.709210972254816 5.441098671621482 19.441911635534503 0 -2 0
1575 525 2 0.4238 25.23882465119887 2.5731231058134845 17.92585304743117 0 0 0
1571 524 2 0.4238 26.664861528306538 7.2840672634303365 17.655367514049242 1 0 0
395 132 2 0.4238 25.0662791045524 8.692174268953789 20.658771047446493 0 0 -1
329 110 2 0.4238 23.648828241894734 9.222194895380914 17.91218594592705 0 2 0
833 278 2 0.4238 22.61523668327613 4.64289162745289 17.381592526197036 0 0 1
305 102 2 0.4238 22.617323953075307 8.907410342297908 20.323556290570117 0 0 -1
880 294 1 -0.8476 27.908285265438593 4.420668897908 17.168065665254083 0 -1 1
1574 525 2 0.4238 24.583210660955388 3.820361484586151 17.1005985550447 0 0 0
328 110 1 -0.8476 23.683249539803242 8.992705588206357 16.939512296121244 0 2 0
330 110 2 0.4238 24.41917711222603 8.335228915009317 16.77802010931616 0 2 0
1026 342 2 0.4238 27.805987105251006 5.838515666558221 19.505673973022333 -1 0 0
563 188 2 0.4238 22.448249708391657 2.5083546824399967 20.388918927911526 1 1 -1
881 294 2 0.4238 27.891257480015135 5.22599776294417 17.760602351680497 0 -1 1
832 278 1 -0.8476 22.925544900839924 4.1898901768547425 16.54586367096673 0 0 1
1024 342 1 -0.8476 27.623929956450887 6.491955128839977 18.770951720107554 -1 0 0
882 294 2 0.4238 27.058467581312982 3.905854793094592 17.28085116262445 0 -1 1
1118 373 2 0.4238 26.225840822243214 5.169614763488807 21.246962585657315 0 1 -1
1572 524 2 0.4238 26.703914683257814 8.12041484469136 16.253413004816927 1 0 0
1346 449 2 0.4238 20.73966956174298 8.32475645366954 21.47110476538915 1 1 0
1119 373 2 0.4238 26.60155447332307 3.5828669564904914 21.333850851484172 0 1 -1
367 123 1 -0.8476 26.80198692153401 9.054330139855729 21.579483681285822 0 -1 0
1550 517 2 0.4238 23.96778981489517 6.736342101750482 15.160630458865882 0 -1 0
369 123 2 0.4238 27.526874794640193 8.368698417597342 21.51320746901135 0 -1 0
1268 423 2 0.4238 15.413015301802112 6.3537715147798295 24.32938293205327 1 0 -1
1267 423 1 -0.8476 16.166841092468964 5.976202143927984 23.791672609856874 1 0 -1
24 8 2 0.4238 17.12684549826648 4.9609541510718405 26.968418735671968 -1 1 -1
1269 423 2 0.4238 16.65481129773572 6.719439515352526 23.334040109056957 1 0 -1
545 182 2 0.4238 19.245926797297827 6.301771768674552 25.898038457906864 0 0 -1
544 182 1 -0.8476 20.042774591185903 6.8187881384047735 25.585512176087448 0 0 -1
546 182 2 0.4238 19.739943836531246 7.663836895673578 25.14490807620949 0 0 -1
1568 523 2 0.4238 21.67716149173004 9.600282097724538 26.00641763200754 -1 0 -1
23 8 2 0.4238 18.41177953249037 3.954354509084121 26.92172820254364 -1 1 -1
22 8 1 -0.8476 18.123114035336634 4.905166897538221 27.03385597582153 -1 1 -1
618 206 2 0.4238 19.706992712491058 4.026223252380939 23.053158443048332 0 0 0
1384 462 1 -0.8476 15.638082635241636 8.894192203936534 25.898129802787814 0 1 -1
1386 462 2 0.4238 16.631535723592712 8.78611419712729 25.934389281415804 0 1 -1
1008 336 2 0.4238 27.755544116369194 5.903164989480255 27.798565809095187 -1 0 -2
1385 462 2 0.4238 15.316006093282981 9.303829114691572 26.75159878683656 0 1 -1
1366 456 1 -0.8476 15.318386476776972 4.907637413909668 26.843847026903248 0 0 1
434 145 2 0.4238 18.771832577733626 8.857318060225035 26.81165321277716 -2 0 0
583 195 1 -0.8476 16.306086832463787 1.9235384096744332 22.54299330654797 -1 0 -1
1397 466 2 0.4238 27.97374724078685 2.39009589795717 25.22027620781907 -2 0 1
45 15 2 0.4238 16.861589762059598 8.563153429257525 22.12998978749895 0 1 -1
435 145 2 0.4238 19.204402731302288 8.026503598783217 28.14922899307441 -2 0 0
295 99 1 -0.8476 18.50436500072375 9.194391555314251 25.061648370157926 -1 -3 0
296 99 2 0.4238 18.950171522202368 10.088308110031578 25.015667005044477 -1 -3 0
1463 488 2 0.4238 15.3147345839023 1.9537420141418012 25.736167717208566 0 0 -1
951 317 2 0.4238 18.9367310018529 2.106030298315547 25.38975481596234 0 1 0
297 99 2 0.4238 17.90519154004693 9.079604077275322 24.269335548531792 -1 -3 0
1345 449 1 -0.8476 19.84105393417451 7.9365444785908625 21.675373417275658 1 1 0
949 317 1 -0.8476 18.385958755950625 2.088627479770737 26.22419555134742 0 1 0
663 221 2 0.4238 22.932994026588666 3.283978451546955 26.05075895748547 1 1 -1
713 238 2 0.4238 17.42903537810515 3.2002585679327673 22.687841296421396 0 0 1
174 58 2 0.4238 20.731420441105833 10.340295582100334 28.047743885930352 1 0 1
714 238 2 0.4238 17.23158163740584 4.741606754989123 23.189573875622813 0 0 1
712 238 1 -0.8476 17.830735256416258 4.115997057762586 22.690002362360374 0 0 1
43 15 1 -0.8476 17.440496447054375 8.158669098026824 22.837947341164373 0 1 -1
1274 425 2 0.4238 22.982743511839054 5.127069775685628 26.791492802068298 0 0 -1
1436 479 2 0.4238 26.559978751045946 3.9270206130576004 26.633171664756823 1 1 -1
284 95 2 0.4238 27.153958552114098 7.467503516283348 23.58926271049325 0 -1 0
1080 360 2 0.4238 21.930722878549872 10.254947671050443 22.469859393332115 0 1 -1
672 224 2 0.4238 25.979833572367845 2.4140285640681927 27.804240043334843 1 1 -1
1224 408 2 0.4238 21.389480840302788 5.492431908754346 25.59041878665834 1 0 -1
1016 339 2 0.4238 25.99428834183903 10.115862090080146 25.264334739907383 0 -1 -1
285 95 2 0.4238 26.26121908038757 8.11509051756266 24.79347421204217 0 -1 0
1569 523 2 0.4238 21.47449053080402 8.038660930348506 25.574280459879645 -1 0 -1
661 221 1 -0.8476 23.456642876276796 2.524873428127962 26.437406877359166 1 1 -1
81 27 2 0.4238 26.366819208447247 6.74927940540738 26.502443175850793 -1 1 1
1113 371 2 0.4238 23.705698361544634 8.858452755062823 25.338913856700707 1 0 -1
1437 479 2 0.4238 25.857343261863228 2.9216318040906573 25.555221543171918 1 1 -1
1273 425 1 -0.8476 23.45080992157284 5.578595125161106 27.551087579252858 0 0 -1
1567 523 1 -0.8476 21.875479645779222 8.9145817990191 25.306110005058777 -1 0 -1
433 145 1 -0.8476 19.025133789609548 8.93662752136495 27.775755697841603 -2 0 0
283 95 1 -0.8476 27.07103456879159 7.568411871830812 24.580668555278784 0 -1 0
80 27 2 0.4238 25.320624507095225 5.8961968145644725 27.421249610251188 -1 1 1
1222 408 1 -0.8476 22.034500758160874 4.7375353183669215 25.471992019625112 1 0 -1
79 27 1 -0.8476 26.242120310285976 5.911021006250708 27.033213912004562 -1 1 1
1111 371 1 -0.8476 24.663847722578446 8.735652903354943 25.597398685285988 1 0 -1
368 123 2 0.4238 27.133442202380117 9.840453380236404 22.10110929384642 0 -1 0
662 221 2 0.4238 23.685720361867943 2.728638157027912 27.38922014191204 1 1 -1
1223 408 2 0.4238 21.798332118399593 4.223599721244868 24.647347216088995 1 0 -1
1079 360 2 0.4238 21.75463330133276 10.05494906952664 24.0809058390999 0 1 -1
1435 479 1 -0.8476 26.599497692195442 3.0179606035623525 26.21845048684648 1 1 -1
616 206 1 -0.8476 20.641759558763532 3.6924011442292857 23.174478652392942 0 0 0
617 206 2 0.4238 21.03474199606587 3.470141579787196 22.28222843008814 0 0 0
44 15 2 0.4238 18.382364778553843 8.102927097252786 22.506704350745018 0 1 -1
1112 371 2 0.4238 24.730559278968848 8.630534155122795 26.589590220858078 1 0 -1
585 195 2 0.4238 15.555258012123439 2.3926334678762684 22.07807253952653 -1 0 -1
202 68 1 -0.8476 15.423534909152616 9.475073073399484 21.586940561279697 -2 2 1
1124 375 2 0.4238 25.947774908758625 14.18997497464293 8.200579710390926 -1 1 0
116 39 2 0.4238 18.80365321888126 14.861680060192725 5.959905771448861 0 0 1
495 165 2 0.4238 15.103995668824286 15.076439908637768 4.751261542980811 -1 1 0
241 81 1 -0.8476 17.457976016939565 17.274160292873482 8.118703216684462 1 1 1
1543 515 1 -0.8476 21.04426257860053 12.65267565153627 5.453926186520724 0 -1 0
1545 515 2 0.4238 20.405131986494837 12.965513684381348 6.15648523335467 0 -1 0
115 39 1 -0.8476 18.648731700896256 15.843537377163914 5.850812870336333 0 0 1
1280 427 2 0.4238 21.15713774289152 11.025880079099343 4.983485813216943 0 0 0
117 39 2 0.4238 18.30410691368362 16.22396443133313 6.7089815556247165 0 0 1
139 47 1 -0.8476 16.046186679091015 12.542332018068796 7.60748717772678 -3 -2 0
243 81 2 0.4238 17.006469699525923 18.033693450682357 7.65051847499333 1 1 1
478 160 1 -0.8476 22.23310162021692 14.993379133916704 4.375952697933611 -1 2 0
480 160 2 0.4238 22.673724990558604 15.697209165181947 4.933105220747626 -1 2 0
1544 515 2 0.4238 21.576877283597405 13.429534763698197 5.118132631105373 0 -1 0
1170 390 2 0.4238 24.61818093402473 16.64260113791553 4.194188145325075 0 0 0
1186 396 1 -0.8476 18.60049549494073 13.090358112358649 7.219727655134655 0 -1 0
1381 461 1 -0.8476 16.65202447865994 17.42299358509667 2.6227240856508494 -1 0 0
1404 468 2 0.4238 19.75583081169553 12.299085525174728 2.657901076295457 0 0 1
438 146 2 0.4238 20.10863227889437 17.312326007565257 3.41007620412408 -1 1 0
472 158 1 -0.8476 24.7245755961681 13.6258787926478 2.036458505076949 -1 1 1
1302 434 2 0.4238 15.468642934314813 10.920368903514303 2.363481755425914 0 -1 0
1188 396 2 0.4238 17.621631806529606 13.12331705638082 7.421433088593312 0 -1 0
1403 468 2 0.4238 20.58019566729233 13.628746817739856 3.1257701179846276 0 0 1
1382 461 2 0.4238 16.137238159203168 16.661778787310574 3.0170480055106337 -1 0 0
437 146 2 0.4238 18.79236545405349 16.870722842770085 4.269672687486252 -1 1 0
1445 482 2 0.4238 27.46217291741707 12.634906359246898 7.092325332512295 -1 0 0
1466 489 2 0.4238 27.70126135700648 17.81644147373546 5.55700003864616 1 0 1
100 34 1 -0.8476 23.221052104034833 11.738447698938604 3.132796726559128 0 2 1
1270 424 1 -0.8476 21.6380906323244 18.33081675417568 3.3212488439337573 -1 0 2
1395 465 2 0.4238 25.06376167420772 12.435332829927283 7.1895131907782766 0 0 0
436 146 1 -0.8476 19.176495312397833 16.955265374492413 3.350302778531498 -1 1 0
1639 547 1 -0.8476 19.775395547646568 19.233774813786994 5.308429657478049 0 0 0
102 34 2 0.4238 23.85177899973712 12.424214910400828 2.7696834407117934 0 2 1
1215 405 2 0.4238 18.872725412683167 11.167874029694826 6.9436632924937 1 -1 -1
1402 468 1 -0.8476 20.216164686097173 13.128089002883124 2.340424515278384 0 0 1
473 158 2 0.4238 24.157750216637133 14.41395081069668 2.276452445810945 -1 1 1
1393 465 1 -0.8476 25.72013668339754 12.591433827737298 7.927584051320372 0 0 0
479 160 2 0.4238 22.35729752004942 15.20880012725684 3.4073893154427477 -1 2 0
1277 426 2 0.4238 24.221873930399425 11.113022552203088 6.089276036309463 0 0 0
891 297 2 0.4238 15.367324813552496 11.969485648523522 4.651549549342288 1 2 1
141 47 2 0.4238 15.706172438716504 11.729600185016368 8.08056431908817 -3 -2 0
717 239 2 0.4238 24.693803191132453 12.823155562269504 4.938160106730338 0 1 -2
892 298 1 -0.8476 23.875721641212998 19.16241809184531 6.502525946341999 -1 -1 1
1169 390 2 0.4238 24.486946148355145 18.245866949122416 3.913483340722295 0 0 0
1694 565 2 0.4238 17.698205707976683 10.803897235559361 3.382716455086209 1 -1 1
1221 407 2 0.4238 23.110043577803417 11.913995816121393 8.206440751483811 0 1 1
76 26 1 -0.8476 27.457414225597915 15.976869887911336 6.219188939701855 0 1 -1
101 34 2 0.4238 22.452449069826685 11.625915645604652 2.503090201189471 0 2 1
1187 396 2 0.4238 19.119455227297827 13.231521871086168 8.062757491200795 0 -1 0
1272 424 2 0.4238 22.53082243214123 17.940970551413976 3.5470682843628514 -1 0 2
1271 424 2 0.4238 21.480172421959686 19.14648412183034 3.877749460869507 -1 0 2
877 293 1 -0.8476 19.2497998679965 10.722018953866192 3.3199125165659336 1 1 1
1278 426 2 0.4238 22.756034000487396 11.83072482723254 6.037362487712972 0 0 0
227 76 2 0.4238 27.431871541326032 13.40026479359377 4.325408082729302 -1 0 0
900 300 2 0.4238 27.316716579204154 11.051197877592351 2.937824078222297 -1 0 1
715 239 1 -0.8476 25.665838688117255 12.974006643880747 4.758339525278798 0 1 -2
1205 402 2 0.4238 27.29033826409532 15.950403112529516 2.3785305967569674 0 0 1
78 26 2 0.4238 26.81307689287228 15.98527797637866 6.983847695520554 0 1 -1
230 77 2 0.4238 26.57765413172268 16.127811638609376 4.671719845764737 0 1 1
1168 390 1 -0.8476 23.982630192571406 17.41275504909675 4.140495241126672 0 0 0
1693 565 1 -0.8476 16.7061056499406 10.849921691537977 3.499180248661707 1 -1 1
716 239 2 0.4238 26.028976732513257 12.209194496861429 4.2262322424768985 0 1 -2
1276 426 1 -0.8476 23.638905258853242 11.810189512745263 6.506469131696602 0 0 0
229 77 1 -0.8476 26.159834506605193 15.812711480838013 3.8196145541847324 0 1 1
231 77 2 0.4238 26.1309386245195 14.813183432822695 3.812256897357543 0 1 1
1383 461 2 0.4238 17.62810580737559 17.289584530369527 2.7942220471317185 -1 0 0
893 298 2 0.4238 23.969137975275515 18.278787225742228 6.043816548669869 -1 -1 1
140 47 2 0.4238 15.72718134984866 12.53424954063919 6.65979777812334 -3 -2 0
1010 337 2 0.4238 16.000256498960383 19.13517224360067 2.7854655130418995 1 -1 0
351 117 2 0.4238 23.0449646477486 16.747590160022746 1.8944915233781192 0 2 0
1465 489 1 -0.8476 27.835036752966225 18.71866713093253 5.14707651623705 1 0 1
1467 489 2 0.4238 27.131204892669253 19.344825976123396 5.4824728697337495 1 0 1
211 71 1 -0.8476 18.12321591944749 11.985805711754042 12.430380847372481 1 0 1
1648 550 1 -0.8476 20.77815276128561 19.111938101824876 14.432739247324417 0 0 0
535 179 1 -0.8476 16.070707052893724 12.261562281950697 10.806846603063986 0 0 1
740 247 2 0.4238 22.71274890843916 19.152062076624745 12.261090408743977 1 1 0
1088 363 2 0.4238 19.74336230268176 17.262839743274668 10.05516594065812 -1 0 2
581 194 2 0.4238 21.278873604311173 13.288217039444566 9.472012535162296 1 1 0
582 194 2 0.4238 19.97185415172178 12.573770610457004 10.141150984928144 1 1 0
580 194 1 -0.8476 20.279363649317673 13.259205816331633 9.481180581856968 1 1 0
1125 375 2 0.4238 25.071337590749344 15.532777873282084 8.509150346964702 -1 1 0
1087 363 1 -0.8476 19.73183020826606 18.080373963224368 9.479449858726166 -1 0 2
409 137 1 -0.8476 16.607466925219995 14.73154594454014 9.203533877546072 0 0 -1
410 137 2 0.4238 16.969756053965753 15.527916792440484 8.719297177423883 0 0 -1
213 71 2 0.4238 17.41313868507455 12.24746973625232 11.776724346727256 1 0 1
1658 553 2 0.4238 17.337339786890883 17.33703225915023 12.198209557748262 0 1 1
1608 536 2 0.4238 23.138151009961383 17.511914356945642 9.115635632449848 0 0 -1
1720 574 1 -0.8476 20.064174609455854 15.674233734086659 11.031994683608092 0 1 1
1721 574 2 0.4238 19.958852874824238 14.90041503011759 10.407449241678801 0 1 1
1722 574 2 0.4238 19.589573785303372 15.477192638946478 11.889825459318036 0 1 1
1677 559 2 0.4238 15.019489449101405 15.37102139838746 14.474846784174247 1 0 0
1657 553 1 -0.8476 17.20362473016501 18.318935949494772 12.332111548757931 0 1 1
536 179 2 0.4238 15.461047133496162 13.051034474484752 10.736181618421039 0 0 1
722 241 2 0.4238 21.521717518192197 16.49416667877584 11.78897260827188 0 1 1
169 57 1 -0.8476 17.30602222859259 15.386493572024063 12.005712633941007 -1 0 -1
760 254 1 -0.8476 25.609509475651272 18.1338229557444 14.77178797043316 -1 0 -1
1022 341 2 0.4238 20.350493909066948 12.911627764589735 12.707319535123295 0 0 2
1659 553 2 0.4238 16.748428594359773 18.705746103682536 11.530164768176313 0 1 1
1607 536 2 0.4238 24.25755864030502 16.635510476354433 9.918954425078624 0 0 -1
212 71 2 0.4238 18.841813046272357 11.477275792373211 11.956081230442525 1 0 1
170 57 2 0.4238 17.112875605778946 14.950770710354693 11.126630676731486 -1 0 -1
1023 341 2 0.4238 21.15728427432868 14.045378811126497 13.561823432825172 0 0 2
762 254 2 0.4238 25.497611187361336 19.12230215474385 14.67014185994308 -1 0 -1
1021 341 1 -0.8476 21.253213861475345 13.21638195553335 13.0109081634973 0 0 2
642 214 2 0.4238 18.886270865432394 11.598745782175191 14.407093771853075 0 -1 0
171 57 2 0.4238 16.5569199511347 15.200691158654761 12.641534329202836 -1 0 -1
1649 550 2 0.4238 21.064225931541635 18.43509524268135 13.754513016006072 0 0 0
1472 491 2 0.4238 21.41818756965531 16.04633121402437 14.34497598347721 0 2 -1
763 255 1 -0.8476 20.165364888026716 10.72262039228834 11.274657742009799 -1 0 0
1089 363 2 0.4238 20.668256384506776 18.40090253619271 9.336930760915326 -1 0 2
496 166 1 -0.8476 22.120543147123783 19.1971146950144 8.872120908549118 -1 -1 0
1547 516 2 0.4238 23.067571615064814 12.987492377723887 12.100016113623486 0 0 0
1548 516 2 0.4238 23.527209524601332 12.901633217219588 10.535458885172671 0 0 0
1219 407 1 -0.8476 22.825181869982067 12.093759722922014 9.147973580728525 0 1 1
1471 491 1 -0.8476 20.974515169287322 15.254536220489014 14.76469023300006 0 2 -1
1675 559 1 -0.8476 15.663477894317353 14.772084019386812 13.998928662689256 1 0 0
1546 516 1 -0.8476 23.825397737852526 13.127555189735753 11.462813947689705 0 0 0
1121 374 2 0.4238 25.36178776650759 12.944718872222607 12.294009077726912 -1 1 0
1220 407 2 0.4238 22.698584414865323 11.226418326313926 9.629260967953803 0 1 1
161 54 2 0.4238 24.469706090462914 14.919022925617101 11.525037512488037 0 1 0
721 241 1 -0.8476 22.092465145127974 16.92616867159247 12.487231703762047 0 1 1
1606 536 1 -0.8476 23.800752728346147 16.766892436955942 9.039174846842535 0 0 -1
160 54 1 -0.8476 24.44046034670093 15.917938080041262 11.560500111583043 0 1 0
65 22 2 0.4238 15.534612272430183 11.436319887044192 14.659542098295363 0 0 1
637 213 1 -0.8476 27.08331052182082 16.109339216095375 11.140018719940436 -1 0 1
1415 472 2 0.4238 17.10777845714658 17.865488171804323 14.426256435375588 0 0 1
537 179 2 0.4238 15.914010565278042 11.649036900431394 10.032118427490783 0 0 1
639 213 2 0.4238 27.264895279650915 15.468809634423854 10.393899579531347 -1 0 1
1122 374 2 0.4238 26.94821103250233 13.23492316236318 12.038037555765046 -1 1 0
1120 374 1 -0.8476 26.270982879433923 12.935792150237507 12.71021855763853 -1 1 0
749 250 2 0.4238 27.252539932372095 18.236919164319232 13.96114977246469 -1 -1 1
162 54 2 0.4238 25.373086499042955 16.278272643392377 11.57815805173083 0 1 0
723 241 2 0.4238 23.045294059666368 16.653305274716956 12.354540732593179 0 1 1
638 213 2 0.4238 27.330589656865392 17.034630701983247 10.852557155406581 -1 0 1
1450 484 1 -0.8476 15.501158935956735 18.81323126661617 10.328299288962606 -1 -1 1
1029 343 2 0.4238 24.301088779274842 15.276847482299962 14.248449442868017 -1 1 1
996 332 2 0.4238 26.782145572622447 12.549546881269524 14.297479603768068 -1 -1 0
1424 475 2 0.4238 22.93791295961389 10.849688446204144 13.824617027229149 0 -1 0
1123 375 1 -0.8476 25.996681879547722 15.162474747756944 8.428168510176299 -1 1 0
242 81 2 0.4238 18.157712499149007 17.632308158422244 8.736800476243895 1 1 1
1475 492 2 0.4238 15.082040398957881 14.780334580972365 10.02214066011367 0 -2 -1
1676 559 2 0.4238 15.370464285655068 13.821230650197931 14.098756875574386 1 0 0
1394 465 2 0.4238 25.732104365777282 11.79816468460998 8.536291806191162 0 0 0
1452 484 2 0.4238 15.18466408636662 17.878598008557397 10.490275813428127 -1 -1 1
411 137 2 0.4238 16.48899659608912 13.975523961660127 8.559840985870515 0 0 -1
1596 532 2 0.4238 26.219219116174415 10.73240654878363 10.298747087283456 0 1 1
761 254 2 0.4238 24.727671979748884 17.682714665006262 14.634642345884373 -1 0 -1
1004 335 2 0.4238 17.554387065828053 14.718059777419095 14.922682042511358 -1 0 0
1600 534 1 -0.8476 17.276735859975183 16.576464156851625 20.305624827899216 1 0 0
626 209 2 0.4238 20.655512082912956 14.451087215012283 18.609057572012645 -1 0 -1
625 209 1 -0.8476 19.91678067911569 13.826170915786964 18.861445814122817 -1 0 -1
1601 534 2 0.4238 16.725971038284037 17.39605674884107 20.46333190212392 1 0 0
1449 483 2 0.4238 18.708116753605594 13.230727576858246 17.928986204309666 0 1 -1
1447 483 1 -0.8476 18.0374776162245 12.825534492703898 17.307691558103883 0 1 -1
1448 483 2 0.4238 17.429383394504335 12.220839539964265 17.82199675650663 0 1 -1
815 272 2 0.4238 16.022926157355432 19.24108509619265 19.964031079912182 0 0 -1
571 191 1 -0.8476 19.74018149039184 17.367390975277523 19.293566504786796 0 -1 -1
573 191 2 0.4238 20.266312973270523 16.77969452944979 18.678957974790507 0 -1 -1
572 191 2 0.4238 19.165254250485866 16.801672368310886 19.884638268355566 0 -1 -1
641 214 2 0.4238 18.56810337845028 11.907841860812734 15.978624430013326 0 -1 0
1005 335 2 0.4238 18.233255151016216 14.212150593232105 16.318988968542467 -1 0 0
640 214 1 -0.8476 18.96099832860544 11.24630906570359 15.339911640180663 0 -1 0
1647 549 2 0.4238 21.543658212203013 19.13414549612179 16.01414708885533 1 0 -2
1602 534 2 0.4238 16.920426754438246 16.083038765885597 19.512201747751234 1 0 0
627 209 2 0.4238 20.06693134137972 13.490964056851544 19.79151862605589 -1 0 -1
109 37 1 -0.8476 16.804794632736215 11.66533014461216 19.35108730437978 0 1 -2
110 37 2 0.4238 16.949068626868822 12.039547971858616 20.26710607245488 0 1 -2
1730 577 2 0.4238 24.524519812217683 12.851122499761633 20.078287487319358 0 -1 0
1371 457 2 0.4238 20.565778506131622 19.148393141686284 19.499095371622808 1 0 1
1343 448 2 0.4238 27.155269419023377 11.304428923823938 17.4082044486559 0 0 0
1729 577 1 -0.8476 24.713348145533686 11.949223331620317 19.6898721067804 0 -1 0
1027 343 1 -0.8476 24.446390766773753 15.131141356612487 15.227020513967107 -1 1 1
1777 593 1 -0.8476 26.161683360572795 17.74782365064265 17.404528507187607 -1 -1 -1
568 190 1 -0.8476 24.119032463602906 14.609180858799798 20.508986160043854 -2 0 0
111 37 2 0.4238 17.481151887094008 10.950738576966936 19.172638460803896 0 1 -2
995 332 2 0.4238 27.194169919387463 13.072748881830194 15.78844361663009 -1 -1 0
1257 419 2 0.4238 25.29300550170754 18.87561936511358 21.286734433575432 1 -1 0
1003 335 1 -0.8476 18.13652460599819 14.984245691293314 15.690931185990552 -1 0 0
1441 481 1 -0.8476 22.781659163716718 17.202228532828265 20.745589259553505 0 -1 1
1342 448 1 -0.8476 27.351166471635494 11.422580732435922 18.381656611266337 0 0 0
1443 481 2 0.4238 23.13977673444211 17.698127916009923 21.536651727846554 0 -1 1
624 208 2 0.4238 25.477721957760174 14.9604476108444 19.030053472943706 0 -1 -1
1153 385 1 -0.8476 21.69549136845017 15.756443663445584 17.996090536938524 -2 1 0
1155 385 2 0.4238 22.077485359686193 14.974002585662817 17.504346789474468 -2 1 0
1779 593 2 0.4238 26.13612446049506 16.7767346439611 17.641756403333623 -1 -1 -1
1778 593 2 0.4238 26.195408182048702 17.847218900149485 16.410079599852217 -1 -1 -1
1028 343 2 0.4238 23.841722429050826 14.40265188217059 15.548927231028669 -1 1 1
622 208 1 -0.8476 26.41726896973482 15.275609910236328 18.896380484789994 0 -1 -1
623 208 2 0.4238 26.72258345393208 15.768511181249359 19.711104811692877 0 -1 -1
1461 487 2 0.4238 27.711497254283586 13.568611164200421 21.0230866711548 -1 2 -2
1416 472 2 0.4238 17.678057142583604 16.72960336816053 15.45145268827729 0 0 1
1344 448 2 0.4238 26.59100572610695 11.903335426107128 18.81866403799797 0 0 0
460 154 1 -0.8476 15.791979588902612 14.682581422408013 18.64998999975667 0 -1 -1
994 332 1 -0.8476 27.032820514832096 12.264260845628293 15.222529987980778 -1 -1 0
1654 552 1 -0.8476 23.563061485689886 17.88380794080905 18.422338123255457 0 0 1
462 154 2 0.4238 16.51978856011779 14.019911687454163 18.473615365159517 0 -1 -1
255 85 2 0.4238 15.34982586296755 11.284498169835071 18.360069272843745 -1 -1 1
1731 577 2 0.4238 24.40301413889042 11.24142329676217 20.324424286285748 0 -1 0
156 52 2 0.4238 26.777213462774988 14.874515350974887 17.32069589861387 0 0 -2
607 203 1 -0.8476 27.6707404195527 16.227893246644264 21.127956381173085 -1 -1 -2
154 52 1 -0.8476 26.81078795346395 14.791439359473497 16.324746038657164 0 0 -2
282 94 2 0.4238 21.775867139108072 13.715579269821815 15.866771156665072 0 2 1
1053 351 2 0.4238 25.14734029924913 11.885870861741106 15.24824807863527 0 1 -1
615 205 2 0.4238 15.246013115928319 16.18079182908472 17.707133872284423 0 0 0
281 94 2 0.4238 22.893714186919 12.618315337793995 16.32819244504488 0 2 1
1154 385 2 0.4238 22.42868420793672 16.39704785699883 18.22412472305986 -2 1 0
1414 472 1 -0.8476 17.33794263350905 17.66715957361477 15.378955490871318 0 0 1
1473 491 2 0.4238 20.233951668300513 15.564570578910185 15.36083534789092 0 2 -1
1655 552 2 0.4238 24.420027748522458 17.824828014036008 17.91040527732107 0 0 1
1051 351 1 -0.8476 24.204840945425637 11.591546015590989 15.40640138005908 0 1 -1
1442 481 2 0.4238 23.232893213287745 17.52894752611101 19.915175408883783 0 -1 1
1656 552 2 0.4238 22.95780781912417 18.548030555135078 17.9836803947264 0 0 1
280 94 1 -0.8476 22.460871127364925 13.489614230824635 16.559342008495904 0 2 1
155 52 2 0.4238 25.915007855465653 15.015925328021027 15.941172887608438 0 0 -2
362 121 2 0.4238 26.336549349354897 18.221422771711197 19.09146370542696 0 0 0
609 203 2 0.4238 27.319129607741402 15.37435735275361 21.51239169051354 -1 -1 -2
814 272 1 -0.8476 15.367340559945259 18.49747826624362 20.095184139824468 0 0 -1
614 205 2 0.4238 15.825994606177792 17.168268858847647 16.543093891353557 0 0 0
569 190 2 0.4238 23.122183451489988 14.674438413834586 20.464511595363625 -2 0 0
363 121 2 0.4238 27.332764452781966 18.852620245773537 20.220899111332763 0 0 0
570 190 2 0.4238 24.44226825308099 15.020307224018882 21.361299660087944 -2 0 0
361 121 1 -0.8476 26.384068252178018 18.61928759929095 20.007646644500916 0 0 0
529 177 1 -0.8476 20.540640250684845 13.240667983206787 21.47802222509916 1 0 -1
746 249 2 0.4238 21.188273257076503 16.80834181261145 21.490525157106376 0 -1 -1
1149 383 2 0.4238 27.576408685974698 19.12013766669721 17.441566556722826 -1 -1 1
1052 351 2 0.4238 24.18983115573321 10.890054033196257 16.118882072983677 0 1 -1
64 22 1 -0.8476 15.030515357223551 12.085681002997429 15.228893461352387 0 0 1
1589 530 2 0.4238 19.086293333467523 12.455951901211167 24.59045959644758 -1 1 -1
1401 467 2 0.4238 20.635984145250802 15.806203815855511 25.898620411586535 0 1 -1
1400 467 2 0.4238 21.317464900715414 16.105062811748958 24.445091921547437 0 1 -1
40 14 1 -0.8476 19.534077089325947 16.24075148659636 26.931556914080545 0 1 0
120 40 2 0.4238 17.100927095251237 13.2650241375396 26.232653981333932 2 0 0
31 11 1 -0.8476 19.01400547294375 13.571330814266856 25.997828041878428 0 0 0
42 14 2 0.4238 19.44533376915662 16.111343941206883 27.91914118458424 0 1 0
118 40 1 -0.8476 16.112057903874494 13.142130016435813 26.31619536965475 2 0 0
33 11 2 0.4238 19.425633850638178 14.39255481290396 25.6027349504041 0 0 0
32 11 2 0.4238 18.957150390608348 13.671849368350545 26.991109926453653 0 0 0
41 14 2 0.4238 19.66667293961644 17.21184922678269 26.733234286293374 0 1 0
504 168 2 0.4238 28.105106419328052 18.677138196248706 23.64840977554477 0 -1 1
1171 391 1 -0.8476 15.109833959755951 15.74873794779242 27.031437391831936 0 0 -1
332 111 2 0.4238 16.43151184392938 17.854662181240897 25.0464863368449 0 1 0
333 111 2 0.4238 17.31192802496715 16.68079438770682 24.32998053454554 0 1 0
331 111 1 -0.8476 17.303547390132557 17.36543074680865 25.058779673468194 0 1 0
745 249 1 -0.8476 20.463204667078543 16.55092227821115 22.12923978244848 0 -1 -1
566 189 2 0.4238 17.38897293913363 15.84441606945276 22.22156948908495 0 2 0
1588 530 1 -0.8476 19.165842589580436 11.815239938750274 23.8268469068692 -1 1 -1
1399 467 1 -0.8476 21.254704846840447 15.450308504157103 25.19828658781765 0 1 -1
172 58 1 -0.8476 21.09911500557412 10.85574225058921 27.273754096100163 1 0 1
1590 530 2 0.4238 20.13037103843856 11.605263209926326 23.66703734335848 -1 1 -1
530 177 2 0.4238 21.455373800137615 13.071440535090208 21.844859402210993 1 0 -1
502 168 1 -0.8476 27.56532485203296 17.899634494165724 23.325811907773094 0 -1 1
903 301 2 0.4238 16.405287471500504 12.441441316334764 22.62858838059271 -2 0 -1
1301 434 2 0.4238 15.160928790601105 11.799896964031909 27.348470109364385 0 -1 -1
565 189 1 -0.8476 17.685003554915816 15.385058724925495 23.05900693668862 0 2 0
902 301 2 0.4238 17.91408576381476 11.819795476165703 22.56890672727753 -2 0 -1
519 173 2 0.4238 15.75809422441375 13.319125702204266 24.61308997328554 -2 0 0
567 189 2 0.4238 17.62208245458244 14.39467869809471 22.93599189041357 0 2 0
1711 571 1 -0.8476 19.507447824797843 18.411520202149212 23.925692935449362 0 0 0
901 301 1 -0.8476 17.125484616890173 12.102873914754793 22.023086368727427 -2 0 -1
531 177 2 0.4238 19.857733596803413 12.833575684776307 22.084536916474313 1 0 -1
119 40 2 0.4238 15.705606136417327 13.967271909041122 26.708475183996846 2 0 0
29 10 2 0.4238 28.106601033842928 14.26332232902526 23.946404635068326 1 1 0
173 58 2 0.4238 21.03439463233918 11.835186451921999 27.464660766550082 1 0 1
1017 339 2 0.4238 27.049989667042837 10.733476060838703 26.346243168087128 0 -1 -1
1459 487 1 -0.8476 27.154118340554007 13.705606472022042 21.841930652163974 -1 2 -2
770 257 2 0.4238 23.8676117053096 18.342962702248663 25.228890121207982 -2 1 -1
769 257 1 -0.8476 23.97898454366274 19.19126855564336 24.711282485780245 -2 1 -1
503 168 2 0.4238 26.9328846695049 17.611684706395334 24.044873486586567 0 -1 1
1460 487 2 0.4238 27.260187306221916 12.920786720877482 22.452464483582546 -1 2 -2
1377 459 2 0.4238 26.37177464505649 17.32634758146277 26.308594943114876 -1 1 -1
1740 580 2 0.4238 24.758947489715318 17.262492533472688 22.85479766340236 -2 0 -1
592 198 1 -0.8476 20.425765595364297 18.71756299602216 27.191953157337196 -2 -1 -1
737 246 2 0.4238 27.75679578730434 11.303921922345204 24.1652495055296 0 -1 -1
847 283 1 -0.8476 22.73900061042034 14.017591020754178 23.164179220335186 -1 0 0
1204 402 1 -0.8476 27.79672863798949 15.574025008347755 27.92870462539839 0 0 0
1760 587 2 0.4238 25.507944789345153 12.312129978419314 25.485366069864654 0 0 0
1376 459 2 0.4238 26.549814171496266 15.849251534989351 25.63556636895941 -1 1 -1
28 10 1 -0.8476 27.471448879349907 14.262719513360835 24.718756025016994 1 1 0
1173 391 2 0.4238 15.725464286071785 16.446185008925035 27.39819553064273 0 0 -1
1078 360 1 -0.8476 21.591061655455015 10.673269297568677 23.312226026743787 0 1 -1
1761 587 2 0.4238 24.23904337964435 13.181581487547362 24.937258725463472 0 0 0
474 158 2 0.4238 24.85572396567202 13.599068596186381 27.371451321336146 -1 1 0
112 38 1 -0.8476 15.167231745241725 18.74365444806086 22.959396551327707 1 1 0
350 117 2 0.4238 22.964722870398106 15.610170549888203 27.051561884296518 0 2 -1
849 283 2 0.4238 22.085195206687757 14.192904037349873 23.90021518154103 -1 0 0
1739 580 2 0.4238 24.940150106653967 16.375932914902506 24.214083039145585 -2 0 -1
114 38 2 0.4238 15.199363297349867 18.854700064018026 21.966128547415906 1 1 0
848 283 2 0.4238 23.377405905240295 14.784215820039861 23.09583950532617 -1 0 0
1712 571 2 0.4238 18.619993469276444 18.08695466791083 24.252841690371902 0 0 0
349 117 1 -0.8476 23.11528874020226 15.768974868181477 28.0272957062975 0 2 -1
1738 580 1 -0.8476 24.563623604481414 16.382513424497574 23.287730174398114 -2 0 -1
1759 587 1 -0.8476 24.9912259487421 13.161093819268531 25.595852693896923 0 0 0
30 10 2 0.4238 26.57833755385809 13.930492795543998 24.41556775686277 1 1 0
1015 339 1 -0.8476 26.6434033273571 10.85574531911677 25.44087943897383 0 -1 -1
1375 459 1 -0.8476 26.154061114994562 16.75950889445756 25.51408923367756 -1 1 -1
608 203 2 0.4238 27.614197461314987 16.951488889771564 21.815820188761265 -1 -1 -2
1713 571 2 0.4238 19.909606806109124 17.726520046922428 23.318249789005456 0 0 0
602 201 2 0.4238 17.311494203902274 19.109227284974786 27.257203277895584 2 0 0
603 201 2 0.4238 18.940658883114132 19.219291122721494 27.270842531838817 2 0 0
771 257 2 0.4238 24.581567573624305 19.028376321730292 23.93006240303267 -2 1 -1
1255 419 1 -0.8476 24.602891834985485 19.009859134662257 21.99783723769793 1 -1 0
747 249 2 0.4238 20.180212369636642 15.608712963129756 21.95007066960823 0 -1 -1
517 173 1 -0.8476 15.304441066044575 13.300159983658403 23.722144031884334 -2 0 0
1206 402 2 0.4238 27.745403702592156 14.575597468391557 27.949974788403075 0 0 0
594 198 2 0.4238 20.84060757507283 18.64333056269995 28.098782852656647 -2 -1 -1
691 231 1 -0.8476 18.196714205238465 27.075585151784814 4.33800601134055 -1 -1 0
968 323 2 0.4238 17.465652040493058 24.93018802518862 2.9537335131177085 -1 0 0
1126 376 1 -0.8476 18.777158927032907 22.762334904933745 4.96990573254455 -1 -1 1
209 70 2 0.4238 27.020551291710547 20.279962210816876 7.4998557784737 0 0 1
812 271 2 0.4238 22.84312051137995 20.108687624905187 5.649274626791339 -1 1 1
1641 547 2 0.4238 20.699528791519043 19.61461179984085 5.338181973529558 0 0 0
692 231 2 0.4238 17.979038558278518 26.14747983532031 4.639972266867523 -1 -1 0
1266 422 2 0.4238 19.75092605432706 23.9615344588262 2.6463093473781933 0 -1 1
1583 528 2 0.4238 15.591318774840989 25.59907333295171 4.056008776899569 1 -1 1
1264 422 1 -0.8476 20.512783013239016 23.418049827568694 2.2939693901776375 0 -1 1
1640 547 2 0.4238 19.27537521862112 19.632027551397954 4.539457038555444 0 0 0
1683 561 2 0.4238 17.699049908002962 23.938763930182674 4.846933309695238 0 0 0
1682 561 2 0.4238 16.96276395675615 25.002659627547537 5.843169511908352 0 0 0
1681 561 1 -0.8476 17.124178535699784 24.755960273281573 4.8876439982934965 0 0 0
1014 338 2 0.4238 21.35000397283909 27.696022050921094 2.374687943937402 -1 -1 1
1128 376 2 0.4238 19.33148630189563 22.81883840733481 5.800250775159449 -1 -1 1
1127 376 2 0.4238 19.151181696439828 22.05787503771161 4.366757613535388 -1 -1 1
944 315 2 0.4238 20.340588877407654 26.842733587384117 6.504199789488022 -1 -2 0
735 245 2 0.4238 20.032160035356817 21.66395860008788 2.539924378859088 -1 0 0
945 315 2 0.4238 19.344109067424533 25.916774117538488 7.407585223063373 -1 -2 0
1227 409 2 0.4238 15.753487766001333 20.226928547579938 6.448625648819661 1 1 2
1533 511 2 0.4238 21.68001171588582 21.751526001956556 7.121369162780739 0 0 2
943 315 1 -0.8476 20.297818771399164 26.091801784381268 7.163151222433163 -1 -2 0
682 228 1 -0.8476 16.075348083871226 21.44467012511251 5.166166924361636 0 0 1
1560 520 2 0.4238 24.58969692561098 25.762727260242343 2.484027057797644 0 -1 0
225 75 2 0.4238 23.226960728672324 25.312153142328924 6.62654156808366 0 0 0
754 252 1 -0.8476 17.54066842708761 25.562823789070457 7.55891987356067 -1 0 0
733 245 1 -0.8476 19.63447005419947 20.928772781403964 3.088823260098666 -1 0 0
683 228 2 0.4238 15.473622868514273 22.243235994910066 5.178972322780739 0 0 1
684 228 2 0.4238 17.028902049735162 21.745673749859627 5.17489520693767 0 0 1
1203 401 2 0.4238 28.1183749608551 26.030076292679738 4.66731100257674 -1 0 1
293 98 2 0.4238 18.82817088294449 19.722754059706602 6.9730611091000005 -1 1 1
1559 520 2 0.4238 24.953047707387157 27.288074001294227 2.939846988383426 0 -1 0
1532 511 2 0.4238 20.188962586852732 21.428368209915234 7.7034514937590135 0 0 2
734 245 2 0.4238 18.951487964181297 20.439791130211994 2.546256509639332 -1 0 0
693 231 2 0.4238 18.76900902911668 27.03401812474322 3.519045550139717 -1 -1 0
527 176 2 0.4238 26.606789679341027 25.12855424168484 7.486839629313958 -1 0 1
1240 414 1 -0.8476 25.055236555900045 19.942975123666002 3.78701950537332 0 0 0
755 252 2 0.4238 17.482208708805935 26.51194584760087 7.868266348934022 -1 0 0
1359 453 2 0.4238 24.5882336550917 27.865735423962725 6.705716091678468 0 -1 1
1230 410 2 0.4238 21.87934352645552 23.130553659443358 3.558586815262806 1 0 1
405 135 2 0.4238 23.253635183051394 22.54094441646059 2.158649469000303 -1 0 1
813 271 2 0.4238 22.45345043248429 21.065895900490908 4.385000998377354 -1 1 1
1233 411 2 0.4238 25.481801580485765 23.08674403010977 6.563743150795005 1 -1 -1
811 271 1 -0.8476 22.117523589900927 20.36025026204546 5.008829573206727 -1 1 1
1011 337 2 0.4238 15.712830036030477 20.353612582022762 3.8339247935930536 1 -1 0
1225 409 1 -0.8476 15.988096393970418 19.42995034981007 7.005159349239015 1 1 2
1558 520 1 -0.8476 24.398629058392196 26.483048048103058 3.150791977304406 0 -1 0
1231 411 1 -0.8476 25.387932130387078 22.747711960521116 5.627692802415774 1 -1 -1
1062 354 2 0.4238 24.452564402239283 26.264146494104892 4.8521446920769415 0 -1 1
1509 503 2 0.4238 26.696644348657017 21.997719437119905 2.4253832497975214 1 1 3
208 70 1 -0.8476 26.46294805708039 20.37530153222349 6.67527431263732 0 0 1
756 252 2 0.4238 17.15283908759779 24.96041029087595 8.25651009305211 -1 0 0
1241 414 2 0.4238 25.258469000556374 20.291906855605227 4.701835190764651 0 0 0
224 75 2 0.4238 21.739468839943463 24.805451359116454 7.070500485509641 0 0 0
223 75 1 -0.8476 22.698944821331914 24.539256284205365 6.978357119693401 0 0 0
1228 410 1 -0.8476 22.609378989413514 23.017792957840022 4.232588590139962 1 0 1
1229 410 2 0.4238 22.25403726228196 23.218349833399785 5.145525595020818 1 0 1
1226 409 2 0.4238 16.249555151176963 19.729444513705886 7.922703440918025 1 1 2
1232 411 2 0.4238 24.477973066714405 22.974655438721044 5.280683145036757 1 -1 -1
1061 354 2 0.4238 25.455503913059182 25.644251540779564 5.98188815921163 0 -1 1
1012 338 1 -0.8476 22.09388385946155 28.029566467242383 2.9537698445179483 -1 -1 1
1799 600 2 0.4238 26.469463983826977 22.960036504812287 4.310044580848638 -1 1 0
1013 338 2 0.4238 22.759690596328078 27.297143810677625 3.09590852912282 -1 -1 1
1798 600 1 -0.8476 27.267901708286978 23.024595275706076 3.7114842558651695 -1 1 0
1242 414 2 0.4238 25.61214409046049 20.4290463613627 3.1135704764558896 0 0 0
1060 354 1 -0.8476 24.616647712292433 26.16804133126496 5.833870145024845 0 -1 1
1531 511 1 -0.8476 20.820488225429287 22.15549747259653 7.434372118387966 0 0 2
526 176 1 -0.8476 27.042917910370086 25.05057217627005 6.5903709575643665 -1 0 1
210 70 2 0.4238 26.441469947958282 21.335421332092643 6.39661020873126 0 0 1
1009 337 1 -0.8476 15.516260233499134 19.9998848906343 2.919495314230908 1 -1 0
870 290 2 0.4238 23.879836460207486 23.9650022075828 7.829358377661902 -2 0 1
868 290 1 -0.8476 24.674794653050704 23.523539638449506 8.245408196876204 -2 0 1
1800 600 2 0.4238 27.69266657748738 23.923553818154353 3.8182221165718575 -1 1 0
292 98 1 -0.8476 18.899637125418003 20.19295122553296 7.85269250841543 -1 1 1
1585 529 1 -0.8476 19.66821620610147 27.113459636203075 1.9776818856604683 -1 -3 0
967 323 1 -0.8476 17.9280505505723 24.960366602199628 2.0676063566074356 -1 0 0
528 176 2 0.4238 28.010032174038074 24.825532485470433 6.708657510401437 -1 0 1
1634 545 2 0.4238 19.493037015989458 28.000072340760262 4.990423858750685 0 1 1
1764 588 2 0.4238 16.142182128814504 28.067735974743805 8.410076636248663 -1 -1 1
1762 588 1 -0.8476 17.015641180528295 28.097969054401183 7.924175218713463 -1 -1 1
498 166 2 0.4238 22.707312864062523 19.59868424583331 8.168993810793555 -1 -1 0
894 298 2 0.4238 24.772246497169895 19.46787471487695 6.823281554867778 -1 -1 1
50 17 2 0.4238 15.005563496078894 24.888688015498133 2.101011113910483 -1 1 0
1586 529 2 0.4238 19.415624438867383 26.150073743826766 1.8880743182564217 -1 -3 0
1104 368 2 0.4238 19.73368053559893 25.272665514513406 10.009710022899153 0 1 0
1421 474 2 0.4238 22.027726716197634 27.21877879122041 13.679575227653716 -1 0 -1
180 60 2 0.4238 17.21190219439605 23.70319979542014 12.76057828232212 -1 0 0
178 60 1 -0.8476 17.23689692065595 22.70668396896407 12.839798858793554 -1 0 0
1146 382 2 0.4238 18.351327420448577 21.44447433658982 13.079878601343442 0 0 0
277 93 1 -0.8476 22.48908320500039 26.75296842646575 10.899860553351411 1 0 0
1144 382 1 -0.8476 18.81921910837734 20.56105368788944 13.055597233413307 0 0 0
989 330 2 0.4238 16.792139846562115 26.187626299579563 11.882199846228731 1 -2 0
990 330 2 0.4238 17.177362188864855 25.594153446257863 13.353890097095816 1 -2 0
988 330 1 -0.8476 16.889330999819624 25.354581856657695 12.426750312504911 1 -2 0
1700 567 2 0.4238 25.76001704005901 27.080756915639945 12.263303344125996 -2 0 -1
1249 417 1 -0.8476 20.930809690772968 24.30370934423646 13.144905397233517 0 0 0
1251 417 2 0.4238 20.461005220900695 24.538995106595493 13.99571006792038 0 0 0
743 248 2 0.4238 17.83859202680251 23.304574354054374 9.447011451686222 -1 0 -1
1174 392 1 -0.8476 27.247197674043868 26.393759662854478 9.314388045499257 0 -1 -2
294 98 2 0.4238 19.073674030571475 19.523819955753737 8.575131967161724 -1 1 1
1102 368 1 -0.8476 19.01328409332465 25.89787040162158 10.309864755704982 0 1 0
1103 368 2 0.4238 18.330122459585198 25.391290863711966 10.83580383904562 0 1 0
1183 395 1 -0.8476 18.978868583219786 22.37578131271072 10.18160182191629 0 0 0
63 21 2 0.4238 27.265194974708166 27.23322673030882 13.718302151806446 -1 0 0
167 56 2 0.4238 20.375960661111932 21.142309337945917 12.57805253766258 -1 -1 0
628 210 1 -0.8476 28.129154234755156 23.791363442807096 9.692583141042672 0 0 0
1669 557 1 -0.8476 16.76595451700883 27.96587719784233 11.594438777334757 0 -1 0
742 248 1 -0.8476 16.963796649626296 23.763815552167003 9.292819711142812 -1 0 -1
1422 474 2 0.4238 20.40238255802717 27.312529357487975 13.805851091738145 -1 0 -1
1185 395 2 0.4238 19.722242301814397 22.371322383495624 10.850421668643346 0 0 0
179 60 2 0.4238 16.75822259814352 22.298427462472162 12.062533060802789 -1 0 0
1250 417 2 0.4238 20.939815427370846 25.09863103327482 12.53830617686 0 0 0
1039 347 1 -0.8476 25.554213167171163 24.46006124541183 10.68525392035036 -1 -1 0
1310 437 2 0.4238 15.515405357583179 24.777585616965283 9.167802902916932 1 -1 0
937 313 1 -0.8476 27.422046483549437 21.41357735107372 10.868687062524508 -1 -1 -1
166 56 1 -0.8476 21.09374878559629 21.75963281586059 12.256126745746949 -1 -1 0
168 56 2 0.4238 20.944080610008427 22.672100491175442 12.636844995134789 -1 -1 0
186 62 2 0.4238 19.11639604744203 27.546328849603597 10.089319462359835 0 0 0
1184 395 2 0.4238 19.044442843645214 21.561456151432985 9.604956827513274 0 0 0
690 230 2 0.4238 25.8873612515805 23.232913763043896 13.902840534484582 1 0 -1
279 93 2 0.4238 21.967524111673313 26.103189529290233 10.346951475968417 1 0 0
688 230 1 -0.8476 25.781121403439535 23.68591420192707 14.787966463277414 1 0 -1
1145 382 2 0.4238 18.160841138921796 19.841107074360657 12.836143974217318 0 0 0
1638 546 2 0.4238 21.244984458947386 24.120737746016466 8.735837017290649 0 -2 2
1637 546 2 0.4238 21.55774853323048 23.455264593211922 10.193850344035729 0 -2 2
1175 392 2 0.4238 26.69558942087292 26.8289753122475 10.025907536527829 0 -1 -2
1115 372 2 0.4238 26.25718899747872 21.69158759426071 12.048709886735837 -1 0 1
62 21 2 0.4238 26.774173739019034 25.676611982797994 13.766540135654255 -1 0 0
61 21 1 -0.8476 26.46906278936663 26.628492169933708 13.738681645627597 -1 0 0
1339 447 1 -0.8476 23.540930033312883 27.55416256181914 14.023341596606492 0 0 -1
939 313 2 0.4238 27.834781731595548 20.85313870328372 10.15070205466337 -1 -1 -1
788 263 2 0.4238 25.95962775829878 20.374167179842722 10.713185786940873 -1 0 1
1001 334 2 0.4238 22.739986752772474 24.850346342340323 13.98582065084184 0 0 0
1114 372 1 -0.8476 25.51022523845168 22.148841756662797 12.531315822126126 -1 0 1
869 290 2 0.4238 24.67898534130864 23.703176870814154 9.2291046072368 -2 0 1
839 280 2 0.4238 17.184825844292327 22.338018856721746 14.60925944584195 -1 0 -1
1040 347 2 0.4238 25.50507988211333 25.45385631633286 10.784767291246721 -1 -1 0
1650 550 2 0.4238 19.860664964465713 19.440746686157382 14.209029621640418 0 0 0
1701 567 2 0.4238 24.534159848935623 27.603850509055903 11.319838639434707 -2 0 -1
741 247 2 0.4238 22.512018268481008 20.691848956300262 11.755876097357378 1 1 0
278 93 2 0.4238 21.9752286635729 26.972771089617993 11.729068237221043 1 0 0
1000 334 1 -0.8476 23.45513008312804 24.957345026289822 14.676519925215596 0 0 0
1420 474 1 -0.8476 21.159821056210326 26.871848495119302 13.32415458874405 -1 0 -1
1699 567 1 -0.8476 25.45405621217155 27.211759947512952 11.32034423958362 -2 0 -1
1636 546 1 -0.8476 21.40326286267966 24.31337319459511 9.704229692930348 0 -2 2
134 45 2 0.4238 25.186704243434342 21.25177520592902 13.850030117651382 0 -2 0
133 45 1 -0.8476 25.013318107959854 20.685481740004334 14.65575537580375 0 -2 0
689 230 2 0.4238 24.955836487251077 24.25046563959401 14.776526740174758 1 0 -1
1041 347 2 0.4238 26.319972146150867 24.22238045420106 10.08770391004634 -1 -1 0
739 247 1 -0.8476 22.945654557052485 19.81477011983784 11.549390063100246 1 1 0
1566 522 2 0.4238 15.244994874951226 28.097263238967216 10.176957020437866 -3 1 0
1116 372 2 0.4238 24.95218404301942 22.657818048690814 11.875970464211694 -1 0 1
789 263 2 0.4238 24.6227594918023 19.59471813703606 11.234454632002048 -1 0 1
744 248 2 0.4238 16.24848976662874 23.07950945509974 9.151378791115928 -1 0 -1
1340 447 2 0.4238 23.923600180970837 26.631403996407762 14.068353089936377 0 0 -1
1176 392 2 0.4238 27.467983362559586 27.064817676020404 8.606659851361789 0 -1 -2
938 313 2 0.4238 27.56637235461158 22.38098093204767 10.660733601611064 -1 -1 -1
407 136 2 0.4238 28.06568267233279 23.468612103506146 14.1087814428076 2 0 0
780 260 2 0.4238 18.13664052329412 27.085553910190747 14.907165317272833 0 -1 1
1453 485 1 -0.8476 15.144497821168846 22.082794497682826 10.863895003031404 3 -1 0
787 263 1 -0.8476 25.441692729281954 19.520110807703674 10.665484391135376 -1 0 1
1671 557 2 0.4238 17.691458884951178 28.124956311401192 11.250811513210017 0 -1 0
419 140 2 0.4238 22.848145057465196 28.153084875203167 9.74356663544885 0 0 1
497 166 2 0.4238 22.489601703587113 19.411339480998755 9.776470904043467 -1 -1 0
1439 480 2 0.4238 17.26515823647607 25.011295691949364 18.638741608888196 -1 -1 0
1438 480 1 -0.8476 18.015696913119122 25.251946232224057 18.023336280954453 -1 -1 0
1440 480 2 0.4238 17.65702228590915 25.39786756831552 17.101379443214306 -1 -1 0
452 151 2 0.4238 15.785115587694035 26.203249930740597 20.06372804863569 0 -1 -1
1745 582 2 0.4238 21.447398330254586 27.26681423468453 21.41327713550529 -1 -1 0
445 149 1 -0.8476 16.931434819169993 20.36883424320456 19.04741693599889 0 0 -1
1 1 1 -0.8476 19.151276583740263 21.673208292524926 20.142281025522948 1 0 -1
1180 394 1 -0.8476 19.93235173651059 24.571240424867412 19.987753959105333 1 0 0
1181 394 2 0.4238 19.2925466923979 24.693640695899447 19.229062081104345 1 0 0
2 1 2 0.4238 19.342158785445896 22.65478673194618 20.138783954020788 1 0 -1
446 149 2 0.4238 17.795108445539952 20.463943732992206 19.542359455213912 0 0 -1
447 149 2 0.4238 17.118614483814753 20.204735455354218 18.078923042688608 0 0 -1
1246 416 1 -0.8476 15.032760664193425 23.61117987839829 16.991066293129613 -1 -1 0
598 200 1 -0.8476 18.42821234908807 20.105018356072655 16.521656814912188 0 1 0
1140 380 2 0.4238 20.46615798567646 27.861004163241923 15.815998471398585 -1 0 0
3 1 2 0.4238 19.908566620229735 21.18484820018041 19.708736293697697 1 0 -1
365 122 2 0.4238 25.638544743073425 24.429362321412306 20.480472035237703 -1 0 0
1248 416 2 0.4238 15.738859635485811 23.397684808073222 16.315945329082993 -1 -1 0
1247 416 2 0.4238 15.355237700371617 23.356250481571934 17.902638480752117 -1 -1 0
151 51 1 -0.8476 19.491777634383233 24.522842954468402 15.47706575055839 1 0 0
322 108 1 -0.8476 15.945465235786026 23.06542379832043 19.50601715646261 -1 -1 -1
778 260 1 -0.8476 17.48044310438789 26.34616704416333 15.057688468508536 0 -1 1
840 280 2 0.4238 17.48177279371729 21.71493570259515 16.08914799426342 -1 0 -1
135 45 2 0.4238 24.465435456805594 21.201478661981305 15.314174707492896 0 -2 0
838 280 1 -0.8476 17.152307048639855 22.517827110261038 15.592395699985271 -1 0 -1
1732 578 1 -0.8476 19.579765629391197 27.97900085764732 19.061729558159882 1 -2 0
801 267 2 0.4238 21.678478346112442 24.406209055226228 19.79431046862951 1 -1 -1
288 96 2 0.4238 21.03657295045496 24.411224512804097 16.334377590002603 0 -1 0
1002 334 2 0.4238 23.048762482844978 24.901388546785995 15.588484024120117 0 0 0
1369 457 1 -0.8476 21.101438600672815 19.992011127374134 19.46274694060675 1 0 1
779 260 2 0.4238 16.662199828195682 26.711864200884236 15.501185361097663 0 -1 1
153 51 2 0.4238 18.739280574915597 25.146138863948593 15.264475151532569 1 0 0
1645 549 1 -0.8476 21.959884035567953 19.409951947781437 16.880536772793942 1 0 -2
1138 380 1 -0.8476 19.664061981845634 28.131892978498435 15.283827879679539 -1 0 0
600 200 2 0.4238 19.262795468578716 19.600817951851994 16.743462748258942 0 1 0
152 51 2 0.4238 19.121928682865217 23.63559868067648 15.752663350647259 1 0 0
705 235 2 0.4238 16.618331031374076 28.083228817333676 19.884885710542527 1 -1 1
1370 457 2 0.4238 21.71013381173249 19.96642867846556 18.66979044122889 1 0 1
1182 394 2 0.4238 19.52175931635884 24.921098351884666 20.829750439710295 1 0 0
825 275 2 0.4238 26.375460698425506 26.751239936715173 15.971532050770604 0 -1 0
1734 578 2 0.4238 19.411752164096903 27.135624109746026 18.551404385346686 1 -2 0
1746 582 2 0.4238 21.849394152925065 25.750213421496873 20.96072932589611 -1 -1 0
1297 433 1 -0.8476 23.91102565122364 26.405913771105787 17.95000978840131 -1 0 1
324 108 2 0.4238 16.532780482775202 22.26455292400255 19.389350584451037 -1 -1 -1
514 172 1 -0.8476 15.238457189254612 26.563971924485507 16.67182126946344 0 0 0
1299 433 2 0.4238 23.666321231954313 25.554276642364407 18.41345225603534 -1 0 1
782 261 2 0.4238 22.94563046971078 22.636243931930736 16.613498877137843 -1 -1 0
451 151 1 -0.8476 15.216095290895169 26.539452671371983 19.313309251960426 0 -1 -1
783 261 2 0.4238 24.197421723814386 21.7807900156134 17.2198783243485 -1 -1 0
1493 498 2 0.4238 26.33788207058616 26.707416331808993 20.421959584028166 0 -1 0
1494 498 2 0.4238 26.691097170618256 27.371889128995242 18.97275538503134 0 -1 0
364 122 1 -0.8476 26.40046935264111 24.96216645139951 20.848623960637397 -1 0 0
824 275 2 0.4238 26.51355786917304 25.42736234163413 16.917447127537134 0 -1 0
800 267 2 0.4238 23.233504898618293 24.05416902671074 20.147070043597296 1 -1 -1
1792 598 1 -0.8476 24.188269586810193 22.831713417383632 21.019502138115264 0 -1 -1
823 275 1 -0.8476 26.30769519734698 26.405864814039397 16.907517687728145 0 -1 0
1298 433 2 0.4238 24.839516721793366 26.332436838344883 17.586070880015818 -1 0 1
1208 403 2 0.4238 26.4657726208239 22.85925760418241 17.731291568037545 0 -1 0
1207 403 1 -0.8476 26.975374377560144 23.393957501902676 17.057238828950258 0 -1 0
781 261 1 -0.8476 23.44135654263028 21.769122288887793 16.565528363258665 -1 -1 0
1794 598 2 0.4238 23.33232172463424 22.441280251092884 21.35841224175241 0 -1 -1
955 319 1 -0.8476 25.70982130987504 21.76515982516178 18.73218381987352 0 -2 0
702 234 2 0.4238 22.815318895573782 27.31941537208376 16.992594907349357 -1 -1 0
287 96 2 0.4238 22.009150532884156 24.350760476261897 17.644688940435927 0 -1 0
1209 403 2 0.4238 26.55309302483419 23.2853175490145 16.157338631566496 0 -1 0
286 96 1 -0.8476 21.956244026042853 24.190477558902096 16.65906466792302 0 -1 0
799 267 1 -0.8476 22.628564875343685 24.52802052393716 19.507181229536066 1 -1 -1
1646 549 2 0.4238 22.44338336870883 20.276516092663428 16.75708852130315 1 0 -2
957 319 2 0.4238 25.014070122072773 22.038967931861293 19.396190402174625 0 -2 0
1492 498 1 -0.8476 26.254240630855847 27.52920683726417 19.858391780860238 0 -1 0
956 319 2 0.4238 26.343223898923796 21.120291022572616 19.159840283832516 0 -2 0
323 108 2 0.4238 15.601784210787034 23.09281348892651 20.44467437583856 -1 -1 -1
700 234 1 -0.8476 22.223644588310663 27.873370324044537 16.40693314262719 -1 -1 0
1529 510 2 0.4238 21.882995090239874 20.633997765797588 20.84752654091401 0 -1 -1
196 66 1 -0.8476 16.544934456677286 25.755668914269208 21.526926235650656 1 0 -1
599 200 2 0.4238 17.81761360744472 19.52037566444057 15.987515023697163 0 1 0
701 234 2 0.4238 22.540350729209607 27.81258251145426 15.460388495518618 -1 -1 0
828 276 2 0.4238 28.10951713741413 22.67408165070796 18.738487835997788 -1 0 0
515 172 2 0.4238 15.347806339310727 26.700672183139467 17.65635172321109 0 0 0
1537 513 1 -0.8476 16.46962143601763 25.106897022893037 25.657232697608926 -3 -1 0
909 303 2 0.4238 15.884398600502392 21.26264359257219 25.26719053958997 0 1 0
1556 519 2 0.4238 19.7130635687018 20.12808839662896 23.308615780146674 1 0 0
321 107 2 0.4238 27.97232319127899 23.098499823705367 25.564135221955603 -1 1 0
1462 488 1 -0.8476 15.967882873377533 27.732342090959705 25.212973198180485 0 -1 -1
1528 510 1 -0.8476 22.555063839410295 20.709461068321886 21.58412363528791 0 -1 -1
601 201 1 -0.8476 18.087440525029905 19.73962480633856 27.235978658516764 2 0 0
1557 519 2 0.4238 19.394157990575486 20.98677690549856 21.956790264279142 1 0 0
1555 519 1 -0.8476 19.572507243278807 21.046516626420186 22.93891418434775 1 0 0
1539 513 2 0.4238 16.27200758814636 25.999548115708144 25.252179028624724 -3 -1 0
978 326 2 0.4238 15.615275268791665 22.381555419404968 22.950534422011778 1 0 0
908 303 2 0.4238 17.23760169712068 21.044202824224705 24.37972073088833 0 1 0
1756 586 1 -0.8476 19.507229451435087 21.81407841283044 26.38222287574144 0 -1 0
753 251 2 0.4238 18.408564785307753 22.935563910207698 23.665075013896733 -1 0 0
1291 431 1 -0.8476 24.345065330559684 27.20519596899645 22.64402168484491 0 2 -1
751 251 1 -0.8476 18.39476243392076 23.508272291242683 24.484683946421015 -1 0 0
752 251 2 0.4238 18.800715241329677 23.006733619509795 25.24862510121313 -1 0 0
895 299 1 -0.8476 19.02259904336718 25.658456243426947 22.671806700397582 -1 0 0
896 299 2 0.4238 19.573465603325623 26.378431552180075 23.093856590643504 -1 0 0
1757 586 2 0.4238 20.443207014818185 21.490172957261485 26.519976992079954 0 -1 0
649 217 1 -0.8476 24.83492753078098 24.8977349233337 27.388665628829678 1 1 -1
1538 513 2 0.4238 16.97077333183824 24.545615120110888 24.99863237019668 -3 -1 0
1049 350 2 0.4238 20.99380400354893 22.65634975942352 23.16591275456632 -1 -1 -1
1758 586 2 0.4238 18.89509027032657 21.030166962058118 26.27871414271098 0 -1 0
1591 531 1 -0.8476 27.609496189547535 19.77673656821092 26.764309294288537 -1 1 -1
914 305 2 0.4238 23.93106744083093 27.448652572729962 25.850893779080742 -1 0 0
1265 422 2 0.4238 20.421844522428522 23.31975951870551 27.62896873823796 0 -1 0
1592 531 2 0.4238 28.113214724670513 20.05109479746197 25.94519998165179 -1 1 -1
897 299 2 0.4238 18.592649161429883 25.10593992632841 23.385818758354247 -1 0 0
1587 529 2 0.4238 19.383216295561645 27.610382089322115 27.484020982046992 -1 -3 -1
1256 419 2 0.4238 23.992664493956347 19.75659656368026 21.73335558946642 1 -1 0
1048 350 1 -0.8476 21.406187691909032 23.296376942910996 22.517645840132126 -1 -1 -1
113 38 2 0.4238 15.501280508837624 19.577401178628534 23.39896789776848 1 1 0
584 195 2 0.4238 16.460405228790677 27.35993755041237 22.113107336020548 -1 -1 -1
886 296 1 -0.8476 15.431994022812994 21.576355761512865 26.96074341047961 0 -1 0
913 305 1 -0.8476 24.192857345959894 26.594320246558453 25.40197582205787 -1 0 0
1106 369 2 0.4238 22.1941958855327 26.12025807215263 24.92560660666826 0 -1 0
532 178 1 -0.8476 26.037678890218842 22.7851774564663 22.917025854547 0 0 0
404 135 2 0.4238 24.65240317715537 21.884476610137476 27.95643233690135 -1 0 0
976 326 1 -0.8476 15.248549364394732 22.910332220520033 22.18512471819998 1 0 0
907 303 1 -0.8476 16.26205592350062 21.260482214611862 24.341277756588156 0 1 0
595 199 1 -0.8476 22.230482541644704 20.872344269282898 26.342569352009754 -1 0 -1
1292 431 2 0.4238 24.574137039869747 27.848881766959735 21.91385802714558 0 2 -1
1105 369 1 -0.8476 21.406508427353764 26.129993509400514 24.309653657837472 0 -1 0
928 310 1 -0.8476 25.431776601100893 21.497048925278385 25.149571092921462 0 -1 0
597 199 2 0.4238 22.963146496165344 21.394420242633842 26.77913103925882 -1 0 -1
596 199 2 0.4238 22.6122200682496 20.314301256917695 25.605813669667903 -1 0 -1
1293 431 2 0.4238 23.39759462198284 26.903716199148185 22.537467070844706 0 2 -1
534 178 2 0.4238 26.856069519653182 22.331332595463813 22.564597183376293 0 0 0
403 135 1 -0.8476 23.84126232736667 22.403647499454742 27.68725176669559 -1 0 0
1050 350 2 0.4238 20.87325178151024 24.142309094231543 22.499677048656338 -1 -1 -1
1508 503 2 0.4238 26.847562953081564 20.73834217148685 27.72291711791378 1 1 2
468 156 2 0.4238 25.89003005348131 26.501827728888607 23.46289942367693 0 -1 -1
915 305 2 0.4238 24.249410425032096 26.740479404041693 24.41436078792203 -1 0 0
533 178 2 0.4238 25.767412270168798 22.361041318232537 23.7813226406753 0 0 0
930 310 2 0.4238 25.757592896841402 21.458205966965323 26.09417657494501 0 -1 0
467 156 2 0.4238 26.8592708861774 25.369809646367976 24.130421404366317 0 -1 -1
929 310 2 0.4238 24.81869779074998 20.726253274623417 24.976500592778038 0 -1 0
887 296 2 0.4238 15.390017254078602 21.008968487749996 27.7830900181333 0 -1 0
352 118 1 -0.8476 27.82725127714668 24.456818489862187 26.946221453511747 0 1 0
888 296 2 0.4238 15.3299966201648 22.538341175413116 27.213972836393076 0 -1 0
466 156 1 -0.8476 26.83274111834455 26.27591248090439 23.708262405477548 0 -1 -1
650 217 2 0.4238 24.519870984149172 25.386872590771212 26.57538250480863 1 1 -1
651 217 2 0.4238 24.469283496768618 23.96704658326871 27.38037602711691 1 1 -1
1530 510 2 0.4238 22.115207141188662 21.086162027745743 22.39933343628833 0 -1 -1
354 118 2 0.4238 26.99133841160593 24.11179455568699 27.373015205989148 0 1 0
1107 369 2 0.4238 21.72463352810278 26.16502993438226 23.36228169731403 0 -1 0
969 323 2 0.4238 17.47948400099648 24.328183942115395 27.761846136661795 -1 0 -1
1793 598 2 0.4238 24.860524739091538 22.853883826192565 21.759452438734613 0 -1 -1
51 17 2 0.4238 15.457645515238939 24.464279729217964 26.916355166758073 -1 1 -1
950 317 2 0.4238 17.456381561077976 28.119133993372394 26.003889356361853 0 0 0
353 118 2 0.4238 28.085973399726427 25.323509034375988 27.37266679615493 0 1 0
49 17 1 -0.8476 15.057149658427852 24.135262153563787 27.771512976612755 -1 1 -1
1507 503 1 -0.8476 26.247439932724298 21.479564418357917 28.023560432886065 1 1 2
366 122 2 0.4238 26.419718395225104 24.872169132416822 21.84435215268094 -1 0 0
1744 582 1 -0.8476 21.93495390516675 26.436464374416737 21.68300611378006 -1 -1 0
198 66 2 0.4238 15.967098527623257 24.987851932227734 21.803526740860462 1 0 -1
197 66 2 0.4238 17.506463850501888 25.51114841715762 21.65189022975867 1 0 -1
1464 488 2 0.4238 15.727425095965792 27.76378906692431 24.242851501813277 0 -1 -1
593 198 2 0.4238 20.88126272208919 19.44256539277672 26.67538943990673 -2 -1 -1

Velocities

1496 0.0026797397941432195 -0.019167843856483503 0.005492712232685599
1495 -0.008596820496448648 0.004479967871502473 0.0012519829753332907
1497 -0.008558130720171595 0.003596115192953688 0.008209925127715543
271 -0.004978646945595093 0.0037726972824856458 -0.000773644347673299
860 0.014497010013888603 0.009068688736637865 0.006228324421085197
859 -0.005915974407745431 -0.002540433410119971 -0.007715703385775983
264 0.013025685452825661 -0.01898756066730252 0.009697281838813028
1724 -0.001035863736846927 0.021755634604711024 -0.001355824932237935
861 -0.010709007893541516 0.00926964100509584 -0.015555448818017707
1031 0.003391910794705731 -0.010537895455730282 -0.00793084361400172
1325 0.006339620045980473 -0.012801892298079922 -0.009612600779688125
1030 -0.010074718522116638 -0.005389467251693101 0.00047676700740827496
542 0.015577070962513248 -0.005298978602172514 0.008161426302406835
1032 -0.00521559617563407 -0.011025530795401245 -0.008908611482776815
309 -0.014163587962062971 0.014279473832979372 0.005535333334809298
876 0.0012969267393447362 0.005003353397581096 0.002874305760224444
1006 -0.00107898752913187 -0.004097813149986488 0.0004927076840700323
308 0.004043449888268441 -0.0075939375908727165 0.003269688871883169
1348 -0.0005405387802104753 0.0009033202233557789 -0.0021862926297125896
307 0.002428004315223223 0.0005995014673065255 0.0038575625097922
541 -0.0006854853964964162 0.0038048508441356765 0.004619023640715257
1327 -0.005070494341300421 -0.001298310702792201 0.003339355582961498
415 0.0014450132637102014 0.00511490617732891 0.0014418621930416698
273 -0.010083882654998105 0.007968423806914642 -0.00974254554160963
1480 0.0024822388735996443 0.004774795657417696 -0.0015865861559780379
1287 -0.004682981897090561 -0.01612709295519238 -0.006989617849137446
1329 -0.0031930814276056436 -0.0012880741222403903 0.006049890950453147
1137 0.0350963622865076 -0.02189590159617919 0.01030508153508423
1725 -0.010813712654112049 0.015783153993287256 0.004918099751232385
1390 0.006989154082978409 0.0025507710251703253 -0.0041671930239596585
272 0.006329487375608792 0.006874769519539418 0.002065118390458677
1135 -0.007745544746344557 0.0008699866388585214 -0.0026234556471871873
1775 0.002359380404878942 -0.003534029644440433 -0.012147683781350038
512 7.648346203598855e-05 0.003592944148091909 -0.00034145615931166495
1391 0.015256305543702471 0.007643479401851188 -0.006584080669573804
376 0.0009517424671670434 0.0030428227061115062 -0.0029246136570106897
543 -0.012004523931926551 -0.005496032205655787 -0.007540308650476441
1349 -0.0157758638333502 -0.002132970604391872 0.003972232879370765
1482 -0.01015942026739069 -0.000560563019346248 -0.0009891596923774456
378 -0.013824948922594064 -0.01479873982018677 0.036927134571797124
1723 -0.005450099807805599 0.006038547277318078 -0.0027533768256485145
1481 -0.02319384038628783 -0.005242698904739449 0.0012734136158154424
591 0.011300112495354767 0.021058100148369622 0.0051545325209103
874 -0.0007030497817330932 -0.007504653851221832 -0.0008216216058513323
314 0.004224113355524971 0.00657145239524638 0.004143154793190804
416 0.005151014192483401 0.020257016247636365 -0.007807651383634109
1136 -0.03659165096721641 -0.020043452249432322 0.010985962988071061
1405 -0.002843719698224943 -0.000534624727029754 -0.0016516352943658499
315 0.007101301480203954 0.02014269519420905 0.0019186645419700219
885 -0.001694214315370368 -0.003761681152303789 -0.0034054743260358102
656 0.008918747962601765 -0.00028683094060483514 0.019381927449732404
443 -0.012022440628113477 0.006848775630984026 -0.004116403163536909
1350 0.01062603976560444 0.001773426306712013 -0.006116952786528694
372 -0.011408726425397394 -0.012978614156850697 -0.006630672273277528
883 -0.004104114005915972 0.0007307582945570548 -0.00021079117376635143
657 0.007168679959092377 -0.003054278456828066 -0.018312160550597176
1406 -0.01014608842278143 0.006454027459279108 -0.004653532481592891
1407 0.006594316429359488 -0.016748446245616107 -0.0240137153897441
1618 0.0018208722594867418 -0.003915577704210134 0.006074233622053565
590 0.004392386392211477 0.01111151788543687 -0.004142863094050628
655 -0.001234327283267611 -0.002457081226993755 -0.0062348130168393525
1392 0.0028836821763946795 0.007815960217886643 -0.009846983647991955
1619 -0.004263965816249941 0.0021973383894921426 0.007729298516674667
442 -0.005258680593945474 0.004800681739898828 0.0029637897270443697
1285 -0.007445613488745793 -0.004471927547892308 0.0007576069648454648
444 -0.005482309996058686 0.008755401643801347 0.016397549466534225
1620 0.021342056866549226 0.011043110028855939 -0.0037164004685566877
313 0.0013633810403169354 0.0016941012093357672 0.0018846626432907638
1605 0.004669839007770879 0.016589516279434103 0.02545640104273761
875 0.006352133665994759 -0.012699222895752583 -0.001718504551624731
1603 -0.004559579175514248 0.0016321371882434155 0.00027536447573876604
1286 -0.02131554140416427 -0.024041328135787864 0.005487072195380106
636 0.0051351884940020855 0.02115688500513305 0.012881831574237392
971 0.002577039757717261 0.004013250302351359 0.003549851055739035
525 0.003078978518016564 0.007656540790080809 0.0021971256382554523
953 -0.017353643412507624 0.0023895380008174018 0.01141069017010309
952 0.002725081384068641 0.00010231580687584252 0.007150232464120622
240 -0.002866848298061313 0.004469766521236752 0.002050259545293564
491 0.007616461507645365 0.0038685489194977213 -0.015653730649607452
238 -0.004310401716862876 0.0014854752110666578 0.0005329920491147534
239 0.00580802457522904 -0.0006818817130646523 0.005084218095928394
1498 0.006716359843253954 6.245806964641361e-05 0.0018143486061297867
492 0.009797468869787681 0.004040179892547123 0.018249729953999955
490 0.008659605656479033 0.004176434077472609 0.007877682518722525
1499 0.0025934282405340723 0.012507376728712086 0.006835501381073736
1500 0.005443373119576001 -0.0008342073382922367 0.026289885660207072
1755 -0.00042802104810635505 0.027358066325837167 0.010057832495140376
4 -0.00544580878480869 -0.0010647368715694442 0.0035236915250568246
970 0.00038002440148740747 -0.00022466785109832827 0.0010277096323128311
5 -0.00789626702196248 0.02128376171436243 -0.023984092772872535
1651 -0.0013036036910369802 0.007492110086929769 -0.003872393886452121
417 -0.0034049725399950587 -0.014041934022188224 0.022994675093698687
1511 -0.015436624470921258 0.01611292347586753 0.00950756178600636
1177 -0.000261948538787116 -0.00855886205855493 -0.0007943612238039012
524 0.016268931335887808 0.00928840917110957 -0.008756832682905046
866 0.023541172923346704 0.016177881256054606 0.007723379165255941
1035 -0.007774864679953563 -0.007362239193017673 -0.003083473015599364
972 0.004393295444138765 -0.0009077822491597436 -0.00344068205628551
1653 0.01237617924182539 0.02373887315718675 -0.0015174726808783023
1652 -0.013459179052165721 -0.01610991835819348 -0.011544676142973465
1337 -0.012964805019144206 0.020016692279251628 -0.006570146884682969
1512 0.00912977255371957 -0.008771023645221079 0.005765450721202815
1179 -0.0012281360229626642 0.0011452086212306396 -0.013634818740542934
1742 -0.003679301054017275 0.0046798332733156995 0.003374177987196991
267 0.012219243396405382 0.0022430993185683485 -0.003731894449011557
954 -0.017171307178651916 0.0028248514029706987 0.01339013966109469
986 0.002299472862109403 -0.010100516499880651 0.0031065349906272514
985 0.005115138303366719 -0.004800746350445672 0.005003185734347347
1033 0.0007087485038973028 -0.0019772219034923256 -0.0038196760079693454
356 -0.001751126626780899 -0.002874983042710983 -0.0010195869743232571
1353 -0.021092780157953735 -0.00024558710585266064 -0.0006001911910159962
1743 -0.003200606746145132 0.0061918384623191845 -0.0006073730650887813
1096 0.0027104034157543087 -0.0006063646398026761 0.0025186010161836595
1097 -0.0018347345593488816 0.0015776596063828317 0.021704819567464683
1510 0.0022013084736130623 0.0112678703947287 0.0034500567552553977
1036 5.084685702252908e-05 0.007316543034023888 0.0004873923075129921
1741 -0.0008339614794217634 0.0022836573731677403 -0.004247825705395563
355 -0.001712785775525083 0.0011807551371738562 -0.0006260858736896726
1786 -0.002610806690559385 -0.002102889326321991 0.007068138000750676
1178 0.008860228427248654 -0.019622741610260612 0.009413943748290108
6 -0.008471919970657415 -0.007728689381470143 -0.0011675236199710796
1098 0.01745149198912362 0.00929352101683823 0.008196206429280622
1787 -0.012513099760925411 -0.007685665405961872 0.013649519276393393
1054 0.0011441072028241163 0.002537880011988996 -0.0029344531109204712
339 -0.030892070782477386 0.018303420539298943 0.0010378221703901322
679 -0.0026935850178423358 0.00038779412068905647 -0.001491678438224269
681 -0.0027105964747120704 -0.011976423525579906 -0.002437113286578978
1554 -0.004153438850367104 0.01592543115122745 -0.016810114101683066
987 0.0005841067496701127 -0.003813115670083378 -0.011222866975290157
1056 -0.021590040225506205 -0.003961526419832153 0.005074625483672674
1611 0.008448041755585656 -0.00032716646145279545 0.0015406139549464315
1055 -0.009384188550924003 0.005815549583319142 -0.027646783959147155
483 0.009037127929924466 0.010901379937241065 -0.0009092846801058887
1609 0.006017341968846022 -0.004645798888470425 -0.0004825700478767181
337 -0.0037672525487439604 0.004528360242998043 -0.004074202114386785
680 0.002946118885933946 -0.00190184359997739 -0.008049381733603636
338 0.01238976112084956 -0.0022958390301926705 0.0011717543602605027
1610 0.010461328329593098 0.00035234347648555655 0.00455719772511884
1788 0.004771188801072298 -0.006211478387047453 0.014253341797751954
1351 0.0034987496194430253 -0.006020435491043547 0.004331303597830518
481 -0.004032655951023719 0.004215763208436465 -0.0010940446469009212
1283 -0.01931945372871375 -0.00029346162349271434 0.010731116288771074
884 0.0017198695072684481 -0.007435424165309687 -0.00714869609680052
104 -0.005390186116579165 0.0069762200534650475 0.00024631259599159375
1133 0.006761630838876703 -0.016611121013307407 -0.024649547998660707
13 0.00307574856557018 -0.0029590912951262174 -0.0015552553792749675
942 0.0022785977135902696 -0.003226800750670201 -0.01218351811584107
921 0.00778410316936875 -0.008224375973594255 -0.0035338876373160774
15 0.0030694694381096497 -0.0033589887996698614 -0.01854424700685373
14 -0.005895533597438001 -0.006941581392853974 0.01867236121517463
941 0.013566976093237508 0.01240459814826558 -0.020443751094680856
1622 0.004151239113925003 -0.014327986382364086 -0.006097721462911177
1621 -0.0015676609348142009 -0.000762322828390956 0.0009280530585159521
1623 0.006156813026790296 -0.01919003961087446 -0.008652412130037705
1769 0.0054080576078840365 0.0011997327968530328 0.007787374010810976
7 0.001968328111717863 0.0015566790205242397 0.007013082101431724
920 0.009001595106215309 -0.011016510269649253 -0.0137397163632303
1690 0.001351330323032456 -0.0036398432258602452 0.002210493582358403
412 0.00019661085678156912 0.000857047322973328 -0.009204857951336987
843 -0.019233664071128684 0.007863620215460549 0.013615994175298128
841 -0.0035418384796136997 -0.003270342072282006 -0.004873865610328756
9 0.004739422958182144 0.0028583255736445426 0.005369016918156384
853 -0.004097573458731417 -0.001144814300305243 0.0007130458041164935
1063 -0.0008288967367430667 -0.004335857820755859 0.001552163021361597
842 -0.014657054514092282 -0.010346889150140938 0.011037259244912789
414 -0.027271291230908976 -0.00834159758193071 -0.004281036540342781
465 -0.003568371448279255 0.01988836960298468 0.008369847007069338
1692 0.01380430411406393 0.012318532331110882 -0.010770226316065414
1691 -0.0025840297952216132 -0.008612299520127233 0.007752427005482547
855 -0.01000237518779184 -0.013569096047069658 -0.008213003815392932
1791 0.002294269657823533 0.004249840601224512 -0.010082172054942481
940 0.0038498986570009116 -0.002550427878478384 -0.007793029871548867
413 0.007821491252675198 -0.02232693670351966 -0.018889951263848046
1789 0.0011105269084101285 -0.0009814240619995744 0.002890593043325329
962 0.0029178568664785967 -0.0012902401785256533 -0.009073329936072159
854 0.002043305828118188 0.011066669911707712 0.010050358879207324
499 -0.0017416261175975548 -0.003638247241132909 -0.003241129702733262
463 -0.0020523622699672706 0.0021690519953512645 0.000634987472767878
128 0.011696670100842988 0.014438758899975845 -0.020051349479438808
919 0.0020845752606727078 -0.004274907875082232 -0.0018200359441059716
1790 0.005072062029093316 -0.00303061907718172 -0.0002786361212115994
1502 0.010917637235143716 -0.000629370091460371 -0.00892018063200399
38 0.010042232120188808 -0.007601361457965154 -0.021501288399631995
501 0.001372297650587818 0.0035358099299509127 -0.00959327741181808
926 0.014545387163785376 -0.007653269348360742 -0.0032166734666014838
1704 -0.00571527640118761 -0.003004155783916039 -0.005851389579977639
1665 0.003986957557521614 -0.0017359749102950396 -0.0014030933887442172
1478 -0.007933226556748395 0.001489699078820041 0.014293255632069686
846 -0.0032668190027261863 -0.007882153734671181 0.009862642841535518
1703 -0.017390358320127083 -0.016222014314487422 -0.00033906853444576237
1244 -0.0032756194561323606 0.00878745496954652 -0.007957307338655545
1388 0.0030908903373727072 0.005784207641664518 -0.007328434052168608
709 0.0007619994873730407 -0.001170335240399194 0.006698255439313718
1663 0.0014570171483261924 -0.0010290864907799386 -0.0003410647069343217
710 -0.01143812820282089 -0.00433137045380655 -0.015296880363134936
254 -0.003977766850248517 -0.004188755028237862 -0.010339365224641153
37 0.007101637774002377 -0.0063837208946384396 -0.0005662646643317901
1768 0.0017540493836363605 0.0015697883544531356 -0.0014247104841631374
795 -0.0011080365256692533 -0.004835939876022875 -0.01600670922719969
1477 -0.0014233326047685573 -0.0018999918552527913 0.0043909440338422605
844 0.0030302443659861933 -0.005219593407803229 0.00879436257959805
793 -0.004061546191377553 -0.0062742883859161136 -0.004015038316434235
59 -0.011328033236342735 0.010007912751211918 -0.01698250016482431
58 -0.003682046363338802 -0.0024180425804619203 0.0016763443554065674
711 0.010331208663651436 0.0005512897320672792 0.022475724425404475
845 0.004753505167844369 -0.002960097345719265 0.004012955231459693
794 0.0006136673643949009 0.002643465338180064 0.002640709113219642
1580 -0.01978767338898933 -0.009707341251569763 0.024902952553508273
1579 -0.00715510013479925 0.005394174258441084 -0.001587070696436106
632 0.007090673085226872 -0.005746109052856252 0.009330646034171301
1702 -0.012878823619190719 -0.003434453114691069 0.0034613504508535266
1479 0.0036169021947403696 -0.004441469286052765 -0.0029637486329967453
500 -0.0003207433026853751 -0.00616173231057989 -0.0029556113688616313
129 -0.0026665264038788585 0.01101921862151385 0.03441098348156863
8 0.002702805188126948 0.009336021107618145 0.009968403821951775
1065 -0.01260188339296421 -0.005222163522189714 0.014644356599898836
1064 -0.017256158500449842 -0.0009961566070691445 0.0050928077777162295
251 0.0006461832709633104 -0.008409429786839388 -0.007945551709727435
1664 0.0015330668178768175 0.0020716455298764457 0.001061528495204835
252 -0.010135124479713294 0.0015119635688143078 -0.0014004176462791905
925 -0.0038063582425241216 0.004973189634178779 -0.006424357739538497
127 -0.003912206274845068 -0.0026659867094201923 0.002836276445049242
187 0.006838464104581456 -0.006577626919922711 0.0017436721923434833
1615 -0.004232731822980762 0.003901963847653049 0.002762304355425694
1308 0.01101043102907445 -0.004010992666970938 -0.01358450850095576
1163 0.02222940959887183 -0.0164758569892369 -0.0021012561831990585
836 0.0018524981316257896 -0.0005875856528034067 0.009082519860093126
1150 0.0026583472492661044 0.0012281810316693417 -0.004984989273670278
1152 -0.01533274449110911 -0.0036005373445280055 0.01024236153857554
1151 -0.0018351872602883343 0.007472251948346981 -0.02400603712363332
342 0.0018195967427516425 -0.002047478153252854 0.0008847060608240748
1413 0.007457827572598755 0.0051124558691180546 0.013683470756524298
1617 0.003212708139875257 0.010130342790348799 0.018495698214147774
340 0.00346966910621022 -0.0013476607171744777 -0.0014058698059339714
1714 -0.003782096815416382 -0.0022674440439488333 -0.0037369448012589935
341 -0.0025314318307822167 -0.01380805210751561 -0.011057566776306451
1782 -0.0038654887273861355 0.004186464360516918 -0.007195737402251714
1781 0.007912746418910788 0.004669002150948854 0.009332838580168062
1160 -0.0419350724667137 -0.005817935648579256 0.006902317075300831
1411 -0.00041443178605946615 -0.003430503772331704 -0.0039544874933722125
204 0.010209258739235722 0.00157206069662564 0.003632315755973082
489 0.014342687036350313 -7.051505782210566e-05 0.0027277328536699135
189 -0.013604661902997257 0.0047021152537915795 -0.01606731746736903
1367 -0.00435875682958709 0.0033722998808821503 0.02275040313619114
1771 0.003005547970421648 0.0014726785464236455 -0.0001896350531485299
675 0.006198463064498309 0.008828801523296842 -0.016486975299670983
835 -0.00284995032267264 0.0006926979103869866 -0.0004966969831929984
1709 -0.010254888003126012 0.00023245396216288962 0.009185745646101666
1159 0.00431983767832907 0.007464537860487553 0.003234273535058275
188 0.025345801556846036 0.009053912051743393 0.006875206011903314
505 -0.0005825806392581964 0.0037825480010492294 -0.0029779611310528664
1501 -0.0004970258756790174 0.005211167824163615 0.0004817631593463687
1161 0.0026122593718223017 -0.004158868123315523 0.016388308527437473
837 -0.01746356613087532 -0.005085989533700913 -0.00012925813322907134
487 -0.0037646954328982994 -0.005074334443128725 0.005089637324651291
932 0.0006933113754419467 0.014217310128653664 -0.008083685524626398
931 -0.0029747574952436883 0.0005870688449809348 0.0017924557860633328
1086 0.002392458064060909 -0.005914300433993672 0.022229648235745584
933 -0.018932915442784037 0.021210863541949027 0.0077889065017866565
1780 0.0034500975866490462 -0.0010308298677228235 -0.003276796441305636
1624 -0.0014795620100633788 -0.003898577237083169 -0.0018917053402891853
464 -0.00700620174468377 0.004623153969980279 0.010325606666332632
250 0.0006284657270560987 -0.001488753216035837 0.004447255887882962
488 -0.01871642253109089 0.002569757688241276 0.01656130622706456
60 -0.0014965552505954262 -0.028152274313907197 -0.011023091511233651
1162 -0.00013394702211825304 -0.004211485247474368 0.0004434835605013202
1717 0.0013099935574458538 0.00023125383783973875 -0.0020495661643798327
1368 0.004935465311080582 -0.007811334057902956 -0.004648997115976886
1503 -0.02188369094707665 -0.005611967737493503 0.005746897771739793
1616 0.0055892334147542655 -0.010204677163548722 -0.005496168175758899
589 0.001543127292031515 -0.002203417334886665 -0.0009388570093936567
75 -0.0023211774800105086 -0.0059303765477203615 -0.001923758377944512
1626 0.0009143863524791614 -0.002319497346126364 0.005915836227784358
507 0.018670742094547176 0.0169791103584452 -0.013437983854827052
248 -0.00255210896322056 0.004933886096120198 0.002229824207641801
73 -0.0017023078365916626 0.004352867059303237 -0.0036122942637311748
249 -0.0004502206623320684 0.0029239265191289 0.0017053393200322806
983 0.009507397919584862 -0.014659679875022936 0.002427315309184302
1625 -0.0010031743694852286 0.001620452590531655 0.006670696060360749
1164 -0.009307511633025158 0.0028893952799606644 0.021698716810386317
1007 -0.011665803362520046 -0.00311199080303505 -0.010072526937042194
1258 0.003300432121695231 -0.0077873653797997395 0.00010898054743695635
1084 -0.0013359589100538662 -0.0028448868395569656 0.0012858164119438967
984 -0.001545073092186659 0.0009317285317319694 -0.00019470095744826218
1259 0.00822254531721767 0.001538995095796223 0.00983017746359437
674 -0.014315641782553325 0.012407710568198987 -0.011109987068788052
1260 0.005192527965525999 -0.003172157921770513 -0.00515488975859854
74 -0.0034409691942465484 -0.012618232030275515 -0.0008964655609547136
1718 -0.0002861999565999085 0.009816088323149971 -0.004342859679605592
673 -0.002276639193797528 0.006908477347539737 0.0034024974288647367
247 0.0016458149096987608 -0.001003831047512796 -0.001041991741018306
982 0.004766777160678961 -0.0022915921410115946 1.9011412834101534e-05
1708 -0.008327626344181195 -0.0005511164914659452 -0.0050569972927532
1715 -0.009386135668259323 -0.012492639621144181 -0.02883342327347079
1719 0.00048035638538532563 0.0034431647715876977 -0.014552895488079884
927 -0.01920189760674088 0.019104760540571857 -0.0056077779417279955
1773 0.01680336958320148 0.011108851763217426 -0.008740592852160792
39 -0.021835395147923202 -0.022808997106209955 -0.004907769602625978
1710 -0.012664949811381153 -0.013114243558837575 -0.018095597425610555
1396 -0.005002312907908689 0.005148863873721935 0.009055980046824232
1604 0.01583141744228726 -0.02094846832553386 0.008832193245924368
1772 0.007700951895685563 -0.011111339930915776 0.01795947955936372
889 -0.0005243889532776152 0.0034775010959147436 -0.000269090629794795
1752 0.013740999073220284 -0.008457770463333472 -0.0006695403350975301
729 -0.014015242890354895 0.01541481731724335 0.026206362190684847
1238 0.015526478933979203 -0.007644283428667489 -0.011687271299660755
606 -0.0216524245176411 0.00834157225148352 0.004640959891208944
707 -0.0018186361782241835 0.007436722090788462 0.00112812546157637
235 -0.004111844474290773 -0.0031327192458370724 -0.0017372947081807895
237 0.007491445729757381 0.007376386970817586 -0.005585034983472823
236 -0.0004146507829343921 -0.017275341939961622 -0.011568811666211069
946 -0.0003473672272503937 -0.001455792970765964 -0.00124093908508505
660 0.01596895520486847 0.01104166400238608 0.02048926241273405
1427 -0.0036602332976895633 -0.007512282469508395 -0.004632146884681558
1408 -0.004002086916359567 -0.001316258435747351 -0.014169400958191922
12 0.006968750991516245 -0.016973462037661518 -0.008238771428026995
708 0.003952435154020099 -0.008174505159107186 0.0014277435364885385
1409 0.00605552775390313 -0.012233394040421444 -0.006823678110803368
706 0.002481115359251195 -0.003069084107533275 -0.002829884464036929
857 -0.026704246151572204 0.003630032179021533 0.015404419487180286
392 0.015517861759873058 0.005277182718710301 0.0038472778267267227
1776 -0.017184040857871372 0.001518013619027456 -0.007999265764325537
77 -0.0025253277839944158 -0.0019092045009635396 -0.01343098414913242
520 -0.0004637708773058998 -0.003891846545301961 0.0035474929642964797
1774 -0.0007210680588283789 0.0013863022749732391 0.0038605709408582145
226 -0.0008033311954537047 -0.0008858528493958684 -0.0012204201778133416
439 -0.0003358591250743916 -0.003778338523086864 -0.0005725490865690189
948 0.0009734584913340101 -0.0007409955492688604 -0.011422309817507421
393 -0.007985207347394871 0.002832961433666833 -0.000723161415248806
228 -0.004396003642636374 -0.01657847632312137 0.005931391054458261
391 0.0020349680850758004 0.005438761455823263 3.6556143304854576e-05
858 0.0011795708377359765 -0.011783293133653616 -0.013114002975394968
521 -0.004750005426755826 -0.004554975499241537 0.0017341326732536345
1519 0.0009015293767627372 0.0048030355535712355 0.00016890110195063045
1446 0.00982692520599533 0.008791223609684236 -0.007358570869169153
1444 -9.389430707977036e-05 0.0023694739442405486 0.003313475590665283
494 -0.015177295716271792 0.01317853621509584 -0.003019931453478152
441 -0.0017632676834036028 0.006133742747335783 -0.01232885042022677
484 0.0025504299274956613 -0.00038298446899948937 0.0009081274170954472
658 -0.0010066655149670038 -0.001788844177236052 -0.0008973896762702877
1628 -0.005768926011722191 0.009556488861438197 0.014927984122152864
232 -0.0004040452050807096 0.00573602434707563 -0.000983648646644076
1428 -0.0014895982125790943 -0.005958873544853681 -0.011831073864462088
233 0.0022638560188076697 0.003036630462834333 0.0003766966403672491
234 0.008451824082027022 0.00043303355220034067 -0.004264868978719779
728 -0.007006335550015827 -0.0019156070120627516 -0.009068626009027036
486 -0.025965400050557547 0.00908442417932391 0.019190414066128626
890 -0.009750926619463028 -0.03083814080765872 0.010481822331612971
1520 0.015315707456692954 -0.00875360108232148 0.01287712682195033
1068 0.017852468714270577 -0.017356358128394995 -0.006306643790754664
659 0.004710178232856185 -0.002318313803061636 0.0019995678523348336
1612 0.006576344049774352 -0.001953882516577844 -0.0023592646962748267
485 0.029694538862871156 0.0238282158834845 -0.00024458423717058536
1067 -0.014564177383029625 -0.010376993776351847 0.02964189733363537
218 -0.003405969157747026 -0.008180874654409283 -0.007174315876399501
727 0.0027122127875006037 0.003404583939612028 0.0003137882982980739
522 -0.011643888243544445 0.0028618771407079155 -0.006556803354807962
1521 0.006087753125138408 0.00620812972938436 -0.009854925753813195
856 -0.0008731843946679011 -0.0016377249307489357 0.0009691978457791636
1043 -0.002270573343190645 0.0038817753063656894 0.005533826152391732
317 -0.00388877575053226 -0.001880635673205641 0.002768377728277922
440 0.029465370778645764 -0.022838714173097036 -0.00471517256043481
219 -0.0011265082092508517 -0.008717235032902271 0.005599226168583482
1044 0.005769143765188139 0.0012648102299356793 0.0009959729487800694
1066 0.0011228875761771417 -0.005794910825188396 0.0024225105573938126
217 0.0030955835209514385 -0.006607386843975529 0.007660996546948169
911 0.004861019938526674 -0.00047934140426917694 -0.0013217682003043977
1042 -0.0034333450721037314 0.003526035061094891 0.005351201787173376
1426 -0.003206160395948739 -0.006878639790709388 -0.001966687089272691
1614 0.007068291978776421 0.006381700896009602 -0.005702708807732792
493 -0.003202775133079743 -0.0005883389715868639 0.0004571719895135406
35 -0.015240626858525473 -0.010577106232445132 0.0020627859342886167
34 -0.007216273193137251 -0.0006862909625657988 0.009641789491582826
1192 0.0024888158350658855 -0.001064277993406898 0.00477698222639009
934 0.0006224187904738277 -0.0015821680489365559 0.0031288816164538533
648 0.0004066884175137798 0.007814360952413167 0.013666635458135106
1194 0.01133630696646301 -0.005012113673498206 -0.0022172392728831165
25 -0.0016869797361172708 0.0015084005633044127 0.00587775941884625
643 0.0024293440940098263 0.0014528619330400332 0.0023571200612238835
1553 -0.029090148793463538 -0.012949655683142613 0.004949745313869938
1193 0.001815506625983442 -0.00042263826513075256 0.008540670494288192
290 0.010822920329583164 -0.009489882051809614 0.006135845097121034
428 -0.005419949161157302 -0.0036411573608127047 -0.012024898666916625
289 0.003984806370506145 0.004374320468153684 0.0064927605617013
291 -0.0010888429053609744 0.007759002661719854 -0.007212243644867888
1796 0.02346077788863125 -0.0008200671100019434 -0.006452499730681461
1081 0.004597793494152937 0.0015711335518879118 -0.004174331832166171
646 0.0011955836418535769 0.0031992502852075002 -0.0007057887343070115
644 -0.01082867864477195 -0.0048099547032428615 -0.026306881711113093
10 -0.003006272841708515 -0.002994964128340984 -0.0023296025545835567
904 -0.0016344249081034037 0.0008311014695877724 0.007968281240159587
1630 -0.005362385935378521 -0.004122048374649916 -0.0009907630028303748
1631 0.010350265936695845 0.010210938753183862 0.020237445420081254
1632 -0.003636515016239006 0.009705413894088024 0.024340499060706438
276 -0.0009931157568120136 -0.011039595827947439 -0.018427476830277248
750 -0.00023898810951584635 0.004669610333976161 -0.008223463242844526
647 -0.0037383290883516943 -0.005526043513336137 -0.016108680775617515
905 0.0007142204777507437 0.007317681886543827 0.013153724391187262
36 -0.0010002891468762077 0.01431067894694516 0.002736349683075547
906 0.0019616409765994057 -0.02689477595039873 -0.002335186269937298
1666 -0.0032268842148662122 -0.001633380969697626 0.0023224453295883248
1083 -0.007083638831866703 -0.010559177971499528 -0.012735316142471333
936 -0.00025759805312834883 -0.0020920910680614284 0.0005318092776823284
246 0.016787846574940916 -0.013843087488717194 0.030179766970914564
865 0.003567134632717141 -0.002894740746698818 -0.0001735202810027944
1552 0.00663983718363105 -0.001910076931929078 -0.002095423608716594
482 -0.011127775455287573 0.005874056340344385 -0.0036329428281341248
867 0.015269470732519774 0.009088801131069687 0.019896281389243514
1542 0.005498856708187917 -0.007914052187525625 0.014703208286813608
1668 -0.0039372048855626845 0.02193083722467813 -0.0026939747322387428
1795 0.00034813488092177454 0.002561458045969813 0.004517737071315588
935 -0.0026912173098439214 0.006100692486653735 -0.000923462983959492
1667 0.007437405023264504 0.0025564249917397744 0.024713724649137712
422 -0.001273194109136634 0.015951621223300336 -0.002911441370576541
397 -0.001965845683417674 0.0004509272059442666 0.0003064759295983568
1540 -8.692572546703169e-05 -0.0009037392425454182 -0.0020163185949076193
274 0.0014639466684123023 -0.00500020593770501 -0.0005098887089423076
605 0.0010292070684419276 0.01801889953388198 -0.004935863453922485
1629 -0.005325721191859988 -0.011737524046599595 0.0038376716918074308
399 0.011217165833040525 0.01604468130484617 -0.006073357405177206
1289 0.011519416305246217 0.017323846698092348 -0.010702404349340805
318 -0.011217700380214048 -0.006111313066522678 -0.006504072129489492
1474 -0.0017063649369804506 -0.001184847234949771 0.007529925513867388
421 -0.004596346479554487 0.0017497062176441897 0.0027007551815304595
558 -0.0032218641497944976 -0.009255106551710203 0.002702187598081847
427 -0.00940360486424763 0.001533551722995281 0.00032725154121259837
991 -0.0020356587774641205 0.0018515648154565638 0.004143313301504664
1541 -0.010851911263717777 0.012068572392807548 -0.00647791733475006
398 -0.017411310037069486 -0.00040442191357302655 -0.008719764466350631
1476 -0.01348045290983675 -0.007158438012462872 0.006618416504443694
993 -0.005255940972051716 0.006474570467845681 0.0045902006673069215
864 -0.007903279872126339 0.013459046801018523 -0.00721728520525502
429 0.01285970149869552 0.005020500493519251 0.02236998756365059
1563 -0.000754950545804386 -0.00429474513313235 0.003417192047538756
245 0.015460666444844402 0.006032275424451872 0.020229725520525862
621 0.005791236116562757 -0.002644922925408153 0.016788208372109016
556 -0.0011660539581359404 -0.0017335927332011879 0.002110239709071099
423 -0.008885842234383573 -0.006854493509064534 0.00017123891805748823
244 0.00418617281797535 -0.004665359642058111 0.005857895854980274
1561 1.7749933526135807e-05 -0.0017278276233673694 -0.006393015517444461
1290 0.011047882746133848 0.0070192990700733825 0.02506807051239323
604 0.0025342961962458044 0.002947490555551387 -0.001188226193381111
992 0.012166598125883834 0.0023161064501452514 0.006938591546679344
966 0.01457351270503076 0.00897891595297078 0.003147518931017028
619 0.00204529249161422 -0.004605940198728217 0.004919011903083497
1082 0.020286686417139304 -9.738206387462642e-05 -0.002953422995276852
27 -0.015232324421295814 0.0038579582042743495 0.002180805120313721
1797 0.0013226121177933147 0.0016881056620782324 0.012394964875650226
748 0.0030971978052276084 0.0022261617894697755 0.004064400430097584
1288 0.0024636624636484978 0.005950623624363353 0.0070698693325776055
316 -0.005149532488231273 -0.0010387249265434446 0.0014686284006660553
509 -0.0021739718860215957 0.0032259802196452324 0.008863050976918835
1451 0.008485157269279339 0.006957045479125037 0.017580013348848667
1038 -0.0006659301452354931 -0.010589343724175136 -0.008726680680518331
1200 -0.006034442021996563 0.02456910172371231 0.012090874959909376
1037 -0.0180995520931596 -0.002473798762149896 0.004090711986977831
1627 0.0008348204225385415 0.0018606838790488427 0.008554366499715242
620 0.0018602819665356682 -6.730924773704223e-05 -8.191563726986588e-05
275 -0.0011961525152797768 -0.020130004219209092 0.0022890996199293047
806 0.029136548809175374 -0.009588002852751831 0.01681326810443083
69 0.02546815708309838 0.014787796402284272 -0.006171620168902294
1167 -0.0005238920833534583 -0.002676528343671902 -0.0011469120945502731
67 -0.0012353232639842416 -0.00267198457655897 0.0024827530751617907
1165 0.0026246114938511867 0.0018736679168255155 0.00597499369894069
70 -0.0024564218565272457 -0.0002456926589950789 -0.0040218698780250094
71 0.005105692189595818 -0.0012320135051861504 -0.007329398826431156
1166 0.0023642547219634735 0.005089058625132419 -0.0003283225248314203
1252 0.002922078067008841 -0.0009074901245702441 -0.003976954422769443
72 -0.0049106620468092315 -0.006544269490156932 -0.007206117704366464
68 -0.016095424172100043 0.004279925341822228 0.003808163546102069
1727 0.00459007538718715 0.004117299218715762 -0.009414463932814419
785 0.004544404102883415 -0.0014820756755506064 -0.0030045364335779755
1331 0.028854894474039935 0.016985703339831456 0.0022796265545016693
124 -0.0033396217110780086 0.0033378587689413147 0.0016583334909260994
1737 -0.008870547578175915 -0.0009623000981930953 0.0010979104123455634
613 0.0019344268153664084 0.002529957076668795 0.0013116551349105846
199 0.002915157645986252 -0.000992516416010876 0.006325388754358564
1489 -0.0010473753127814385 0.0007666564700520573 0.0027120506701412417
1642 0.0017510808081050286 -0.002546774615342423 0.0006511184696909994
82 -0.0012609979389024662 -0.0018606032448373778 0.0018185142056560846
159 0.0031787799405527182 0.020405904027876162 -0.019631703249213473
862 0.0047814422366548115 0.0014828592440272379 -0.007230631524555558
1643 0.0023608215863610425 -0.00604002590949187 0.0017485238841945102
1148 0.0073008318762292634 0.010536799521483158 -0.005636316832360998
1696 0.00359113348553007 -0.004286184758768649 -0.0005137708144559421
1735 -0.0037437712135266607 0.0036693695460321843 -0.0009769074275199044
389 0.0022784126200221305 0.0010889997046890244 -0.012030172657654438
201 -0.0019339680593065726 0.021437265061031274 -0.009175092306773894
1644 0.002043789686021853 -0.011248775820035813 -0.00850119690296147
360 -0.012377984789339592 -0.014374704910592128 -0.02027510729633412
579 0.004938727227605111 0.0032739057962677394 0.0053605052632586195
1726 0.007593265618805921 0.004882831914015226 -0.003404319202783326
1147 -0.003042582436121071 0.0031129934262752734 -0.0011002022407453982
1253 0.0009447388292726182 -0.00677721392204587 0.0005316810490990235
66 0.006442060049471638 -0.0004744390968078373 0.0009218237790962864
125 0.002266222306482551 0.005637679049060882 0.01656314160207327
1736 -0.0057897079757562465 0.004201992887844818 -0.0019358039459212281
784 0.004674275794634149 -0.006847855155023458 -0.0002334502275555699
1199 0.00852844424785704 -0.002672721026439373 -0.0023664326525580474
83 0.009829712319219036 -0.009188926389515415 0.002241058061065149
816 -0.006731118740362689 -0.011629497787984203 0.000998238776152058
802 0.0015396775311251785 8.283865647240399e-05 -0.000441510637989232
1562 0.001399302899877384 -0.02332978581040073 0.00025224053081593107
1387 0.0018009841903136273 0.005893231955592186 -0.0018835754406069727
1728 0.010307345365914756 0.007183839623355225 0.0019446772316759708
557 0.003854414322872474 0.01614928619511069 0.003164209566754381
1389 -0.0008456275993303375 0.004674852377458577 0.0029483663366924834
358 -0.0018412352750347767 -0.0003163588367702513 0.0017703461316068113
207 0.006410806620372746 0.002672003821794735 -0.009971933164936787
46 0.0002934261243691609 -0.00024393633616875786 -0.006527253218403685
1372 0.0018564551407521048 -0.00042954127945766634 0.001690605718744875
1374 -0.03311662329664943 -0.007315692086051332 -0.001090895529646033
1490 0.010643241032325387 -0.005853731950113855 -0.007244080712358462
206 -0.00733454795218297 -0.00015618442313610056 0.002021607674886917
1373 -0.00369678981404072 -0.005263485496660239 0.005509487168091154
1198 0.006626282023463091 0.005228383045689805 -0.0005811137704485124
786 -0.0034848622955080304 -0.010204610762203822 -0.003146183036397024
359 -0.002371693619352896 -0.002415537815310099 -0.0003765206976647566
126 -0.009740862159401899 0.02053558097524549 -0.02434291466597623
863 0.008343616969913441 0.005425874516506945 0.004033137109824904
803 -0.005365797700030547 0.004923840203403084 -0.0015015604361461733
200 -0.022224135468459867 -0.01090415543608643 -0.0058915067409813756
157 0.0055350731073093695 0.0026622640893632296 0.008873513205880637
253 0.0005123168088262671 -0.004384931504094601 -0.004073093335040312
1254 0.0039999452531006095 0.00906268129830892 -0.01717152819934741
205 0.005807128790956757 -0.0017145237023395692 -0.0033509895122055206
1697 -0.004959551320380739 -0.004993023535407748 0.003880134136152093
561 -0.030934149853983618 -0.011252073805288 0.001379572786579155
26 -0.0007799278115685522 0.0063322086604913706 0.007404773467452721
1330 0.0010259862828468393 0.004164171295656458 0.0017700732133552732
48 -0.005389992347453079 0.004843400836792587 -0.024393947532177194
158 -0.003504190074491498 0.006384924253226304 0.011542174250889206
390 -0.007008585748540924 -0.00856062108660923 0.005922737925121589
388 -0.0038797629889923417 -0.0032073712751146993 -0.0037711809903851643
1491 -0.008326951130260943 0.006625866855482685 0.021847137965919375
1073 0.003836981955049879 0.004113399631756781 -0.00864288929802744
47 0.01615060613205412 -0.0007634329622623976 -0.011169209814563406
461 -0.004827136936357664 -0.004734971939710293 0.010110609753154991
578 -0.0010840870158940012 0.003772873969049196 -0.010467425323392543
773 -0.0021708209984591348 0.005476227232016709 -0.0016326458077092982
190 -0.003357117581187325 -0.0006038953674868084 0.004427453684297893
1513 0.005541867732384169 0.006045363721496902 -0.0016952601430044799
774 -0.012306933807862408 -0.009620227947483502 0.009345072967344398
1261 -0.0009322526026910578 0.0030953211902773684 -0.0026782099959512594
719 0.003514137635772536 0.006323402394952941 0.007042833515800369
1318 -0.0020412194251201166 2.5910941271248632e-05 0.004905333843361033
1698 -0.002195730456602199 -0.006593210070638045 0.0033045933257612125
772 -0.006437291751116077 0.002657191845529706 0.0017964186197453413
1313 0.01353971027320907 0.005675422921334089 -0.0021312125207454497
1319 -0.006443185056055853 0.026439217569323548 -0.018661711185147794
1312 -0.005466877580164088 -0.004538934479911339 -0.00619510338560656
1129 0.0004307757275908301 0.00043818496125380945 0.005043709020981307
720 -0.0030627330869784143 -0.0022098509726182986 0.009121692998862847
1320 0.00910223131519603 -0.008324223119469945 0.031691888184712386
1412 -0.006103259526776192 -0.009536521255164077 -0.0190677795771901
1131 0.020397374457702643 0.0006756320009012626 0.0034424318687291235
192 0.0003196135013802028 -0.014285297587841821 -0.015366132252137187
1332 -0.031541354032367255 -0.006953843012420113 0.009640393595679765
456 -0.013663651809083858 0.016444093971529166 -0.02014844416495186
1085 -0.00029079628540140467 0.006243815615408746 -0.025401010690111494
738 -0.004692444797047946 0.010551309169290044 -0.014682363236024083
577 -0.0034480433205217 0.0010541325291126172 -0.0012487593662837083
718 0.003945129978101221 -0.003094736029887645 -0.001348293310310806
455 -0.007567362856043922 -0.00029738460426895186 -0.010085426382871793
454 0.004194082096286478 -0.0018179143872956167 -0.006148408618966946
1365 -0.0034196729437685966 -0.010838631823298183 0.007554585893720968
1190 -0.002112060721448075 -0.003317309604693042 -0.0004717369862919218
1262 -0.005829801229012278 0.008923981386411053 -0.0115512260942614
1364 -0.011128917561825389 -0.019726500281924603 0.02070761203368564
1101 0.012436036774338704 -0.02514488860891257 0.014505992396037252
1099 -0.0006587065811740506 0.00704433054041923 -0.00460558839169499
1100 0.0013961594195554974 0.005932743487644043 -0.0032791562784242026
1263 -0.007428925989119471 -0.003952625933968952 0.00598302638348357
216 0.0034739822314042877 0.001708553229112969 0.0005060590136796884
1515 0.006429651042973444 0.007430324361890255 -0.002108665723293674
1300 0.00264275161996911 -0.005919163251266783 -0.000640711323411209
1363 0.00212153973297303 0.00023187517023250397 0.001916782938629404
1514 0.005459350021091789 0.005578633668781709 -0.003244393602415539
122 0.0021707905076536744 -0.0025222840256426786 -0.00302829571104382
736 0.002924756731072678 0.0016150240600387572 -0.0033355344981758402
979 -0.003919171957569383 -0.0023483919424342184 -0.004041985725628878
191 0.0017519912225156746 0.0014492367581565504 0.0009401017380029357
1593 0.005575808558779035 -0.004985291547320524 -0.0039830949621325615
1130 -0.02267518390476503 0.020308978306034165 0.007199334515647398
1785 -0.020289343049815892 -0.012076048355488441 0.004171646945553343
214 0.004504790819617194 0.009432333760869025 -0.0003179717316888688
873 -0.00787894658712632 0.008389906107661674 -0.0023885995099980142
872 -0.0035787066949341793 0.0016126095553522448 0.0037786479575531093
1783 -3.987710376411441e-06 -0.0019524873885077554 0.0041351986702833484
215 0.00984315846278268 0.010839187794237353 -0.005762248659358313
980 0.03214829461537553 0.0019917888081750976 0.008829707953405388
1072 -0.0010264664255885281 -0.0044789873779891905 -0.006536173118569212
871 -0.0016090002568764396 0.001639741304934935 -0.0017902666496548362
758 0.001723604262799753 0.008338062467838657 0.00018293327823308726
1410 -0.011131939317111986 0.00022218191635398 -0.006891634188315014
1784 0.011605264065254308 -0.003863712321041229 0.02417992028622785
1613 0.013338468052221704 -0.0020260550356088736 0.002751433400258595
910 0.0035062476785869675 -0.003914970422913555 0.0014199246052215512
759 0.01050383045798239 -0.007077975094638968 -0.007147722167473607
912 -0.013388516755715632 -0.003380699203490714 0.019795655925807686
757 0.0014311724064956888 0.00013773960847601838 0.00034878001194481767
1074 0.004421805761672361 -0.0071245241132010355 -0.005856274768323218
1172 0.020620666212071495 -0.028302512006683586 -0.01886283143201942
518 -0.005626845601306776 -0.008771315829886356 0.006531037119613389
1237 0.0032083857043340774 -0.003871649322754783 -0.005534072034507188
1075 0.0019404180435086834 0.00229855320581091 0.0032327194962082167
1527 0.0022027750436914915 -0.013010732268594392 0.0022359225211251543
131 0.005998736530826194 -0.005709040986495362 -0.005611515054992804
145 -0.004284849655695429 0.0011312507067990699 -0.002213326909720992
1506 -0.004746692650998692 -0.017504050045820282 -0.0209328366354372
146 -0.0015386495659770857 -0.00895661538392321 -0.008388187793903072
1378 -0.004655479555367436 0.0033398413301805457 -0.0002229213540897177
1505 -0.008287289269962528 0.021045441365467637 -0.0021436951121229994
830 -0.0047018040192779356 -0.004385647566649385 0.000991611736869794
182 0.002396134856206225 -0.013047331812274587 -0.0072425496269106744
147 0.0013802937681448358 0.0026637455632737253 -0.007122413823003248
829 -0.0025455851581862306 0.0029880171798623715 0.0015378760421650374
1684 -0.005512218600299707 -0.0013285088112400148 0.004917194075805249
1201 0.0029015773886641788 0.005762984403797163 -0.0026823071994604686
831 0.00532044194683743 0.016376463152070437 -0.0036315707454356604
1686 -0.015878595374657113 -0.005936650078251278 -0.004752407431249567
1517 -0.015261479017724055 -0.019913025913639745 -0.008962577817477791
1685 0.023147895982256885 -0.008275960449013567 -0.00285215296066326
95 -0.006465357935219999 0.010694069377020237 -0.0014709845984110356
1379 0.000306031700793113 0.013397475490533236 -0.010865012521383863
94 -0.0003908426614595395 0.0020958167545216447 0.0009725957972482502
677 -0.02335947782013307 0.01056013123351423 -0.016559841313285716
424 -0.00043637589826939064 0.0022683576102390424 0.0005571984121861725
1576 -0.004810051803607734 0.004178139249852419 -0.00459114625439164
1578 -0.0064061376082372185 0.005406382691106862 -0.005762463686790992
426 -0.0017507749937145474 0.011651187172997323 0.0020289372929437064
1577 -0.0025773023452680776 0.003658795022387304 -0.004348154901865678
1456 0.0011647144107612105 0.0007897999897002371 -0.008203006679156313
1751 0.002485683385556879 0.011832668946573734 -0.008599341096856896
923 0.003598450182480723 0.0030911882118291557 0.004614303000639081
676 -0.005696853227750526 -0.006557360566671594 -0.009368460969815714
1069 -0.0009192161163200812 0.00015550286926669784 -0.0032518590254467608
1516 -0.009589081305528697 0.0017572551345048349 -0.005086391250643571
181 0.002465958000279093 0.0031568040747718277 -0.0021380369289490148
1070 0.012398239748373778 0.025200393206989767 -0.014459783618792594
183 -0.005381029864495652 0.002531300160573564 0.004020480976250452
300 -0.013210169328506192 -0.005668719903892166 -0.013741532308199026
1504 0.0002897117979009906 -0.0036065030270656796 0.0008665826755673802
194 0.02252541108322453 0.007355882446433833 -0.012575949166345883
1584 -0.0030665267876571825 0.02117549038036102 0.0018418142168259018
1380 0.0002519392380986892 0.0007845514865968694 0.003151944755710866
947 -0.0020112641392372975 -0.0023389611665350063 0.013114550452816686
965 -0.01992685681425683 -0.010773961040873935 -0.016776497812778682
1202 -0.002952658153835941 -0.0005809348086611224 -0.007986738848167054
262 -0.0012449624517024535 -0.0021659220802562776 -0.0006715312152123829
425 -0.008337382144518386 0.006854551718796345 0.000938218825892088
263 0.008313817166647617 -0.004360603156078422 0.012510285801760366
298 0.0023698856335628584 -0.004191270493858909 -0.0019755202353898384
1518 0.0010695331068818125 0.0037785401918207845 -0.005439319615765411
1323 0.00945232148380102 0.028360827824316485 0.03320983989087625
634 0.001917965474643499 -0.0018231492364819415 0.0036187704999119333
195 0.0058685397659567 0.0019707244316500287 0.0008913444871318715
1582 -0.0027534199422766976 0.002096216359729249 -0.0015897683738191183
1525 0.008259143572260323 -0.006212984297499895 -0.0006184942940592541
130 0.0011013482242978392 0.00041701441627227707 -0.0019036829022676058
1526 0.008795913205369196 -0.013368000262705099 -0.005017080475404844
1458 0.017194219045181793 0.01925622210014187 -0.0009326674428044363
1322 0.0013380572766471665 0.016522413809006754 0.002743163519052016
1457 0.009509188766829033 -0.012272589493440506 -0.011065414848306934
635 -0.020879242417464212 -0.010677259057246485 -0.013063401837034248
678 -0.02672366844980867 0.019460064574675553 -0.00611654758935507
1750 0.001163067497547066 -0.0011710018143047671 0.00048774222814568013
193 0.0011709539840636459 0.0011432953936872524 0.0037095634662010868
299 0.010646199506977722 -0.0017131827019367931 0.004285354779672018
1321 0.0007574324290347229 0.0045809371377196866 -0.0011257854131424938
1071 -0.0021718721479168424 0.0014774472240783963 0.027338248208533956
52 -0.0034707426610128727 0.0011049122870983748 0.0011994367788590733
54 -0.008079699505427114 0.001346651408840133 0.016080003084100555
1335 -0.010919677720374114 0.006004981975040277 0.00280122650845371
1433 0.012151571046353669 -0.02075335920135529 0.014277057171639086
457 -0.000136383628486911 0.0024898705484355044 0.0014903813623893321
1333 -0.006336792369968909 -0.0027966202149126793 -0.004369630033349497
92 0.012111433918940429 0.011012906345523965 0.0025590727630747747
91 0.0011740258717158002 0.0049061685645328725 -0.004674605973902307
964 9.809728116360612e-05 0.003322308294061481 0.005343634326208211
1311 0.010116320140746659 0.0025902595383297845 -0.007990408794234561
852 -0.02442832244014383 -0.028926863499013508 0.006814471531407424
1334 0.0035289000428228834 -0.0017793980904777383 -0.0055249381459607306
508 -0.0025104853029536555 -0.0037761974943986893 -0.00043300224025012403
357 -0.014183922532221662 -0.003334533446567871 -0.004170834211794689
654 -0.010126666983671586 0.0009042816735365224 -0.011509526807574855
850 0.007746295074503832 0.0034163904611374443 -0.0027142640067432254
1432 0.0007538831996698914 0.00598176581864032 0.004187166734395162
93 -0.003231919084990445 0.009013815752712385 -0.0026280366474824507
645 -0.01145650267060987 0.0005831570139321176 -0.008400343791427683
1245 -0.0017487235577921196 -0.003053951311338322 0.011487179814400776
459 -0.0009027553417865129 -0.006417360837046195 0.01030747698425122
1309 0.006169839654396917 0.0011239439717388592 -4.8970545998472814e-05
725 0.0065155295584755505 -0.007160725803847107 0.00811784788774215
96 0.010669922119556589 -0.004212691232906453 -0.01447961659983527
724 -0.0019194141568375728 -0.003652172316022804 0.005594706863506881
523 -0.0019999393015000663 0.0021418712458879377 0.0071055609148412135
807 -0.026110537065778643 -0.006298077966980939 0.00782655317986379
406 -0.0015179589937609577 -0.003266724791711633 9.508299458380698e-07
1469 -0.003001519029914444 -0.010473346446243818 -0.005760140813301157
1536 0.005221609285392884 0.001294936651521023 -0.0009031161047447141
1535 -0.0016609534414800257 0.0019558680290457362 0.002695018219995348
1534 0.0011687650583194432 0.0005878089136774312 -0.0008161835231026821
458 -0.0003744261384365956 0.004751105858792817 -0.0011760330096917285
53 -0.013132343272112698 0.012943016636890247 0.00015055514969425875
851 0.008687111694193901 0.006401222093362911 -0.00021360442051752455
266 -0.006538480728371432 -0.006494863073683424 0.0054205984602537375
301 0.0008123007735741022 0.0010208300415801032 -0.0011061059998210838
922 -0.0042137426532784595 -0.00011879982528524426 0.00031734566715082196
1076 0.010436219690092062 -0.016235381052308373 0.018451459124784755
1470 0.00471825752011653 0.02543426571725604 -0.012919148558621332
510 -0.003295012143277376 -0.006033198116533203 0.004224200239405481
1564 -0.0037418332631824745 -0.0019408357968405733 0.0013474245553600026
302 0.002876695709824123 0.0013433689692900694 -0.001113824526709375
1431 0.004682123766076915 -0.03328834495386259 0.023733917697593112
1361 -0.015565951712046526 -0.00908307804975035 0.007326529617055195
924 -0.012895324572035637 0.006374672919353298 -0.00012015413493315798
1429 -0.003560545344992063 0.00141103229756916 -0.002229294867337231
1455 0.012382438115468231 0.0043301602744731625 0.01925707614910526
1430 0.003739737592477983 -0.016248277009251813 0.01058851202375727
1218 -0.0003088994204892273 0.02138230487791901 0.020734836963784007
1217 0.011970361904488377 -0.011263527402560971 0.012640287897947832
629 -0.013324253307164776 -0.02537216323837966 -0.0018660044400828045
1417 -0.0011341856448360598 -0.00047818397588441156 -0.008557632374466372
1468 -0.0015653650071583301 0.00247417505136179 -0.00579241092322545
430 -0.003015687639789799 -0.005765696887279834 -0.002161564062778601
431 -0.0034019148816685743 0.012868134521327707 0.009368273074889898
1360 0.0024725462546642063 -0.0017445526880388816 0.002797749791501221
1216 -0.0025710569379169337 -0.00026565233614925373 0.005206557219137276
432 -0.010945714281233728 0.002975301991943313 -0.009808817591079768
1419 -0.00352886293799347 -0.015087396216559796 -0.0027789478115976345
1434 0.01672671412306593 0.0040272765295664365 -0.01989811297874132
132 0.0011459492664203813 0.0022929223366508944 -0.001276173711665908
1418 0.005948027144367734 0.007021965640139708 -0.023867684785446975
408 -0.009865978276636413 0.010822995395614094 0.02464334124059027
1454 -0.013444381786243222 0.03312320417583451 -0.024310801152733215
221 -0.0044501902206635705 0.01762596451973711 0.005937902313563355
303 -0.018544650957356863 0.006289322991957884 -0.0003634095031317495
805 -0.0003059937720126767 0.005818029253669021 -0.00031541287704887693
1018 0.004828225419680474 0.0038232655288083558 0.005046560235666606
1077 0.009694287418455589 0.008770886180669443 -0.021536837472214004
265 -0.0009244375714204067 0.001231145155815782 4.257968340743338e-06
1019 0.018220456574974443 -0.005395635954574643 0.006066474172997308
1243 -0.0033817238295140474 0.0027964693229862946 0.0015155844352981766
960 0.010410874955882079 -0.0035102334884637232 0.001049679693601136
1282 -0.004953108863410062 -0.001042366901395207 -0.00199426830285547
726 -0.0061437399485674265 0.008500912729584583 -0.01280058079275472
1565 -0.003593522939425188 0.0001377862361357204 0.002718948764093427
630 0.020585558515640645 -0.0034087288500874893 -0.02207512545987397
1020 0.00490849392557712 -0.011198596701281502 0.003826368274306241
400 0.00503084177172513 0.001349184667413575 -0.002022560961420897
401 -0.01874172816100748 -0.010553588902588836 -0.02370112509138898
652 -0.002741014904902902 0.0040766663172272415 0.0008304260115000804
325 0.0024814083706125247 -0.001150734063823737 -0.006226387150230758
653 -0.0005512632520102543 0.001495127510203947 -0.0003370423236713717
326 0.018167019216258448 -0.006874552828580916 -0.0014671108709653532
327 -0.0023300430503945795 0.012149617489704969 0.004312658636741937
827 -0.0027693867782160766 0.0050271916187222395 -0.0014544604113038383
402 -0.00043679771174976844 -0.013213253667441867 0.033769923382712584
176 -0.001973084814135034 -0.0009114541000665581 -0.004535644349429399
826 0.00233143978532493 0.011320815706276738 -0.0013232061366994193
55 0.003121526714727026 0.0014335348884167475 0.003388409617628167
959 0.0034645597939755132 0.001801399385345435 0.006916073305241691
1317 0.004175447616994352 0.005787515062888518 -0.0015808775384587854
175 -0.0027704880772985653 -0.00011075904526088811 0.0027996120811433056
1158 -0.014987592527369345 -0.016689241815613754 0.010552620321077795
961 0.0012040882243050325 -0.006252983177634403 0.0005094010880964568
1316 -0.003536073412100816 0.014394382625702794 0.008977525762175797
20 -0.0011622989880464088 -0.01399569498701089 0.0072617174993592805
586 0.004740090425335067 0.0065316900192148915 0.0036915610307728377
343 -0.004885067253896782 0.004572138828378486 0.00015823331851443485
344 -0.023131945581691616 0.01113696842678829 -0.020340627121164877
345 0.0069204983262818815 -0.015588099665637825 -0.008520680713516632
311 -0.010675868764892625 -0.01577872022603196 0.03257383725585792
587 -0.023053097370663723 -0.020118823710338362 -0.0016962093668384632
1157 0.008505069669377703 0.0011506103112839993 -0.02272934665300938
220 0.0014088255205950949 -0.0021327393269924694 0.001607639443894299
1315 -0.003623518864991246 0.001367324950220594 0.006815944424888783
1156 -0.005258308422083304 -0.010124087500237118 -0.004955456350309171
633 0.02515059005003182 0.0012317416655692455 0.00013874711126604677
804 0.021917668072897394 -0.008217410790929995 -0.012329630103609478
177 -0.0007836548277441254 -0.00232096084606017 -0.013137598222460288
138 -0.008086663816261759 -0.010325303978955702 -0.021139726364619815
142 0.004121470199802689 -0.0006325069536607709 0.0036037971370937133
631 -0.0002908755223750269 0.0018440074503386682 0.0024766574365306182
57 0.008494878615121913 -0.0060800652601261254 -0.01258356154156062
821 -0.024318416882341445 -0.01642566262644871 0.008915628433176864
475 -0.005618524177940729 -0.00046016776366049946 -0.005355581917166032
963 -0.0009204923751997391 -0.0038891564673186694 -0.007035663619617833
697 -0.0019096746228232555 0.0046987570495903574 0.0002626305823111483
136 -0.0007762378963368885 0.00018157244053127315 -0.002571206210254459
144 0.008060077187235854 -0.012909877347482085 0.009501832099524054
699 -0.0016002393832936297 0.007278751150391228 -0.0016517820238767854
21 0.018634713007029142 0.009476640982351498 -0.016712305966517797
775 0.007321652705179168 0.006858273102913805 -0.0061074064273811705
777 0.00041121344291254557 0.0016891778834143673 0.0024204660145595424
56 0.005139165844253295 0.0005690455024727247 -0.00020202141581221028
476 0.007342464000376204 -0.020383120992585973 -0.004170282075689855
84 -0.011034547055882051 -0.00885080631950238 0.008889029499591796
559 0.0037713437367052627 0.0007599526874271985 -0.0009739325009266282
222 0.009914198744149623 -0.015542032645039158 -0.015986112476071502
698 -0.004732201344085077 0.004816825256746146 0.0017986583874789214
143 -0.01174840700255662 0.00958078557275182 0.00571077812308263
19 0.0024812810618741053 0.003555711502264143 -0.002646790261556781
958 0.005692876485197188 -0.0035776965692083974 -0.0009966418924836076
137 0.009179885579089005 0.020879666381203782 -0.01062838256402494
822 -0.015767707709269427 0.028348011877829676 -0.004634922154707854
477 -0.02253452381490682 0.018421364662391325 -0.00527216222452171
1284 0.01196910838509375 -0.00958771169539291 0.006123791787108798
820 0.0026721413344913455 0.0015276436904587802 0.005239239112486179
453 -0.0004495391429433594 0.008483273590140799 -0.02238540873498889
1581 0.020418925567331492 0.002956695761027769 0.002820150799409553
560 0.006858604925258697 -0.036832520174097334 -0.00324581864344496
516 0.00073970096404827 0.006228030298377745 0.0009820718808020343
1362 -0.00014602165540655854 -0.001802956978659676 0.003363105465737459
448 -0.00041168416126142874 0.007264598259295028 -0.0010247342693408216
450 0.009472632173430117 -0.008298831102212061 -0.010655291018964116
449 -0.012370230304008158 0.02508805575634944 -0.004090349569852287
1488 -0.005360328327927173 -0.005888309686004679 -0.005375859236044989
106 -0.00013895976166626025 -0.001309076821970501 -0.006300539162677295
107 -0.007634196877953216 -0.003344504624850245 0.020681072312731356
1234 -0.0014282303970918685 0.0009173747465703766 -0.0006463370344776182
1235 0.014106591630188606 0.011016037267854516 0.001136277112561373
1212 -0.007254586710632318 0.014047277706532888 0.0035378884213706674
1095 -0.005059571451081485 -0.01074558056201596 0.004308231847491217
1093 0.0030313137514980824 -0.004783436715704832 -8.797969457900989e-05
1094 0.002931618504581487 0.0023723945034704037 0.004917248692207392
1306 0.009224873600615137 0.003619642800907084 0.00028334798284668006
1767 -0.005644390388055534 -0.004541418626319341 -0.00044088394789909015
1295 -0.013179529957237823 0.0012245329028269239 0.005141251580424612
108 0.013496644128401658 0.009636326157179857 0.04618302992313024
1211 -0.0014941974839665117 -0.009278196207048207 -0.001820313490479306
1687 -0.006791913730680921 0.0040061910429367 -0.0009060097294739165
1716 -0.005237199120892569 -0.004575184762110934 -0.009410708922211696
1748 -0.0079009500618041 -0.0004527569379275363 -0.002164222785499727
310 -0.00596733165038522 0.0042967314387385375 0.003187235961741518
1765 0.00019343846805264107 -0.013006582108574836 0.0020570976037482124
1766 -0.004231877099648542 -0.008231029907905018 -0.0009281633660445013
1236 -0.015303280967076003 -0.02775619242132552 0.002118552573417762
1689 -0.006024062563630539 0.018152823789788806 -0.010810669172973764
1355 -0.007833550595640957 -0.01698555420145965 0.028740895970157776
1749 0.0026653676620641406 0.0013820917886472384 0.0027421534627727266
1486 -0.00205756655711677 -0.004235763991770294 0.0019409569802197443
320 -0.0127066745293797 -0.002908267103986946 -0.0036936526589251696
319 0.00014187116407701596 -0.00384471388636051 0.0007063931338964732
1296 0.009328620964181201 0.013904282918415676 -0.009194548982793841
1307 -0.012346263458014225 -0.009468368472119838 -0.006423248867471007
981 -0.017645147629563318 -0.006720215700778476 -0.018673062382453857
121 -0.002487639735944898 -0.004432369098444287 -0.0004131726886674086
1747 -0.001999593932662507 0.000123116134989602 0.0023848126716498174
977 -0.00010455781682359988 0.017731143045973067 -0.0065996478111933765
1487 -0.0033258129619788005 -0.013367100067315117 -0.019592713383991177
1356 -0.028334649438826392 -0.018652763507470294 0.019218869606731533
385 -0.0017162857057897757 0.0013059144524263703 0.0023567904166466253
732 0.013657774006915287 0.02153893482610297 -0.008768770257761188
312 -0.0002764639512162413 0.009618829725387851 0.0013013792727346045
695 -0.010999136950016444 0.0022771762675233395 -0.033028639684063575
1239 -0.011483674079432293 0.006714260942524982 -0.002194066454875606
85 0.0046074913232596725 0.001773614020128108 -0.0049861370486341565
386 -0.0027853140845474585 -0.008625716968667138 0.0025708872571660046
668 -0.0028809214958689174 0.0090528091217174 0.009341558646132052
791 -0.005270934145566969 -0.0011302198220702324 -0.02090988622832133
123 -0.005878171791477357 -0.0031874249390759037 0.006074382973103868
1210 0.0001338138151113874 0.0013095821075504686 0.001965702423624147
694 0.006748803105232064 -0.0002401186771889847 -0.005856334999609589
87 0.003717361930856777 -0.015575987105862051 -0.005468966248071215
1354 0.0013660048209490619 -0.0006172167844030631 0.00035677077860329454
1108 0.0030239576777462596 0.0005000108988845953 -0.003574240519421114
1688 -0.013574221648573016 -0.01568417767034872 -0.001378054052307132
667 0.004966304860243633 0.004723531265947354 0.0021246126666509225
669 0.004307711690703562 0.0021617900142070416 0.0012636629891299006
696 0.010802027450405753 -0.0011070628305745974 0.0014006128622839654
1189 0.003304422502938991 -0.003369493091974057 -0.0010720666179357412
1191 0.0009970840073328792 -0.007304681251463672 0.0029810898065098356
1110 0.0017183982717468868 -0.0016976369196921909 -0.0027806151663955906
790 0.001675694827635301 0.0038840468778147228 0.002673561610229236
1398 -0.0035798987552069818 0.014287286216769848 -0.00875466741489367
792 0.03896903578777965 -0.007625508231349025 -0.003608009467638534
730 0.0021920215680898496 -0.005670322077481965 0.00024051363626899176
387 -0.008091477472329626 -0.007006642986266558 -0.014431687647401404
776 -0.016949447994872673 -0.003660151823314262 -0.0026625863334419023
1294 0.004423485608554915 0.0012477673407860427 -0.0028605620819486246
731 0.007671487233395598 0.008207999795013075 -0.0033513719862450987
506 0.01863404657054026 0.005045529012810424 0.007700922741222449
1314 -0.02148407765461708 0.01016257103290685 -0.0037527435276101346
86 0.012053032741901247 -0.004093710652041848 -0.0003078054718321012
1109 -0.004784757096393739 -0.011307862652366444 -6.683001571581839e-05
588 0.007489934250054167 0.01675156540231145 0.02070367329517933
818 -0.016911554818914657 -0.011669521003850767 0.00010936001205072435
819 -0.0028449315374364645 -0.0005003704082100159 -0.008696154418740016
817 0.003783473792184002 0.0053150720831099145 -0.007386524186395418
346 -0.0034044854056596973 -0.0004341734401633817 0.001656609028514913
348 0.012181248639059648 0.006681014176025264 0.0009295223712663317
347 0.004964882363937999 0.00847277560068442 -0.00030103237842845005
1213 -0.005135199390854292 0.0022050408692468174 0.004120196855603762
1214 -0.004901645497418765 0.0021655500229837165 0.003765114459791211
766 0.005451347368330874 0.0028254160585413795 0.001001026335699644
879 -0.0016446852198578469 0.0021595599550848013 -0.0030089474486042268
1695 -0.017100444544591708 0.00843456216109186 -0.01783990531680778
511 -0.0016438757289169075 0.0008152403123865485 -0.0023350400871906657
1196 -0.0006913147071532404 -0.004578198037286091 0.0009329490670318242
767 -0.007380209653222374 0.0033501496362591744 -0.00858554432773359
1279 0.00013112077580800834 -0.005148807344289286 -0.0012116057759792092
16 0.0004336907920351111 -0.002868602377563798 -0.004261764764213768
1483 -0.000832634842484826 -0.004405776690052142 -0.005612177345186758
1197 -0.009595247726087268 -0.0024157345579356344 -0.004964245787532418
1485 -0.001881435030715819 0.008709172832789599 -0.0041943687067812225
1706 0.01632104903724294 -0.007490376109403588 0.017237115303098075
555 -0.02044157727947376 -0.010965923962769426 -0.004590738170622693
899 -0.002226977434788997 0.019312717172745526 0.02677984568006597
1305 -0.003659625776064743 -0.006549731915608129 0.0030604568915486895
539 0.003841176783730134 -0.012187198514123462 -0.00492173172779073
1673 0.01053429271974309 0.01322328716426945 0.004854507239486049
1195 0.0010068174411827736 -0.00217824167878151 -0.00016394409460573236
1303 -0.00255480579379271 -0.003337171447150883 0.002306324168912326
1633 -0.0037595816601413653 -0.00793648260846109 0.002249892027461667
550 0.0013941243118475225 0.0014004054558557654 -0.004309174139895892
1304 -0.006608721249466467 -0.004989131999776246 0.007613117173853651
1484 -0.0005169059421839049 0.001853246045089148 0.010083691985336138
553 0.007054094712831557 0.008094509356326707 -0.006271301341855577
1705 0.0035444726017374558 -0.001551412248123801 0.00470567923351642
554 0.014434644106574286 0.03761666767134208 -0.007908914197495964
374 -0.00653894597570613 0.005493279228064601 -0.006819305371852024
540 0.009476423305729547 0.006813041885526221 0.004275573968028656
17 0.0014256149739529616 -0.0003635045734447383 -0.004395799526112243
373 -0.004740669623543379 0.0022585051554974245 -0.002249873529537137
1635 -0.021241213619878723 0.01879301174160451 -0.015392424713927875
538 0.0023347539514923586 -0.001166908826549697 -0.003788055282856208
1707 0.006325438491482119 0.007078954089400576 -0.0031211295904253265
1324 -0.0014216180582427602 -0.0011029098468023748 -0.00012035534769604305
1672 0.0010483547848382962 -0.007826231376718508 0.004702695560286601
1358 -0.007960628739759008 -0.0019002349113768672 -0.0019266792904146447
18 0.002361286783865393 -0.003952632183594487 -0.0012334709567646204
575 -0.006150901787317809 0.005362019650719108 -0.008330518731174113
1524 -0.0164523523981909 -0.0070024868544338245 -0.0021274567022040104
371 -0.005024706105660932 0.03588103831422886 0.011422647238867515
1679 -0.007235014031223828 -0.004275311281318824 0.008720477682971713
375 0.006671706889746415 0.0011424893212626328 0.014113654230638605
370 -0.006150247488812728 0.0026597575291716696 0.0007256388803795041
670 -0.0019358446691766823 0.0014601647501982387 0.008313343397045066
878 -0.005148395183689985 -0.008184598785093252 0.002661392530254313
1674 -0.006367553864630893 0.012739648735352323 0.00756687503457487
671 0.00348362501086819 0.0012113148369918168 0.002204590943286528
1678 -0.0022913146540523674 -0.007451610409754006 0.006600725713283675
1523 -0.026454336840961667 0.0001941168984031212 -0.002596199221379689
1680 -0.011894838441165852 -0.0028636638636378546 0.004281010238237109
1522 -0.00014258583104985128 0.0035728207877946225 -0.0031887902570789965
1275 0.02181473351199211 -0.002761742020369707 0.009527675906225268
1328 -0.02418566584759934 -0.0029643794793499335 -0.007280953590992408
574 0.0006342858568805478 0.0066644799498164166 -0.004066233979392627
551 0.00810099791403031 -0.006636612073746507 0.007373316394341079
513 -0.007530604015672547 0.005403860438286383 -0.008653869362254912
552 -0.022301810120496583 -0.022408487678119295 0.008102371425414699
1357 -0.0010872735533389195 -0.0022627330358473067 0.0026394178248046554
377 0.01574541703951201 0.0194033211264212 -0.023499652715621325
768 0.014002436490489774 0.02242413985972125 0.003611271634124756
1326 -0.008490598977640953 0.0050796806244155146 -0.0008797313567125157
1281 0.004790269188721545 -0.007484434748231348 0.00914221470374646
898 -0.0037106503131798816 -0.0026152035164694293 0.00212804006760946
917 0.007296921335850432 -0.0006881390310740041 0.007672890426645577
916 0.004352108294760286 0.006707390400423846 0.0022643640609988844
1753 -0.0007125949778032536 -0.0027485752133601933 -0.0036314274382859887
918 0.0150510337339633 0.004155619529085964 -0.017929147583761844
1142 0.008804723480776913 -0.002048701914364042 -0.009887347125535302
1549 -0.004016762969374678 -0.001174656972293323 0.007768166490852168
1661 0.016324779470950172 0.004741053817126572 0.0033017889490409864
379 0.004970068010021383 -0.0032803229868940188 -0.004745631382896456
764 -0.007455943070809779 -0.013698089144177687 0.0225223430871051
90 0.007883652874592039 -0.007804847913241579 0.01622144264129926
1660 0.0045499435236194445 -0.0011752308283343557 0.004367811990896788
164 0.003413206298766836 -0.012792742776085284 0.020615877920540777
612 -0.012811630632186778 0.011936604468077257 -0.017024598643444647
1662 0.004236396978238171 0.015434995428635653 -0.012124454389965886
1132 0.0008925290771019141 0.0009498097191011278 -0.003793534672438224
1141 -0.0005129529076257298 0.0024396364068851504 -0.003522432230281163
1763 -0.01201277966611227 0.01644033914442454 -0.0023576967065324053
1754 -0.006089958215615334 -0.011853374684173936 -0.008066587913142614
1143 0.017787181564189593 -0.0027890779936492497 -0.009266172897134002
1594 0.005541827547467396 0.005490834100340082 0.0034012191941051083
89 -0.016239186493654592 -0.002982090740351057 -0.0011985514954048738
185 0.017275449672299156 -0.006292434574282851 0.011262267128333394
549 -0.012949291690093215 -0.012931786702654605 0.0017559448072365508
334 -0.0025737022600777924 0.00035618942607130733 0.004949208398444141
1352 0.017893748885613223 0.015322132209032353 0.002446857915706677
418 0.008894557187513998 -0.0002698156422192808 -0.004560910483019005
336 -0.002160890324254145 -0.0007529491179969048 0.001966944715383057
335 0.01842559791740582 -0.013223443087710446 0.006755377427833529
576 -0.01336255265696556 0.0026467544528725124 -0.012427878512430017
1338 -0.011062085819529957 -0.0014525896385432593 0.0033142871454824086
1058 0.01306891113895167 0.004677555998623925 0.016207595955405857
548 -0.009901562574931012 0.005936518973775568 0.009644081816045088
547 -0.0031066953926977476 -0.000570597975427802 -0.0006581727399913342
88 0.001489688145142393 -0.006274189634237085 -0.00534869022602653
257 -0.006680607013847028 0.002135752784517628 0.005469259618706908
420 0.01324355919046463 0.010072631478662806 -0.006867535754649264
165 -0.0010166150494320977 0.00486976877865806 0.009877248473993676
687 -0.00675012009480796 -0.019209413118327204 -0.0034639470021721147
103 0.0003873039975672708 -0.004394491666518887 0.002291962258260443
380 0.010119193542783417 -0.005265743731400304 -0.022579860870412027
1034 0.020331638757414627 0.016221963861233098 2.3355853919470943e-05
256 -0.0027494455341947116 0.0010889492779660918 0.0027466998734085196
664 0.005672009398127306 -0.006835823013967284 0.003697322504251828
611 0.006283260946305414 0.0036615946103049912 0.010288044816039102
382 0.008952014581094653 -0.0008080871233020515 0.003378156685932618
1595 -0.003012686000677632 0.009044371129703048 -0.008129902196948235
470 0.01007068157801606 -0.003073420946929399 -0.011911445731681328
163 -0.0028544716728000244 -0.0023743166855328015 -0.0032195494927056943
1597 -0.0015627842657070094 0.0033327073053684726 -0.0010764436225820513
381 0.009971422366632312 -0.012890642922834263 -0.00024056346148950731
686 0.017444263851304057 0.006312860254062294 0.0003297278728078888
384 0.02090721655894643 -0.006631785527100717 0.010498384108918294
383 0.002033115171902907 0.008942802143228169 0.01106347978453552
258 -0.00978487911305075 0.01181230761563558 0.005600485811948543
665 -0.016415009630220117 -0.018757944203614294 -0.0025219268980126892
685 -0.002140391446198166 -0.0006087394391232697 0.006419065915016585
1425 -0.021534950344692796 0.01782594610018515 -0.006075459610057564
469 0.006032341376530621 0.005274702027052619 -0.005809569097073855
1057 0.0022351945747703466 -0.005519206110243614 -0.0013966558682820982
471 -0.004451619398210585 -0.0029236095234795824 0.006244206854317803
1059 -0.008640852695426764 -0.008387303856794226 0.01996859717673832
1423 -0.0008155059706540013 3.225091546133427e-05 -0.0004842417235794894
1599 -0.00986930073849076 -0.011884218327773916 0.010377039080075146
1670 0.0009074789688957655 0.0048164328307375315 0.0019327110023985622
184 -0.004690765996325726 -0.002354038364515632 -0.0012356899558285002
765 0.004297114689898041 0.014495152669423788 0.003564418118812843
105 -0.010283154869191471 0.003074030536000934 0.004561489347450057
610 -0.002025431067299976 0.003781029500932243 -0.0022454918445564045
1336 -0.005206456607814702 0.00866310242448847 0.006574877963151635
1134 -0.01643068607124215 0.021111980076542376 0.021107895351546408
666 0.007672281830849202 -0.011814040712659008 -0.017312591191182013
1341 -0.011379921161748971 0.0177767119381174 0.008145875881416314
11 -0.013475560597759525 0.0026811035829849205 0.005828530754859858
1770 0.0071331864871330575 -0.007530996302252773 -0.017183734140618856
269 -0.02783945778672311 -0.00586106020372181 -0.007459925410437203
1139 0.008569507502471898 0.010599220782672726 -0.0053533649156571475
704 0.0007207381016252705 -0.009459236847627114 0.010298105848012868
975 -0.0006350270978036941 0.018444119023687207 0.004699345307942101
306 0.00505998974382986 0.0012134956282168895 -0.009543652669787997
259 0.001063074909239244 -0.0011391118951115768 -0.0017730061255532845
270 0.027517186454828098 0.0008210815446570635 0.01616825743715121
97 0.001390115881216326 0.0008004719576535763 -0.003360623378366723
1347 -0.006320918544853678 -0.0022125112512594806 -0.0014159335668098673
268 0.004721021317513841 0.002050213070025361 0.0012635070688003986
1573 0.004987660107696816 -1.3608306371034976e-05 0.0023833846665211535
808 -0.003181370033289722 -0.0014605180827470482 -0.006999413554487703
98 0.01547732695395106 -0.021350275700910845 0.008212102228899558
997 -0.0014025533179808547 0.005720249909448327 0.00048505390525042095
998 -0.02011258089003516 0.01282002469811119 -0.003234722875798573
809 -0.004586316459023057 6.657178038759727e-05 -0.006562265927444773
1091 0.00834332897562828 0.004910138618783603 0.011203958243405681
260 0.006614582245873087 -0.0034010002516489217 0.0061819674131778435
973 -0.0002659262448492524 -0.002376122467035708 0.007668432861667113
810 -0.002070198945206608 -0.0013895618720955367 -0.008288154566684039
703 -0.007495310833780382 0.005600669331754308 -0.0016161869102161203
396 0.009254521102310136 -0.008312555022752827 0.002692470984303192
999 0.014095096748609915 -0.011486226276680828 -0.025132836142075225
261 -0.007886672641162995 0.004609750793435505 0.0010452567961113048
798 0.01034337106840177 -0.02364545925804769 0.018553228774854276
1570 -0.00039036764876852455 -0.001714627423639939 0.0007175709925595952
1025 -0.0015058939545137533 0.00023987440397412092 0.0038915078250078314
99 -0.009693863567209398 -0.00255810767770266 0.01513725012399543
149 0.011050215613627495 0.013969065884400542 0.01209879329113565
150 0.0048510512378879735 -0.021924473700435255 -0.0006031716703518009
1598 -0.003955627857139168 0.0048860893170938465 -0.01262719951611728
394 0.004797725542124351 -0.007614180795800927 -0.002107893302719039
974 0.010940653819760518 -0.008118271054783258 0.005552494047899379
203 0.011983235234128252 -0.009908036263507147 -0.0014585487929143176
1092 -0.009352068443349192 -0.0005155581927327842 -0.010070123985772473
148 -0.005064370233305246 -0.002082369903870813 0.0023296933758844285
796 0.0012476959058625905 -0.00021017308331208157 0.0004889287233618411
797 0.023115696787210465 0.005327106157041375 -0.021100462479461873
1551 -0.01627434915915584 -0.002143760597818149 -0.0042242912678714965
562 0.003991489130936605 -0.0032701217627257567 -0.0023976009644253726
1090 -0.002864754911732863 0.0007207682281760424 -0.0029875065126846556
564 -0.0004290157145350908 -0.008643241810107892 0.003654128541492611
834 0.010170349319039944 -0.000671236972902716 0.0023038431371037982
1733 0.0033209478877724973 -0.0021564481794875473 0.028118985787881023
1046 -0.004858578521423281 0.010225275253910763 -0.003735768207759203
304 -0.00451354673242058 0.0032701481279768965 -0.0004637716774495243
1117 -0.006937760732204467 -0.005555945156096046 -0.004717582533657106
1047 -0.0051596657977378306 0.00017523932328959455 0.005255347738718711
1045 -0.004548225710462555 -0.0010347597441869593 0.0030198604660258877
1575 0.020227601241943578 0.001708822238546868 0.013863864441873493
1571 0.006673987300744332 -0.0027010707649766322 -0.004714648868136494
395 0.009811992788843628 0.0017841599274113354 -0.00854400540831547
329 -0.007082717155927811 -0.0031904246174248065 0.001151514737857563
833 -0.010196310948858065 0.001707951153470088 0.0013204742875850797
305 0.005145712350785601 0.0064707881189067515 0.005284305917541958
880 -0.005360976262246012 -0.006872782446971406 0.00014088634342674075
1574 -0.003329270648683635 -0.016036306282360958 0.005668525152961171
328 -0.002279869660590081 -0.005051234583473379 0.0017319679463543146
330 0.01667026068199974 0.016038785928382975 0.0022047746639653845
1026 0.013032023154596076 -0.006553331982286061 -0.010808557945442897
563 0.0027396495967492553 -0.00486127391277369 -0.006544691050218111
881 0.0011573230107322528 -0.005656711405175216 -0.0012751168836896364
832 -0.0010535912535581404 0.004542948161340527 0.0031542120140742188
1024 0.002189808121429159 0.00019162457510306323 -0.0021715145142178005
882 -0.008855525455827176 -0.0006791063393918539 0.002260211487234513
1118 0.0065446129682475125 0.011453497730653335 0.013624999552973315
1572 -0.005666874989154964 -0.003281172396216048 -0.005453038361140885
1346 -0.0015701281197366007 -0.005573755736341429 0.003295855600086021
1119 -0.026749937229949415 0.002253716284507374 -0.009503245208168002
367 0.0006692616530191045 0.004098688960264618 0.0008811153675987728
1550 -0.030059536583899028 0.00015480628166594242 -0.0034670614019544624
369 0.008687651383900258 0.01502284508603941 -0.02458961016531209
1268 0.005896002191371107 0.008156180937266898 0.01123300266620062
1267 -0.0030135808822161986 0.0028219281370386352 0.0024103128961309307
24 0.004783162815545692 0.02185660075450371 -0.03256887942175187
1269 0.003256038174108744 0.0003173555097944601 0.00496760234907964
545 0.0027906665634505963 -0.006359634758774488 -0.012577890800725652
544 -0.0004409684471719141 0.004881231400012553 -0.0022911527710694018
546 -0.005209820914520441 0.01853405452328158 0.027085876746719865
1568 -0.008572092382314841 0.004044983122556513 -0.0025710053505930944
23 -0.013487782487152792 -0.002113988270830252 -0.019975774196980718
22 0.0014368722444546675 8.46547813010831e-05 -1.0339098838456012e-05
618 0.0039529812366957354 -0.0036927905760979537 0.00572633974468455
1384 0.0012267763322116724 0.004803046337300711 -0.002674839816142239
1386 0.0008408284270862617 0.004932520060967562 0.009320778290951277
1008 -0.00501898650884623 -0.04048284225451137 0.0052265778308919365
1385 -0.007939362617687554 0.014431016233047426 -0.01073818105674347
1366 -0.001026905645222307 0.002944322512401562 0.009064456862824425
434 0.014341950196987398 -0.0022228636000139208 -0.0010519904790441735
583 0.0022179490548814317 0.00040087798235201403 -0.0012661437805848907
1397 -0.01306044321841528 0.005814030211974266 -0.0006242729456390373
45 0.018999752341399875 -0.0003342839044475045 -0.0033606386101342005
435 0.001146450688692006 -0.005484261650943878 0.0012333888096734231
295 0.0015546596904719289 -0.0016017414793491349 -0.0017961355136991485
296 -0.01786069724608374 0.008380158223348477 0.003279151246927379
1463 0.00034192746838490834 0.00089310364609993 0.0004345440380106723
951 0.006711197792721028 0.002286747549786382 0.008972205808330812
297 -0.01568132261644808 0.0004529722732630063 0.010868608281541374
1345 -0.003117802317643484 -0.0030241814824276997 0.0014725393339577338
949 -0.0031525667945149763 -0.0009795292803934975 0.0024242849378859218
663 -0.0009885588388393134 -0.00047537137014219363 0.0021983884179821007
713 0.007530591869930347 -0.0009034690025257193 0.013710711884554099
174 0.019492225321558053 -0.007103375648808776 0.003944057829745135
714 -0.006244396274844481 0.0004711884957595532 0.0042153961538993505
712 -0.00474113503491629 0.004539873021604409 0.0008594209239333496
43 0.005882130265747109 -0.0016000941958203012 0.006705071451059746
1274 -0.004496626056073213 0.007531192726029338 0.004780817733381153
1436 0.007236023834896484 0.009502082817491776 -0.01630337074270106
284 -0.005009902897236871 -0.007508111257679361 0.0033478563272053884
1080 0.010742137335726753 0.0037761368401775268 0.0009556940804286001
672 -0.014628377891624413 0.002291611450281838 0.008145409655857768
1224 0.0059104583506165214 0.005806746959806457 -0.02060462724188545
1016 0.013779051143266354 -0.01652138152876932 -0.004857427116023885
285 -0.005275241753309084 0.007008984694542885 -0.004585678172053652
1569 0.004718072155742615 -0.0005602254557434289 0.007658347214529841
661 0.007366043209549278 0.0037987959996374113 -0.000667319391563141
81 -0.0027119052610433234 -0.000528908554512698 0.0005278470410755179
1113 0.0023293786825721572 -0.004833224002937099 0.012787941530479189
1437 -0.018778213047111025 -0.014702199406451372 0.023233851443445207
1273 0.009455738980727655 -5.167637373564905e-05 0.0007016221748968447
1567 -0.0004416627900758945 0.0004706184050632091 0.003194062204007615
433 0.0028407640215726733 -0.004727718634523607 0.0021921673931584343
283 -0.007091667574120196 0.001586158981399679 0.002272725629078246
80 -0.0030956886849092657 -0.015413635222724079 -0.013636427943297131
1222 0.0035735352222474436 0.0009484293776789555 -0.0026076152479228803
79 0.00416428523702179 0.0007586678978979597 0.00421539053512644
1111 0.007016195660377912 -0.0005210395305340143 -0.002401416310840665
368 -0.0070077921483820945 -0.009426734317349191 0.026217337853021654
662 -0.017884713125133445 -0.00910595180422359 0.008166841974270925
1223 0.004720253578499409 -0.01524328303788342 0.007111815725094866
1079 0.005454013734897831 0.006292375575767882 0.0007392233256516512
1435 -0.0030487911584908046 1.0170953880191735e-05 0.0035213296392377974
616 0.005003042938408855 -0.004056075863876843 -0.003153444672397309
617 -0.0037969835431553613 -0.0048864892479086085 -0.006850319519925269
44 0.005036855919516621 -0.03574407030689975 0.009967425897463824
1112 0.022888792422236272 -0.0035732480199507496 -0.0037526484250047375
585 0.021070903582738124 -0.003279136266179623 -0.03557650346647265
202 -0.0016312930888462602 -0.005004261326432679 -0.003387614129469866
1124 -0.005880240880959564 -0.008988707279727465 0.009654513310314623
116 -0.03728566009987269 -0.00647376377648806 -0.010601715462322157
495 0.0026920995688241287 -0.01656608236237356 -0.012621454166701037
241 -0.0008379161817292912 -0.004239890728952694 0.0009326677206769598
1543 0.004048678450189537 -0.0026723620101196 -0.00035378748391886407
1545 0.01112721104001142 -0.0051113300560996595 0.007221417672119392
115 0.004986029673495166 0.0013155255506056508 -0.0007914054772128414
1280 -0.00033689351997680147 -0.0069761213279547615 0.0013775092074322028
117 0.012426316258911026 0.005852323458309744 0.00021211069520116934
139 0.0003862441590987335 0.0023001941228914377 0.001176154554796677
243 -0.01714785511456664 -0.0007783426434995361 0.02222414559942172
478 0.005943728329753235 0.0024567092337592846 -0.0014260338148973728
480 0.0038418781825653265 -0.0024509037141335296 0.006482836808520882
1544 -0.004197674924267843 -0.00029372274242571623 -0.007991625074319213
1170 -0.001431132188477897 0.0015714321812486662 0.01696626069226504
1186 0.004961686680653234 -0.0006772901821322365 -0.0014854301982801489
1381 -0.0002807439373491154 0.0020992973147536966 0.0022417445829748294
1404 -0.0015338640512418012 -0.0013795470694686438 -0.001080573022428192
438 -0.005643054029329048 0.023243453098155387 0.0030592449408730015
472 -0.0018530196461829724 0.0009028055566868337 -0.0017349563686981304
1302 0.002398275680704365 -0.0014087801972378366 -0.0003778782513405895
1188 0.008630441839914705 -0.015309637411948844 0.01870183604728867
1403 0.005769445213141726 -0.006317069746053506 0.0002389884844900055
1382 -0.008974679137380896 0.004409962712508823 -0.004571323737583768
437 -0.00027326239598722253 0.0011133177672268443 -6.514143377613503e-05
1445 0.0022764718929160787 0.00838696640886012 0.016337544375374855
1466 -0.0034637157923503056 -0.0006543430219065139 -0.009093941910064868
100 0.004060330053521962 0.001578979735679785 -0.0012547977933348717
1270 0.0015234216298449022 0.0022381021376823053 -0.005731880031701046
1395 0.007997582252769725 0.008590571128384926 -0.0027881487003127573
436 0.0017036373679893172 0.004335186820679192 0.0010317404951299695
1639 -0.001848752374665782 -0.004728071016168016 0.004369560736335799
102 0.0089536358985106 0.004235882435887068 0.012190086212243443
1215 -0.0003942240756138664 0.0018564765612971324 -0.0022568820595205755
1402 0.0012564429183383647 -0.002529836064929608 -0.00012178294542775564
473 0.013228014044995767 0.006957785729975735 0.014144047195701448
1393 0.007515796581423511 -0.00246765856262338 1.1343056420037656e-05
479 -0.01693513223939379 0.02743097865821073 0.0011608067522446684
1277 0.012886116466118735 0.013335315551994784 -0.0005240444056434244
891 0.012313473941979649 0.023142787020083724 -0.0049733915534874865
141 -0.0017151427369434607 0.016500251607937857 0.024108445796989935
717 -0.006401460390365767 0.0034408993382202026 -0.003384612674483104
892 -0.0038624018123724273 0.007350536305003157 -0.0005189726079969849
1169 0.0017165668803866383 -0.005111719233280574 -0.02321854406960769
1694 0.0031128083079267396 -0.006098941769693829 0.01185883055053311
1221 0.007361526220621117 0.009961507572658065 -0.0025403279571026074
76 -0.0037001983472870156 0.003833292472145864 -0.006222522403603117
101 0.0036529734013958613 0.01881337539453916 -0.003888247467718765
1187 0.020262750612283914 0.0046168128824242175 -0.011746149741840234
1272 -0.007282278229210209 -0.005763723218572849 0.015248042345152956
1271 0.00048565055075438726 0.009961905967872938 -0.01729204140882749
877 -0.0011359290191203417 -0.0018975018702016666 0.0012071726958264566
1278 0.001862150165573229 -0.008486182896758534 0.006255321892585182
227 -0.005462180956358846 -0.020441068259067736 -0.006514857898270523
900 -0.004798495159851878 -0.022981511434468496 -0.014555071163352517
715 -0.004141446566125106 -0.006029298084116834 0.0007665255463632911
1205 -0.008480432761187264 0.0020820676129556493 -0.007519247176031766
78 -0.001972866476812936 -0.013695234150344123 -0.0045892964998724695
230 -0.004195214720431477 -0.02092816621316041 0.014022528624052474
1168 -0.0005635371629526231 0.0007297565993327462 -0.006704575033346367
1693 0.0013946310534707425 0.0060522282328972585 -0.007273403970647433
716 -0.010583368217372588 -0.0069374853451935345 -0.002368818688393835
1276 0.005698773950820307 0.007205509630965743 -0.00020363720274767195
229 0.007643346952363006 0.0009724858126867218 9.15478291721037e-05
231 -0.036448247987418664 0.0023206789442999924 -0.004710452022132763
1383 -0.0021032151003347777 -0.008582589838887086 0.004464445304883895
893 -0.0017638250846131027 0.004248318616561754 0.005822654691948132
140 0.005678856935487345 -0.026856384436843673 -0.000420935659962496
1010 -0.005458939944318352 -0.00788540206995998 0.002144291658505447
351 0.019585721577097065 0.0026715467946685553 0.006613392969847678
1465 0.00026771239156092255 0.003447478350079213 0.001070474800560341
1467 -0.01818421469637743 -0.006562236450940334 -0.018758864213248468
211 0.004536565382708183 -0.0010992539107238213 -0.0024863728734108533
1648 -0.0002936519356256886 0.002254774072209527 -0.008065278271189271
535 -0.004680564195945473 0.004517980246150494 0.0022837300009298494
740 -0.012664172401496811 -3.843461003606581e-05 -0.003225493768396168
1088 -0.004477554203020168 -0.0053253040917539485 -0.0004302663613793621
581 0.00048499251972981453 -0.014029405649524282 -0.0437474843093553
582 0.01947508562032941 0.0009940646936755619 0.009382801502295441
580 0.00044801237467418227 0.00528658579545146 0.004938415782007682
1125 0.009560160017809901 -0.0010582868966243293 0.019191508036519894
1087 -0.00419961393041413 -0.001913429118255509 0.004359954583168458
409 -0.0004379165293291845 0.000893507542842806 0.001210621967126059
410 0.0027373614137413595 -0.006656052693531006 -0.008888626787899204
213 -0.01275910700472956 -0.010162084767442235 0.012666642048970434
1658 0.01475210390360011 0.004704820120812196 0.000860913138599362
1608 0.006874855642946919 0.009158548176791497 -0.025393327311640585
1720 0.004750652891174029 0.0063072084287141075 -0.005527746258209667
1721 -0.011213107991389741 0.005350531566891623 -0.0017097293685028935
1722 0.01795924126220685 0.011857697529695128 0.0031168869451315925
1677 -0.005218618292601198 -0.004614239640481067 -0.0038222590293356833
1657 0.0011830019175854774 0.0034655068829799467 -0.003398029589994952
536 -0.016683298802904242 -0.0037469915964657924 0.013229888557450728
722 0.003945701414087486 -0.01519750135260124 0.002181613293800615
169 -0.002357486923340448 0.002693153209287152 7.785802537691683e-05
760 0.000823926178307328 0.0009756816991959619 0.006458961686723863
1022 0.0008760288216838624 -0.010001207430265483 0.012273887383181442
1659 1.0311942197805907e-05 -0.005467470751307196 -0.007074740250804606
1607 -0.008652888080668292 0.013015622561252263 0.00046847478488993096
212 -0.013726910794819094 -0.017831798695471576 -0.01223936070046443
170 -0.0053006882237026645 0.026887318214240844 -0.011294183696349849
1023 0.0010409672588969408 0.00992916287043833 -0.01420962278468693
762 0.003754962085382886 0.0021542519888894814 0.014456489855368529
1021 0.0012685641822587617 -0.0009235244902641911 0.002076102766031189
642 0.018322636912838825 -0.010333888560206382 -0.009059332616178587
171 -0.0010961018711064374 -0.013341393573998245 -0.0030998350389824176
1649 -0.0014620888786016548 -0.016292630933626102 0.00988478016461391
1472 -0.011766388246497844 0.0050430733299717655 -0.003850598411885405
763 0.0019774915638035876 0.0007543168559059193 0.0023763644527799014
1089 -0.004453106563488572 0.0017505118138555881 0.010692821915240302
496 -0.008761367465434215 -0.0025845108926962836 -0.002349369787567236
1547 0.018154708469177234 -0.018139672638636178 0.007753738444244445
1548 -0.00506811217784622 -0.012884702573415088 0.000575533376982714
1219 -0.007586860548233026 0.002929911756710439 -0.005705563729834246
1471 0.0036481228700313813 -0.0018518923259120297 -0.0005168967669888156
1675 3.7117103872518155e-05 0.0020472472456258195 -0.005161205248834222
1546 0.004636383744453038 -0.002707440798947485 -0.004992791101963721
1121 0.008857809100655818 -0.011258114317826296 -0.016192112073441834
1220 0.007533469043978162 -0.00020209038878436507 -0.007353542248616337
161 0.010090885377773641 0.003820944459254575 -0.01477586095188144
721 -0.0010205050748689022 -0.0034050806369366276 -0.0010021614956109664
1606 -0.005868072112696543 -0.004414258600881205 -0.003610681531604924
160 0.003395924814940171 0.003048164684285075 0.002051104451474386
65 0.007758058520013427 0.00472720265577848 0.0006638503462403838
637 -0.005250608418176662 0.0006978786962333454 -0.0031195057178773
1415 0.023421536121068256 0.0007812747505133861 -0.012321930433739898
537 -0.00945036834367528 0.0029267309733120718 0.004477575524166485
639 -0.004373897699347748 -0.0026672731142588393 -5.8009394444154605e-05
1122 0.00975237994079823 0.0025773647614952965 0.0047802294846446365
1120 0.002226040259976282 0.005838495491735059 -0.0013227839937717898
749 0.004441288454973125 0.0017016152972746817 0.01177645398187568
162 0.0010901777527421983 0.009744594710913714 -0.01146773608579379
723 0.001449164040317141 0.0026306801709286916 0.004048886781534636
638 0.020865334578746477 -0.004465261833390785 0.002587311008848395
1450 0.011466907200298816 -0.0012743977503589085 -0.0005498046382702836
1029 -0.0047032451686058385 -0.0030647436070040607 0.0025064134938275
996 -0.00578994335214679 -0.0005368170401288668 -0.0007119344070388501
1424 0.005901298012491011 -0.0009237492002574214 -0.004137514162275142
1123 0.005424658397556202 -0.006651587853748202 -0.0026896770205611592
242 -0.008780427035670248 -0.0065087881982749595 0.01129944451987048
1475 0.011980685546962157 0.009246754075418095 0.03150514068832613
1676 0.009150691070763174 -0.0008770588088729124 -0.006003607805162193
1394 0.0013850412055020985 -0.008330424148628465 -0.007456186565920307
1452 0.006292830960091128 0.0011110757959408753 0.0032459341334353615
411 -0.004994803660940193 -0.006292924151638068 0.010448748574732313
1596 0.000960175144681418 -0.009561902211111879 0.014850941925236293
761 0.005122029315165691 0.0023845909085108107 -0.02608488952389886
1004 0.03588469023900139 -0.02072224712049235 -0.020389642506819287
1600 0.003755575173702994 -0.0015102071923433667 0.00022770107029505257
626 -0.010843920770193837 0.008605145709173206 -0.011370008485530022
625 -0.0025655044110504833 0.003180458246662214 -0.0005072165266864651
1601 0.006623724905008135 -0.00010597501311162995 0.0031489461653235705
1449 0.017204868103964377 -0.03556348943618383 0.004928055205737598
1447 -0.002697263639446666 -0.00042377420557691283 0.003514571595287098
1448 -0.015871897491129838 0.00714589491218857 -0.003100773234716791
815 -0.014635082729921516 0.01311447991888417 0.004839741879474896
571 0.0011520328499085729 0.00047631031162755094 -0.009323151434038767
573 0.022357741078639724 0.00517195567421363 0.004319790824575502
572 0.010532305626039098 -0.005901473945612061 -0.00622872741403025
641 -0.009986514490414414 0.005043000863190193 -0.01773497564605076
1005 0.00531144936243085 0.0021228639008877893 0.002803610602769895
640 0.0002599631942253758 -0.0018519747242122444 -0.0043496590061261175
1647 0.0025305918540654343 -0.00525803945829305 0.00011464649063271216
1602 0.004349114391707855 0.004571525127975708 -0.0038657069380560404
627 0.009877487824206622 0.00965650507451698 -0.00016104496575786165
109 0.0057175181365337335 -0.001893063290925112 -0.0036805895604257203
110 0.007634114361859576 0.010100005868545599 -0.008839811413941918
1730 -0.012119366764824741 -0.0071839430667513665 7.760893155013696e-05
1371 -0.004156935911006685 0.0009661158906158497 0.010002101573497738
1343 -0.006543831888495579 -0.009242472757891715 0.006294875929298602
1729 -0.0036606596335301018 -0.004075056343119524 -0.0030944661970746896
1027 0.003565263232653751 -0.001473412435374313 0.001544035099661732
1777 -0.0016837488125741628 -0.004016151244098917 -0.0011065047470340652
568 0.0047590296011502395 -0.0009661783150630124 -0.009463260868590125
111 0.005655360674478771 -0.003924540340007659 0.0040855657497988855
995 -0.030872396803928632 -0.0063387169933824036 0.008291886461144217
1257 -0.001461402039630927 0.014838541919931047 -0.0005322744149212157
1003 -0.000511708952017144 -0.0006096645002939288 0.00029600265859539276
1441 0.0010428891696741464 0.002948291745413856 -0.00216240685934675
1342 0.009775607181879638 0.005676937412949305 0.0012239744763538692
1443 0.007833647534603534 0.009209319948584514 -0.009145209105036158
624 0.0026481138978676306 -0.007648377889433666 -0.004514189267772025
1153 3.357875418764049e-05 -0.008746726471758781 0.0031204908418535917
1155 -0.004707198481072432 -0.01121579988645859 0.0033045089303558595
1779 0.0008656653579558103 -0.005288829997647649 -0.005930396253172753
1778 -0.04527107601056435 0.001777095463586709 -0.001977542411133633
1028 0.0038716230714156597 0.0013350967582387546 0.008545442242215767
622 -0.0021000418210942043 0.007334496400411348 -0.0026746128670147367
623 -0.004844594355635589 -0.0043967352335444595 0.005476722752828836
1461 0.018130770515206975 0.0056311007733632935 0.009039581836192016
1416 -0.008479283399146487 0.0023841112821970365 0.007262970471668951
1344 0.017172940662710526 0.012567289528095047 0.006614616201093166
460 -0.0018099757905872265 -7.222966139825561e-05 0.0036270917477643906
994 -0.0023626623263988404 -0.004284398980879961 -0.002762899390143366
1654 0.0005760631897287151 0.0044683491746195245 0.004941692502422949
462 0.006706165030889968 0.014388935423305332 -0.01580650383331375
255 -0.0007886328031609612 -0.010741912711387731 0.00022526323552463713
1731 0.015519794985703267 -0.009240427269531963 0.0005780505913194493
156 0.007800877320952577 0.02831828881374307 -0.0021649409697612806
607 0.0005869888563203406 0.004209394182827871 -0.0008655116775577046
154 -0.004814280811791913 -0.0014734184004487332 -0.00014846022612720366
282 0.013545878356744376 0.016152838432365698 -0.00882387017673629
1053 0.0055795428494790885 -0.008054910421319342 0.003336284941093449
615 0.014899706723231784 -0.0018063565416206232 -0.006953957483580589
281 -0.019834587069639247 -0.014379815239516366 -0.0003441388129454575
1154 0.0018871707687611156 -0.00638079542769905 -0.009355725691139986
1414 -0.006720282163116093 0.002118277031334354 -0.004747455970885601
1473 0.0011692759361023467 -0.013497745377415264 0.0024988453687154574
1655 -0.008141269485667171 -0.025556351681427614 -0.006306267724867089
1051 0.0032394780317037213 -0.0005415238275349261 0.003542784790916862
1442 0.010696361316118903 -0.01997303549057683 -0.005962009811097859
1656 0.004003430631496106 -0.0006991961008536887 -0.007647277855091515
280 -0.00101918387864445 -0.004765918603699348 -0.0011961617608073542
155 -0.009512536980673131 -0.012272539107252303 0.004442471378136404
362 -0.023783534042799225 -0.021432516544723345 0.010591854120254209
609 0.0024229287875589707 0.0020322293466337187 -0.003956732737359054
814 -0.0005413875143447084 -0.001432316514403556 -0.006688174568155712
614 -0.006693831099481988 -0.01209985941728716 -0.02651118988247756
569 0.004235276232766606 -0.009534116281215725 -0.011090028962352175
363 0.008418018386456413 -0.03690684196758431 -0.009126768950974985
570 0.0006940103802333725 0.011362251534946992 -0.013841150126276588
361 -0.0023244486132377707 -0.0028087383084624534 0.0014003967431729881
529 0.00676537835496462 0.002303543787916468 -0.0006252671222567268
746 0.002705978856781092 -0.0011178857475030034 0.007709411944224674
1149 -0.02650425640284981 0.025839089752704523 -0.024853800925415025
1052 -0.004054012144098092 0.012084018239079229 0.01588745297399697
64 0.004317304302077092 0.0014991638007349239 0.0013513848107374311
1589 -0.002224593110392433 -0.008770828066838453 0.01439608378838889
1401 0.004620311200653957 -0.004278910953748892 0.0023437795828175046
1400 -0.011247759055626127 -0.003150050239906577 -0.004907151509175937
40 0.0032417310008151733 0.0005571987158875693 0.0036607131158527266
120 -0.004706548838500353 -0.012707480197798783 -0.015600767439830297
31 0.0023089500057158012 -0.0006834248788645565 -0.0019769541453180176
42 0.011715997285906485 0.014460183630974179 0.006277332507183854
118 -0.0036348848758300575 -0.009025812819675074 0.0027705512296968935
33 0.009315580225192967 0.0034858745581387933 0.01392486485589617
32 0.010379821794739032 -0.02274321353155506 0.0007039138742403546
41 0.002422606858571127 -0.0023142608035120736 -0.011092566400915552
504 -0.004912974973221704 0.009820424719283608 0.004173941769704412
1171 -0.0017836301473744555 0.0012677136303393265 0.011535087704011668
332 -0.005341224067812479 -0.012198153543369727 0.0046139706536707376
333 0.011998253389768386 0.008107687487585115 -0.007458010421599132
331 0.004073385074852854 0.004339079934902047 -0.003966272469168582
745 -0.001344472636809307 -0.0020824708295614763 0.0027681826492501707
566 -0.0014679500965242293 0.008161476449165306 -0.0008318096423645357
1588 0.0027082685061948354 -0.0012740815683350227 0.00859034032734757
1399 0.0004462159139886401 -0.0017299939253032528 -0.002678676790105012
172 0.0014665074108861336 0.0031679596986481004 0.002156278329078356
1590 0.004793922410115672 0.012748747990460814 0.0023930263632003707
530 0.006265410579011043 0.008691551580243683 0.003627146870009206
502 -0.004803620307243731 0.008878572025554362 0.006168966463687218
903 -0.0025399433043865488 -0.014137681051586125 -0.002928571111745083
1301 -0.0028050946154045565 -0.005362281196993868 -0.0018307700440502806
565 -0.0007998856915575522 0.0008028795190536286 -0.00506727460821144
902 -0.008312603553442974 -0.02801722172807705 -0.005438447766877145
519 -0.004337985225870202 -0.009999654740680519 0.004149342560344768
567 -0.003245686272981559 0.0018970199106390397 -0.012854185692283089
1711 -0.0013170406592099577 -0.0011501689833522564 -0.0007366000958753326
901 0.0039007452431929182 0.004967174494025479 -0.006006339965483587
531 0.008515686717676916 -0.03192218540065771 -0.021603808091354128
119 0.0003303871680748179 0.011844128503005511 -0.03692773396062329
29 0.026314041263998438 -0.012872390237199646 0.02108893992924341
173 0.011065633000408621 0.0005592784005355959 0.01910418339389662
1017 0.019752712905292402 -0.011280721469260901 -0.013621388141433245
1459 0.0034610466935259174 -0.00196346606224264 0.0003524977571426911
770 -0.0014125689511701282 0.0034737894789422254 0.008649294717724496
769 0.002357587100551898 -0.002608099301007681 -0.0005824800873495506
503 -0.01899258325652276 0.02356070716302576 -0.00034668802301690354
1460 -0.006014949930700868 -0.006803162295735102 -0.004203121716516779
1377 0.008768897518850585 -0.00145852501311774 -0.002377180688410595
1740 -0.012354586837949552 0.007842045672924689 0.01723699184732874
592 -0.008476020603124206 0.0012734471954861167 -0.0018437362844039259
737 0.0045698079159173415 0.005836779641463055 -0.003646645483328595
847 -0.0028535849044457914 -0.0036946030451932028 -0.00471714747442553
1204 -0.00028641908282776873 -0.0018086335144521662 -0.00031108896387333493
1760 0.010343867355895164 0.00461445946554406 -0.00628181325506215
1376 -0.009580480026551706 -0.010389376015806449 0.012246326755716404
28 0.005499535554062184 -0.001559145233466374 0.004059187455871603
1173 0.0018542561680427697 0.009637457140100034 -0.010355790107106176
1078 -0.00011703992244249857 0.0012850365438795155 -0.002147635088896219
1761 -0.002386236837564975 -0.005361682852447326 0.007222868554988097
474 -0.02453887000638686 0.0031744924370617593 -0.004840071640046011
112 -0.0007617356140044181 -0.0011438102414236802 -0.00010824880913216684
350 0.025743352178873916 0.02095249617783256 -0.011675311826975676
849 -0.002489602391656098 0.017015800179186455 -0.009285649521200347
1739 0.005332231119719656 -0.018681081781555146 -0.0023696835301439613
114 0.014859543397965667 -0.0006060184440226379 0.00042451254372352903
848 -0.005874611789656673 -0.003388187994172844 -0.029814665914483077
1712 -0.004991285268629308 -0.0016435614657819685 -0.011049308757922987
349 -0.0021391737373839346 0.0032682144457142816 -0.00443346633244164
1738 -0.0016334921010787058 -0.0027958168288203153 0.000553058107101511
1759 0.00021507414403775817 -0.0028916478750623874 0.004367686876150883
30 0.019934589441839033 -0.027738149773131552 -0.009988791378795995
1015 -8.217843151876817e-05 -0.0045684302131633785 -0.003802230369572153
1375 0.008166466262327268 -0.004287513637572181 -0.00022782591120303278
608 -0.01476169004920778 0.005106541223704896 -0.0030205582613112214
1713 -0.00020521577601875446 0.005164915397182123 -0.007161911317473453
602 0.006173873030721906 0.005339005044288472 0.007619055346238829
603 0.00630230218146571 0.005165870300226827 -0.0015162353109527973
771 -0.0030016749926698723 -0.015169415223264838 -0.0021255331156313693
1255 -0.0023315060357103966 -0.0018556437656223562 0.0018103062971371617
747 0.009778070427940409 -0.006637185297906436 0.008978451799849218
517 0.0015058885101209825 -0.0029918699840625527 0.0010082002231987682
1206 -0.004065634174943487 -0.0016061018788457023 0.0017700051462046533
594 0.003478590560117322 -0.01266762655509714 -0.008437333933841802
691 0.010981671623123386 0.0005649061650985455 -0.002940949220132922
968 0.008075538481333185 0.009642482810651182 0.003935044310694745
1126 0.0034486416482315935 0.007603984081611138 -0.0067553739176683635
209 0.013677570856289872 0.0008318907211523141 -0.01097592909909284
812 -0.01591737475960518 -0.004424861221938645 0.011387846212120082
1641 -0.005846092967068508 0.00486035836025475 0.006733563222712051
692 0.03332687504361834 -0.0022581905525998077 0.004663786891646714
1266 -0.006105748376759335 -0.010208655233485424 0.015479501644073034
1583 -0.00219549465411049 0.03719294890676668 0.006685031318955651
1264 -0.0006119135401870323 0.0033129420412948336 0.006408462374822359
1640 0.0014227015732716636 -0.022310686384287928 -0.006886858646704929
1683 -0.014061142015365978 0.0006671410142816612 -0.0032233106158924287
1682 -0.008826201337905489 6.025279362888176e-05 0.0013672331386853677
1681 -0.007209110741322171 0.005355837805952248 0.00023906664790257086
1014 -0.00481697794349306 0.019860256548312166 -0.0024032710641068824
1128 -0.0024359587327758693 -0.007746107702912592 -0.0017497564191851205
1127 -0.009964702144980839 -0.0020100685068004344 -0.0038976996416414736
944 0.003089696365502691 -0.0010092050052076835 0.006807072300726089
735 -0.004249515956818554 0.005894223658816692 0.005372226704622553
945 -0.00548062150248887 0.006590965920982364 0.005227396585452485
1227 -0.004004627170773517 -0.01128438465315787 -0.011857188449009497
1533 -0.0012786106086200466 -0.009643705903407185 0.003566917221030891
943 -0.004078700595883651 -0.003943923244915894 0.003031822389578223
682 0.004941977881585537 0.007449308617794939 0.0008959655872374215
1560 -0.01610944913745477 -0.006510735422829774 0.009552398412026803
225 -0.00837145128974499 0.004944949721214672 -0.010962279525731887
754 -0.008291450943029889 -0.00032223204242553497 -0.0033546693879301496
733 0.003006864078799023 -0.005770906868429725 -0.004974922795198406
683 0.010392302771571191 0.01179140664734547 -0.011273736666735711
684 0.007048815818991775 0.0011192489421706288 -0.007015633122989318
1203 -0.007955923165938834 0.011417206767735655 -0.007583035933419445
293 0.01275468870520206 -0.004121053046421983 -0.002733316636086273
1559 0.013645704625252173 -0.010388681904958372 -0.0010513173982632164
1532 -0.005831659612160418 0.011269134861209418 0.0036355220308261185
734 -0.02107185567569585 0.020667864113187256 0.0014639734981934064
693 0.0046242283900178914 0.007675872968071925 -0.00776217737591616
527 -0.01642224155214275 -0.02568325936921786 -0.003437622039045728
1240 0.003037597482619549 -0.0023386923460106115 -0.008927870644226813
755 -0.010844601986068843 -0.0003097157915468642 -0.0037971649654337998
1359 0.014180122835130485 -0.0053300110788091154 0.012490936590687675
1230 0.011918692182634787 0.006453939461890159 -0.0021425387330873706
405 -0.002849724512892121 0.008269776679163688 -0.004197363507721526
813 0.009535646662975164 0.017674272492271156 0.020278636317862923
1233 -0.0181410043773011 0.007117254829739801 -0.00932941273611218
811 -0.001184026972087845 0.002553618531947844 -0.0026001029713574176
1011 0.004971641390786122 -0.006513588892628649 0.0034843905583352656
1225 -0.0013827007702247058 -0.0017151477889732264 0.0007677107769301774
1558 -0.005737235753371026 0.003632017460293981 0.0016130783893730499
1231 -0.0011074949700528901 -0.005940526124062201 -0.006320446446123828
1062 -0.007196418944628517 -0.0002088959468581034 -0.005417569898955932
1509 -0.0230716999583746 -0.014326590037710862 0.018276365952893604
208 0.0009788013960747694 -0.007500044812240017 -0.0033903955027563457
756 0.007534719662105622 -0.002338865152416787 0.0036839869779410664
1241 -0.01204007128929826 -0.003512055626295515 -0.005104269730542109
224 0.0036543448275219914 -0.009898753625133191 0.012622679407440381
223 0.006058935956511886 0.0017042541008813028 0.0036894196211239043
1228 0.007786536067858798 0.0010481693404884357 0.0014586785506493067
1229 0.000977436504482106 -0.010686039164299853 0.001439130387979394
1226 0.007352376943643942 0.01441416305556332 -0.006964129485037243
1232 -0.0004127066081240547 -0.024679005965504736 -0.02045211044098439
1061 -0.010960743191187493 -0.011963847856672906 -0.00845627318926875
1012 -0.0028372091137627096 0.003283732127151802 0.004656941773619181
1799 -0.009957582904959463 0.02347803717274458 -0.014129074801196554
1013 -0.016146560945496224 -0.009006589621727182 0.003914531910199005
1798 0.0007224612400017302 -0.007074344254715294 -0.0032642730133616202
1242 -0.005606577393562129 0.017308867475842094 -0.0019294762748539045
1060 0.00312080379211773 0.011400352786764134 -0.005966887850245868
1531 0.0024280006294502845 0.0022339041798396984 -0.0014996837067704789
526 -0.0017526769482956635 -0.0029699817687468895 0.001675880060458991
210 -0.021322248362033235 -0.007063108199734508 -0.00020643160451478535
1009 0.006918365992392535 -0.000708148412368325 0.0007810651111077322
870 0.014306027965853344 -0.010692883586236266 -0.024679005192753827
868 0.0029024454684494906 0.0004920286737158225 0.009019244664533013
1800 0.02140252063247726 -0.015656726163875586 -0.013053797028614164
292 0.004306580659584497 -0.005468148821381874 -0.0013096820113397438
1585 -0.00318373247769591 0.0018323527564759164 -0.001228776079316884
967 0.00048755849981830553 0.004202546701543758 -0.00024753908404766
528 -9.09010216971911e-05 0.00949402008339663 0.012148608312901231
1634 -0.01057384901873167 -0.005953663248856696 0.015836490877319222
1764 -0.0010204343785044456 -0.012514232369603952 0.005711441265404025
1762 -0.0010558274105796426 -0.004140304464965141 0.006107087273939858
498 0.0012452059575761693 -0.012086289955593426 0.0005565438192668826
894 -0.005537117161178895 0.008789594167451155 0.002882769224529721
50 0.005618307173451747 -0.01997623594796296 0.007694406888254472
1586 0.0048074208476549425 -0.0018889809795891788 0.015751781275995226
1104 0.015655485057290374 0.013500962159840332 0.011223270721505158
1421 0.0032773542812658814 0.009766286033654606 -0.023816336693110715
180 0.01554373487971384 -0.0016618711138686112 -0.006751195403839159
178 0.0016340746303101816 -0.0012437369959672128 0.0032822869135925837
1146 -0.011992427286288476 -4.2596060923963855e-05 -0.01639882663936514
277 -0.003651564590049139 0.005327377527380422 -0.006500829372308909
1144 -0.011405156425802697 -9.023701343228845e-05 -0.004015909137076553
989 -0.0007940282643069866 0.01282931191358636 0.014924510609856303
990 0.018628429241938197 -0.013644856630305232 -0.0007973331246643414
988 0.0005265820937641171 0.003447682697021886 0.0003602007729789322
1700 -0.011895767130584252 -0.006141225581119488 0.0013814022422268533
1249 -0.002326965214081333 0.0013808808595952853 0.0012713927878188738
1251 -0.003129403379877448 0.006545532754596642 -0.0005610406989345091
743 0.0010761211179876973 0.011289481458832778 0.012988324183745278
1174 -0.0011442139384522545 0.0006996020494154979 0.0016373328240605219
294 0.017855932569508706 -0.004321396670056429 -0.003492666827954154
1102 0.003184909971593628 0.003342434444164573 0.002524987162311016
1103 0.0056049720305672585 -0.005725757375799811 -0.003020925220953528
1183 -0.00533906228322813 0.000829091378463318 -0.001002027412810801
63 0.003600877615880066 -0.007508593397400312 0.0003114939859980064
167 -0.010310517320664923 -0.0009759608453523515 -0.00765869817758448
628 -0.0031741263142597677 -0.0027350681645386924 -0.003278893608136069
1669 -0.004188624848632678 0.00375616243478691 0.0014247241672559559
742 -0.0017553488183075475 -0.001385213713410882 -0.00849591231280802
1422 0.004918535323204737 -0.005069192318270154 0.00860349137608025
1185 -0.004873150026020707 0.0005661474013063482 -0.0014794822247214594
179 0.021272018492863465 -0.002966493131801329 -0.007957836924903577
1250 0.0022996214153676057 -0.0008957390609157052 -0.001693592689012899
1039 0.0029539210683368613 -0.0008170602606787625 -0.00597712284813141
1310 0.0096585249666048 0.002112498658547454 -0.00868022237515601
937 -0.002225928090122927 -0.009408200583981733 0.003376333805082226
166 -0.0029455142130275723 -0.005567225900158034 -0.00013515475645559032
168 0.0035201282793177165 -0.006560642956122974 0.004824811515569963
186 -0.006081534665224569 -0.0021889807288545666 0.0005405617695057695
1184 0.00981604752925639 0.01441977134247786 -0.01852625853228605
690 0.005627861811306079 -0.01111317338996615 -0.0008413586600353544
279 0.0008844359801839694 -0.008581022824182835 0.005559182260669041
688 0.0037497495324704594 -0.006466936265811497 -0.0034168573776287813
1145 -0.012151387965115886 -0.004422379862830279 0.012256866092080014
1638 0.008787290169455925 0.011658078001549999 -0.0014848312618666861
1637 -0.024769027904325343 -0.007847991029234913 -0.0031299954689160492
1175 -0.0017859263112432982 0.011562307970568482 -0.005459244017599178
1115 -0.010570151263183085 -0.022214557732185353 0.004069220173071899
62 -0.008557782944055214 -0.0035005478589068746 0.0073670098833905975
61 -0.0011332361517793607 -0.0011532427851369158 0.005305344475183102
1339 -0.0024367317356092763 0.003055284656773501 -0.0031848334288269676
939 -0.014487089630940735 -0.006420580584328275 -0.0060300610937898454
788 -0.006583966615680522 0.006900151618196373 -0.00016373339501563435
1001 -0.0038830273399879426 0.0011124197219228912 0.006454899823163393
1114 -0.0026437530371741145 0.0002568025463652928 -0.004848975605350999
869 -0.04336401737818508 -0.0026351365407682008 0.009826450458532265
839 0.02309069931122413 0.009076899863155293 0.0022821078599773626
1040 0.019529573990929895 -0.0018340448119759582 0.012627801358325521
1650 0.007213258775787637 0.010579910706894407 -0.02656787984427308
1701 -0.0031896164527374996 0.000388538041342177 -0.006394182496112322
741 0.006141708043053335 0.0050454208682833455 0.004635401475735059
278 0.004742832495230831 0.00014478432166562994 0.00010167893809762375
1000 -0.003254419372676445 0.004529447783536877 0.0053119191170594975
1420 -0.0005501292481170729 -0.004812682649824777 -0.00027023810126996725
1699 -0.0032390222571387047 0.00021049625977719716 -0.0005749293139159079
1636 -0.00973559346347129 -0.0009818050379143592 0.0040803727225152565
134 0.0012583972027210611 0.004483853966704043 0.010690688099341504
133 -0.0007055658971000693 -0.001382448881906885 0.006181042011999686
689 0.009619199107031658 0.002013693832964601 -0.01179535265556549
1041 -0.007470699649767784 -0.0019046804628552012 -0.01898501341678902
739 0.0029180024467202253 0.003333745906664734 0.004985582844813609
1566 -0.0038965902619195847 0.006763438304658727 0.0009270957277585315
1116 0.0019668047380592157 -0.008758331858149416 -0.015842146965242675
789 0.005967456248092228 -0.01511450337471266 -0.0006635666977482124
744 0.007120976311650342 -0.012042357152454889 -0.0019032170977037798
1340 0.008501286460290995 0.006386032548379027 -0.027208572354253804
1176 0.01433703468798154 -0.0056592816313280085 0.00039938078505790883
938 -0.014292474915232086 -0.008323858913000389 -6.398860163387729e-05
407 0.0010146007632001529 -0.01074220271245934 -0.013563115092283485
780 -0.010486552957730303 0.006901292230477691 0.0029683404923156664
1453 0.0010653890490293107 0.0033861337717409094 0.0029559143827800286
787 0.004046663008635614 0.0007160709865346295 -0.005595873094191894
1671 -0.004874948892622626 0.0002669931749220334 -0.002124457563701159
419 -0.002648201853549148 -0.0029544536269850074 -0.010153917703302767
497 -0.021450412488363383 0.009434332264894821 6.388146595117924e-06
1439 0.0030109713543709313 0.0059555771729996754 0.006065549481403031
1438 0.0029990768857736634 -0.005639866865424274 0.001462477315933118
1440 -0.0023910375321698546 0.013750926734344035 0.006598959869237025
452 -0.017081443296711244 -0.011927182384314419 0.01807083855799542
1745 0.007343402605048269 -0.00014614720506881927 -0.007764004253587871
445 0.0036302385511010164 0.0003569176601657638 0.002789069384880176
1 0.0008436707662036847 -0.001892028218670801 0.0024115361567121902
1180 -0.0037067097791513575 0.0010986373546605854 0.0034049394817824113
1181 -0.012979131665185353 -0.0014394006901575734 0.010765775341282138
2 -0.018015452807522564 0.0017865892489823745 -0.004140671754014828
446 0.013224981331573939 -0.027079131002085807 -0.008553316708049987
447 -0.014411385015823872 0.0011855176842745314 -0.0008693529607024403
1246 -0.0005312027427201991 0.001245542795269497 -0.005165624761469474
598 0.0003907261355170322 -0.0018596048093374085 9.761136450533187e-05
1140 0.004134628849819382 0.005108583420759814 -0.005931614046059594
3 -0.0033698066402407145 0.012314131296018825 -0.02107569808465825
365 0.020863029512312437 -0.013001592726333116 -0.010380836836047784
1248 0.004661744196930718 -0.004844550650641574 0.002175749516619271
1247 -0.013346631876297149 -0.004179454707554348 -0.0021361954430499266
151 0.0020658386638813036 0.00010255749301047375 -0.002634806918901926
322 0.005917196867597296 0.0048008017930208525 -0.002340851515380427
778 -0.005783519891891201 0.0015132710693469842 -0.0028568438418464194
840 -0.015879537423851495 -0.015783374274569502 -0.0003081757704403773
135 -0.009039982644651749 -0.008945917343149767 0.005198963148330289
838 0.0041820197386833935 -0.0047169030814194655 0.004200541277583512
1732 0.0024546119575395145 -0.0017323817471998995 0.0019693340101015326
801 0.00562797148975833 0.0037310024066548124 0.003890081121536628
288 0.005874801565728109 0.0077684998230643345 -0.011346209361893263
1002 2.6874330926207017e-05 -0.0077937483235589996 0.006030012309896567
1369 0.0008122984580994412 -0.0024297918430779865 0.003714192291414543
779 -0.0005063948511750061 -0.010552761322710751 0.016877210529098092
153 0.005056714355764386 -0.0016035086709505735 -0.018379221985908703
1645 0.0036593437403363367 -0.002639539293561068 -0.0012303480116014867
1138 -0.004078741764417713 -0.001782469394267124 0.002904272436145892
600 0.010454588943114733 0.013967887684580045 -0.0017446155678710394
152 -0.0022662615097696274 0.009490240600802332 0.021885503244273418
705 -0.005013487607671583 0.00016297369081885634 -0.01330043704551984
1370 0.005459635247055509 -0.014777622762191807 0.007639769914127146
1182 0.0028131151418040994 -0.004640880390966417 0.009006093934580274
825 -0.022722879937150556 -0.015122505705471488 -0.004289927735008229
1734 -0.008840632786108162 0.005556877739000984 -0.006408468785138867
1746 -0.0048694563422613316 -0.007570092523241379 0.00608297614222373
1297 0.004865364999285247 0.005514709329032035 0.001108599571516911
324 -0.00955574392621228 -0.004608399477762995 -0.015612177897369281
514 0.0038701821545735963 0.0052773183561284015 0.00017471656596469072
1299 -0.005909593627409925 0.01960621446665532 0.021319428918311345
782 0.00018795084633172867 0.0038554523956015932 -0.02146116977200051
451 0.007220306453486182 -0.003979349539290373 0.0031921193646210076
783 -0.0024814671719561587 0.014376478485630399 -0.001029774771961425
1493 0.0013725847486829455 0.0037882838413736027 0.0029485069457749077
1494 -0.013511597882629851 -0.0037045468768002626 -0.0041650692049173075
364 -0.0005922861346661458 0.005077268525607378 0.007898337373464445
824 -0.012991507944688334 -0.004556224380309222 0.00915013190718666
800 0.0069192083940787675 0.0003020634242188837 -0.004999691777247468
1792 0.004150771033730172 -0.0012609093326058642 -1.4900681825344983e-05
823 -0.0006058724433087186 -0.0019837056920279698 0.002192263085398728
1298 0.0032974483429229887 -0.015520190055080804 0.0012895105470455176
1208 -0.013892757429150653 0.0283790566029663 0.014444201101469595
1207 0.0011925035969734528 0.0012896894444385033 0.00427874887178526
781 -0.002931923477321451 0.0008925628170453426 -0.0003004274426988882
1794 -0.007952480656890207 0.0010000170828334486 -0.027900608753672333
955 -0.005043476024880084 -0.003935218252529529 0.00914463762550779
702 0.004374851159244232 0.014391181288365666 0.00895683118674369
287 -0.004767377894347345 0.01894637493912529 -0.0028863989283626204
1209 0.007736112758348345 -0.016723404367186466 0.0033232025562322997
286 -0.00042391256835093264 -0.0015809832321432111 0.00020395529108916546
799 0.004242944632963766 0.0010854151171770566 -0.0019330225969565562
1646 -0.013209012881631059 0.007039437221062574 0.00038473573542271717
957 -0.015487706236167562 -0.01299780958525593 0.00199302978666619
1492 -0.0004296041431235149 0.0024535092159498994 0.0012183417238902405
956 -0.000821046094362169 0.004558718397942473 0.015783301448515422
323 0.008814898016891578 -0.0024604347808531365 -0.0010393749366683393
700 0.0010016629859191314 0.005139784201936266 0.003578149184009503
1529 -0.01312619029450639 0.02626240896206657 0.0003058247158366074
196 0.0021603622445892606 -0.0008524827675293595 0.006092172908689874
599 0.0031159520846782145 -0.019037149079069508 0.015775389212205705
701 0.021633664998474186 0.02490395117838125 0.009212879045448015
828 -0.004739682593270749 0.0026552783502307425 -0.0014619780522217077
515 0.018262895717858926 0.0009057418713169028 -0.0007742854375793097
1537 0.0021318287482042578 0.007319304873990824 0.0032085810489051207
909 -0.010196077121770609 -0.0004675634246429816 -0.002357829973345811
1556 -0.010216196657238635 -0.00014278747398611147 0.0036619313763975097
321 0.005326263308053548 -0.00581870702643275 0.005201461234033065
1462 -0.0027533318760111615 -0.001876081547918845 -0.0005942999808425831
1528 -0.006795103304896351 0.00022391868930899726 -0.002698970542535984
601 0.006182330586519331 0.005117450134751405 -5.148522988458897e-05
1557 0.013332925159211794 0.0014870326896786437 -0.0009024093932739245
1555 0.0073019457467116845 0.0011757648660082492 0.00024147500379169515
1539 0.024377837284797133 0.005316286581571735 -0.012110663304643577
978 -0.0033847543189491516 -0.022677123975802158 -0.017894037957398162
908 -0.006089524205669469 -0.005166896457858734 0.004978694715354678
1756 -0.0012926054729635254 -0.010180632665528136 0.0005402604227878043
753 -0.005716243788664774 -0.00391256179986426 0.008693011704128182
1291 0.000839930491002505 0.0005988612456462864 0.0024467284001706267
751 -0.0019808385816191213 0.0007780910271479715 0.005510320482834268
752 -0.028599694942351317 -0.007069296928654864 0.01454710759868257
895 -0.0045236938682286865 -0.005572443486281534 0.0012491952539584127
896 -0.017012682052840566 0.00903443942849627 -0.007279832715270351
1757 0.0012826785943558972 -0.0037671067378259593 -0.0017046188181450812
649 -0.004710841455931677 -0.005831224109210128 -0.00313058179582881
1538 0.009524708472482516 -0.007786566460867806 0.021670170094632665
1049 -0.026301661603494165 5.0847495645588194e-05 -0.014722526795806974
1758 0.006381018119746128 -0.014200005572527255 -0.015057384502616036
1591 0.0037491079948782017 -0.0006613930865478027 0.0009980878482968877
914 -0.03309633583426142 -0.013622898273632231 0.003784949682176864
1265 -0.0011455392976405412 0.016541373045036174 0.00511832548034529
1592 0.003734119870545881 0.01394137510409633 0.005830162401462685
897 -0.010462696581793909 0.007389459139121053 0.00776159064821845
1587 -0.013090954623207205 -0.013705394949285663 -0.007251030133250472
1256 0.005318052540753856 0.012366050341981032 0.02419921945474253
1048 -0.001958238911435061 -0.00013533042302740496 0.0005552621327918687
113 -0.028304720510772402 0.006795242914538373 0.005842683271495205
584 0.010762322749168808 -0.00877605822455891 0.020728321482262817
886 0.006705616127139876 -0.0017955587840845072 -0.0020496809390268276
913 -0.001836283656090169 -0.0026707366646779754 0.0011183216608738565
1106 -0.007338047451915979 0.005376823549545043 0.01052902470058522
532 -0.002647377565068641 0.007897594271278353 -0.001919697455090312
404 -0.0030536285783732157 0.008142855982345827 -0.004719825648284741
976 0.0022086732791876122 0.003232877640953951 -0.00269941545343466
907 -0.005295317549936847 -0.0024011329253206697 -0.00038404130231726297
595 -8.544594018375048e-05 0.003590668010398535 -0.0026815721143055304
1292 -0.003333980190370189 -0.0012470890279416662 -0.0005350802416484277
1105 -0.0026199714601824334 0.0020885651106242165 0.004398547416797704
928 0.0021607932386008065 -0.0018763731653132047 0.00489605126644157
597 -0.008335753837249825 -0.01879400231695784 0.038070175361584836
596 0.019088605973505254 0.015726375447281428 -0.001944229634289403
1293 -0.00583552397926464 0.015217824529624344 0.01990957579946046
534 0.00013640144995264648 0.02047348078930366 -0.011713583455869099
403 -0.00404057860519643 0.006597832149906495 -0.004818939892135322
1050 -0.0014446704494210272 -0.00020516552229475304 -0.019873275287765682
1508 0.01724134254714704 0.005915424857426932 -0.0006781899038372026
468 -0.002157953595245848 0.01935089264825555 -0.0011622900594855717
915 0.0003876214599933268 0.004439020075397764 0.002275422308565919
533 0.01503147070727767 0.004685401338403201 0.0020557039266274964
930 -0.0020722255154386584 0.006716412720274092 0.006738429890374701
467 -0.022866054041711624 0.0015460298781882719 -0.0012194458154933556
929 0.015329220400978314 -0.012290253298028391 0.004509653239293414
887 2.864830484253047e-05 -0.004238000409659788 -0.00401914625987323
352 -0.002498431081641218 0.003346733863285215 0.00012021180263671557
888 -0.014447510618736347 -0.004019846619552373 -0.0019794759920853783
466 -0.006006008459700513 0.0012144260144059224 -0.0030177758532665563
650 -0.009949977379595016 -0.006560971163351212 -0.0015783514670164435
651 -0.001444946561766033 -0.007157332277548315 -0.0019925022941006706
1530 0.006536742784200913 -0.002709597277466266 0.005902241393323675
354 -0.0033508038009038457 0.002532976487234243 -0.0021434915054385044
1107 0.004629794332279766 0.0007658044321258087 0.006753592695743733
969 -0.010250383547503532 0.006637270031422168 0.004909467478438572
1793 -0.019010684475455585 -0.005606419717295052 0.02120113798296422
51 0.013991436492128254 0.008573465214297235 0.002183217067907613
950 -0.006189713710311447 0.019986018379433795 -0.012983771006353834
353 -0.0048390973088958235 0.003942142232095383 0.0003946964402521235
49 0.0066132350204302255 -0.006918916939442538 -0.007238735259535209
1507 0.0017437287222237584 -0.005476934528631472 -0.003476970138077158
366 -0.0194092312762241 0.0016304587486386136 0.00797968605764028
1744 0.0011692195723331483 -0.0014124601667190662 -0.00042557547308902973
198 0.012941086028104403 -0.012832935412500586 -0.004544433191514953
197 0.005796868987921822 0.00876525994855379 -0.0028261597763583946
1464 -0.021149959821037942 -0.02449784385706769 0.0031447317021358685
593 -0.00957196944135451 0.0034473984259346486 0.0001828573423583097

Bonds

1 1 1495 1496
2 1 1495 1497
3 1 271 272
4 1 271 273
5 1 859 860
6 1 859 861
7 1 1030 1031
8 1 1030 1032
9 1 1006 1007
10 1 1006 1008
11 1 1348 1349
12 1 1348 1350
13 1 307 308
14 1 307 309
15 1 541 542
16 1 541 543
17 1 1327 1328
18 1 1327 1329
19 1 415 416
20 1 415 417
21 1 1480 1481
22 1 1480 1482
23 1 1390 1391
24 1 1390 1392
25 1 1135 1136
26 1 1135 1137
27 1 376 377
28 1 376 378
29 1 1723 1724
30 1 1723 1725
31 1 874 875
32 1 874 876
33 1 1405 1406
34 1 1405 1407
35 1 883 884
36 1 883 885
37 1 1618 1619
38 1 1618 1620
39 1 655 656
40 1 655 657
41 1 442 443
42 1 442 444
43 1 1285 1286
44 1 1285 1287
45 1 313 314
46 1 313 315
47 1 1603 1604
48 1 1603 1605
49 1 952 953
50 1 952 954
51 1 238 239
52 1 238 240
53 1 1498 1499
54 1 1498 1500
55 1 490 491
56 1 490 492
57 1 4 5
58 1 4 6
59 1 970 971
60 1 970 972
61 1 1651 1652
62 1 1651 1653
63 1 1177 1178
64 1 1177 1179
65 1 985 986
66 1 985 987
67 1 1033 1034
68 1 1033 1035
69 1 1096 1097
70 1 1096 1098
71 1 1510 1511
72 1 1510 1512
73 1 1036 1037
74 1 1036 1038
75 1 1741 1742
76 1 1741 1743
77 1 355 356
78 1 355 357
79 1 1786 1787
80 1 1786 1788
81 1 1054 1055
82 1 1054 1056
83 1 679 680
84 1 679 681
85 1 1609 1610
86 1 1609 1611
87 1 337 338
88 1 337 339
89 1 1351 1352
90 1 1351 1353
91 1 481 482
92 1 481 483
93 1 13 14
94 1 13 15
95 1 1621 1622
96 1 1621 1623
97 1 7 8
98 1 7 9
99 1 1690 1691
100 1 1690 1692
101 1 412 413
102 1 412 414
103 1 841 842
104 1 841 843
105 1 853 854
106 1 853 855
107 1 1063 1064
108 1 1063 1065
109 1 940 941
110 1 940 942
111 1 1789 1790
112 1 1789 1791
113 1 499 500
114 1 499 501
115 1 463 464
116 1 463 465
117 1 919 920
118 1 919 921
119 1 709 710
120 1 709 711
121 1 1663 1664
122 1 1663 1665
123 1 37 38
124 1 37 39
125 1 1768 1769
126 1 1768 1770
127 1 1477 1478
128 1 1477 1479
129 1 844 845
130 1 844 846
131 1 793 794
132 1 793 795
133 1 58 59
134 1 58 60
135 1 1579 1580
136 1 1579 1581
137 1 1702 1703
138 1 1702 1704
139 1 925 926
140 1 925 927
141 1 127 128
142 1 127 129
143 1 187 188
144 1 187 189
145 1 1615 1616
146 1 1615 1617
147 1 1150 1151
148 1 1150 1152
149 1 340 341
150 1 340 342
151 1 1714 1715
152 1 1714 1716
153 1 1411 1412
154 1 1411 1413
155 1 1771 1772
156 1 1771 1773
157 1 835 836
158 1 835 837
159 1 1159 1160
160 1 1159 1161
161 1 505 506
162 1 505 507
163 1 1501 1502
164 1 1501 1503
165 1 487 488
166 1 487 489
167 1 931 932
168 1 931 933
169 1 1780 1781
170 1 1780 1782
171 1 1624 1625
172 1 1624 1626
173 1 250 251
174 1 250 252
175 1 1162 1163
176 1 1162 1164
177 1 1717 1718
178 1 1717 1719
179 1 589 590
180 1 589 591
181 1 73 74
182 1 73 75
183 1 1258 1259
184 1 1258 1260
185 1 1084 1085
186 1 1084 1086
187 1 673 674
188 1 673 675
189 1 247 248
190 1 247 249
191 1 982 983
192 1 982 984
193 1 1708 1709
194 1 1708 1710
195 1 1396 1397
196 1 1396 1398
197 1 889 890
198 1 889 891
199 1 235 236
200 1 235 237
201 1 946 947
202 1 946 948
203 1 1408 1409
204 1 1408 1410
205 1 706 707
206 1 706 708
207 1 520 521
208 1 520 522
209 1 1774 1775
210 1 1774 1776
211 1 226 227
212 1 226 228
213 1 439 440
214 1 439 441
215 1 391 392
216 1 391 393
217 1 1519 1520
218 1 1519 1521
219 1 1444 1445
220 1 1444 1446
221 1 484 485
222 1 484 486
223 1 658 659
224 1 658 660
225 1 232 233
226 1 232 234
227 1 1612 1613
228 1 1612 1614
229 1 727 728
230 1 727 729
231 1 856 857
232 1 856 858
233 1 1066 1067
234 1 1066 1068
235 1 217 218
236 1 217 219
237 1 1042 1043
238 1 1042 1044
239 1 1426 1427
240 1 1426 1428
241 1 493 494
242 1 493 495
243 1 34 35
244 1 34 36
245 1 1192 1193
246 1 1192 1194
247 1 934 935
248 1 934 936
249 1 25 26
250 1 25 27
251 1 643 644
252 1 643 645
253 1 289 290
254 1 289 291
255 1 1081 1082
256 1 1081 1083
257 1 646 647
258 1 646 648
259 1 10 11
260 1 10 12
261 1 904 905
262 1 904 906
263 1 1630 1631
264 1 1630 1632
265 1 1666 1667
266 1 1666 1668
267 1 865 866
268 1 865 867
269 1 1552 1553
270 1 1552 1554
271 1 1795 1796
272 1 1795 1797
273 1 397 398
274 1 397 399
275 1 1540 1541
276 1 1540 1542
277 1 274 275
278 1 274 276
279 1 1474 1475
280 1 1474 1476
281 1 421 422
282 1 421 423
283 1 427 428
284 1 427 429
285 1 991 992
286 1 991 993
287 1 556 557
288 1 556 558
289 1 244 245
290 1 244 246
291 1 1561 1562
292 1 1561 1563
293 1 604 605
294 1 604 606
295 1 619 620
296 1 619 621
297 1 748 749
298 1 748 750
299 1 1288 1289
300 1 1288 1290
301 1 316 317
302 1 316 318
303 1 1627 1628
304 1 1627 1629
305 1 67 68
306 1 67 69
307 1 1165 1166
308 1 1165 1167
309 1 70 71
310 1 70 72
311 1 1252 1253
312 1 1252 1254
313 1 124 125
314 1 124 126
315 1 613 614
316 1 613 615
317 1 199 200
318 1 199 201
319 1 1489 1490
320 1 1489 1491
321 1 1642 1643
322 1 1642 1644
323 1 82 83
324 1 82 84
325 1 862 863
326 1 862 864
327 1 1696 1697
328 1 1696 1698
329 1 1735 1736
330 1 1735 1737
331 1 1726 1727
332 1 1726 1728
333 1 1147 1148
334 1 1147 1149
335 1 784 785
336 1 784 786
337 1 802 803
338 1 802 804
339 1 1387 1388
340 1 1387 1389
341 1 358 359
342 1 358 360
343 1 46 47
344 1 46 48
345 1 1372 1373
346 1 1372 1374
347 1 1198 1199
348 1 1198 1200
349 1 157 158
350 1 157 159
351 1 253 254
352 1 253 255
353 1 205 206
354 1 205 207
355 1 1330 1331
356 1 1330 1332
357 1 388 389
358 1 388 390
359 1 190 191
360 1 190 192
361 1 1513 1514
362 1 1513 1515
363 1 1261 1262
364 1 1261 1263
365 1 1318 1319
366 1 1318 1320
367 1 772 773
368 1 772 774
369 1 1312 1313
370 1 1312 1314
371 1 1129 1130
372 1 1129 1131
373 1 577 578
374 1 577 579
375 1 718 719
376 1 718 720
377 1 454 455
378 1 454 456
379 1 1099 1100
380 1 1099 1101
381 1 1300 1301
382 1 1300 1302
383 1 1363 1364
384 1 1363 1365
385 1 736 737
386 1 736 738
387 1 979 980
388 1 979 981
389 1 214 215
390 1 214 216
391 1 1783 1784
392 1 1783 1785
393 1 1072 1073
394 1 1072 1074
395 1 871 872
396 1 871 873
397 1 910 911
398 1 910 912
399 1 757 758
400 1 757 759
401 1 1237 1238
402 1 1237 1239
403 1 1075 1076
404 1 1075 1077
405 1 145 146
406 1 145 147
407 1 1378 1379
408 1 1378 1380
409 1 829 830
410 1 829 831
411 1 1684 1685
412 1 1684 1686
413 1 1201 1202
414 1 1201 1203
415 1 94 95
416 1 94 96
417 1 424 425
418 1 424 426
419 1 1576 1577
420 1 1576 1578
421 1 1456 1457
422 1 1456 1458
423 1 676 677
424 1 676 678
425 1 1069 1070
426 1 1069 1071
427 1 1516 1517
428 1 1516 1518
429 1 181 182
430 1 181 183
431 1 1504 1505
432 1 1504 1506
433 1 262 263
434 1 262 264
435 1 298 299
436 1 298 300
437 1 634 635
438 1 634 636
439 1 1582 1583
440 1 1582 1584
441 1 1525 1526
442 1 1525 1527
443 1 130 131
444 1 130 132
445 1 1750 1751
446 1 1750 1752
447 1 193 194
448 1 193 195
449 1 1321 1322
450 1 1321 1323
451 1 52 53
452 1 52 54
453 1 457 458
454 1 457 459
455 1 1333 1334
456 1 1333 1335
457 1 91 92
458 1 91 93
459 1 964 965
460 1 964 966
461 1 508 509
462 1 508 510
463 1 850 851
464 1 850 852
465 1 1432 1433
466 1 1432 1434
467 1 1309 1310
468 1 1309 1311
469 1 724 725
470 1 724 726
471 1 523 524
472 1 523 525
473 1 406 407
474 1 406 408
475 1 1534 1535
476 1 1534 1536
477 1 301 302
478 1 301 303
479 1 922 923
480 1 922 924
481 1 1564 1565
482 1 1564 1566
483 1 1429 1430
484 1 1429 1431
485 1 1417 1418
486 1 1417 1419
487 1 1468 1469
488 1 1468 1470
489 1 430 431
490 1 430 432
491 1 1360 1361
492 1 1360 1362
493 1 1216 1217
494 1 1216 1218
495 1 805 806
496 1 805 807
497 1 1018 1019
498 1 1018 1020
499 1 265 266
500 1 265 267
501 1 1243 1244
502 1 1243 1245
503 1 1282 1283
504 1 1282 1284
505 1 400 401
506 1 400 402
507 1 652 653
508 1 652 654
509 1 325 326
510 1 325 327
511 1 826 827
512 1 826 828
513 1 55 56
514 1 55 57
515 1 175 176
516 1 175 177
517 1 961 962
518 1 961 963
519 1 586 587
520 1 586 588
521 1 343 344
522 1 343 345
523 1 220 221
524 1 220 222
525 1 1315 1316
526 1 1315 1317
527 1 1156 1157
528 1 1156 1158
529 1 142 143
530 1 142 144
531 1 631 632
532 1 631 633
533 1 475 476
534 1 475 477
535 1 697 698
536 1 697 699
537 1 136 137
538 1 136 138
539 1 775 776
540 1 775 777
541 1 559 560
542 1 559 561
543 1 19 20
544 1 19 21
545 1 958 959
546 1 958 960
547 1 820 821
548 1 820 822
549 1 448 449
550 1 448 450
551 1 106 107
552 1 106 108
553 1 1234 1235
554 1 1234 1236
555 1 1093 1094
556 1 1093 1095
557 1 1306 1307
558 1 1306 1308
559 1 1687 1688
560 1 1687 1689
561 1 310 311
562 1 310 312
563 1 1765 1766
564 1 1765 1767
565 1 1486 1487
566 1 1486 1488
567 1 319 320
568 1 319 321
569 1 121 122
570 1 121 123
571 1 1747 1748
572 1 1747 1749
573 1 385 386
574 1 385 387
575 1 85 86
576 1 85 87
577 1 1210 1211
578 1 1210 1212
579 1 694 695
580 1 694 696
581 1 1354 1355
582 1 1354 1356
583 1 1108 1109
584 1 1108 1110
585 1 667 668
586 1 667 669
587 1 1189 1190
588 1 1189 1191
589 1 790 791
590 1 790 792
591 1 730 731
592 1 730 732
593 1 1294 1295
594 1 1294 1296
595 1 817 818
596 1 817 819
597 1 346 347
598 1 346 348
599 1 1213 1214
600 1 1213 1215
601 1 766 767
602 1 766 768
603 1 511 512
604 1 511 513
605 1 1279 1280
606 1 1279 1281
607 1 16 17
608 1 16 18
609 1 1483 1484
610 1 1483 1485
611 1 1195 1196
612 1 1195 1197
613 1 1303 1304
614 1 1303 1305
615 1 1633 1634
616 1 1633 1635
617 1 550 551
618 1 550 552
619 1 553 554
620 1 553 555
621 1 1705 1706
622 1 1705 1707
623 1 373 374
624 1 373 375
625 1 538 539
626 1 538 540
627 1 1324 1325
628 1 1324 1326
629 1 1672 1673
630 1 1672 1674
631 1 370 371
632 1 370 372
633 1 670 671
634 1 670 672
635 1 1678 1679
636 1 1678 1680
637 1 1522 1523
638 1 1522 1524
639 1 574 575
640 1 574 576
641 1 1357 1358
642 1 1357 1359
643 1 898 899
644 1 898 900
645 1 916 917
646 1 916 918
647 1 1753 1754
648 1 1753 1755
649 1 1549 1550
650 1 1549 1551
651 1 379 380
652 1 379 381
653 1 1660 1661
654 1 1660 1662
655 1 1132 1133
656 1 1132 1134
657 1 1141 1142
658 1 1141 1143
659 1 1594 1595
660 1 1594 1596
661 1 334 335
662 1 334 336
663 1 418 419
664 1 418 420
665 1 547 548
666 1 547 549
667 1 88 89
668 1 88 90
669 1 103 104
670 1 103 105
671 1 256 257
672 1 256 258
673 1 664 665
674 1 664 666
675 1 382 383
676 1 382 384
677 1 163 164
678 1 163 165
679 1 1597 1598
680 1 1597 1599
681 1 685 686
682 1 685 687
683 1 469 470
684 1 469 471
685 1 1057 1058
686 1 1057 1059
687 1 1423 1424
688 1 1423 1425
689 1 184 185
690 1 184 186
691 1 610 611
692 1 610 612
693 1 1336 1337
694 1 1336 1338
695 1 259 260
696 1 259 261
697 1 97 98
698 1 97 99
699 1 268 269
700 1 268 270
701 1 1573 1574
702 1 1573 1575
703 1 808 809
704 1 808 810
705 1 997 998
706 1 997 999
707 1 973 974
708 1 973 975
709 1 703 704
710 1 703 705
711 1 1570 1571
712 1 1570 1572
713 1 394 395
714 1 394 396
715 1 148 149
716 1 148 150
717 1 796 797
718 1 796 798
719 1 562 563
720 1 562 564
721 1 1090 1091
722 1 1090 1092
723 1 304 305
724 1 304 306
725 1 1117 1118
726 1 1117 1119
727 1 1045 1046
728 1 1045 1047
729 1 880 881
730 1 880 882
731 1 328 329
732 1 328 330
733 1 832 833
734 1 832 834
735 1 1024 1025
736 1 1024 1026
737 1 367 368
738 1 367 369
739 1 1267 1268
740 1 1267 1269
741 1 544 545
742 1 544 546
743 1 22 23
744 1 22 24
745 1 1384 1385
746 1 1384 1386
747 1 1366 1367
748 1 1366 1368
749 1 583 584
750 1 583 585
751 1 295 296
752 1 295 297
753 1 1345 1346
754 1 1345 1347
755 1 949 950
756 1 949 951
757 1 712 713
758 1 712 714
759 1 43 44
760 1 43 45
761 1 661 662
762 1 661 663
763 1 1273 1274
764 1 1273 1275
765 1 1567 1568
766 1 1567 1569
767 1 433 434
768 1 433 435
769 1 283 284
770 1 283 285
771 1 1222 1223
772 1 1222 1224
773 1 79 80
774 1 79 81
775 1 1111 1112
776 1 1111 1113
777 1 1435 1436
778 1 1435 1437
779 1 616 617
780 1 616 618
781 1 202 203
782 1 202 204
783 1 241 242
784 1 241 243
785 1 1543 1544
786 1 1543 1545
787 1 115 116
788 1 115 117
789 1 139 140
790 1 139 141
791 1 478 479
792 1 478 480
793 1 1186 1187
794 1 1186 1188
795 1 1381 1382
796 1 1381 1383
797 1 472 473
798 1 472 474
799 1 100 101
800 1 100 102
801 1 1270 1271
802 1 1270 1272
803 1 436 437
804 1 436 438
805 1 1639 1640
806 1 1639 1641
807 1 1402 1403
808 1 1402 1404
809 1 1393 1394
810 1 1393 1395
811 1 892 893
812 1 892 894
813 1 76 77
814 1 76 78
815 1 877 878
816 1 877 879
817 1 715 716
818 1 715 717
819 1 1168 1169
820 1 1168 1170
821 1 1693 1694
822 1 1693 1695
823 1 1276 1277
824 1 1276 1278
825 1 229 230
826 1 229 231
827 1 1465 1466
828 1 1465 1467
829 1 211 212
830 1 211 213
831 1 1648 1649
832 1 1648 1650
833 1 535 536
834 1 535 537
835 1 580 581
836 1 580 582
837 1 1087 1088
838 1 1087 1089
839 1 409 410
840 1 409 411
841 1 1720 1721
842 1 1720 1722
843 1 1657 1658
844 1 1657 1659
845 1 169 170
846 1 169 171
847 1 760 761
848 1 760 762
849 1 1021 1022
850 1 1021 1023
851 1 763 764
852 1 763 765
853 1 496 497
854 1 496 498
855 1 1219 1220
856 1 1219 1221
857 1 1471 1472
858 1 1471 1473
859 1 1675 1676
860 1 1675 1677
861 1 1546 1547
862 1 1546 1548
863 1 721 722
864 1 721 723
865 1 1606 1607
866 1 1606 1608
867 1 160 161
868 1 160 162
869 1 637 638
870 1 637 639
871 1 1120 1121
872 1 1120 1122
873 1 1450 1451
874 1 1450 1452
875 1 1123 1124
876 1 1123 1125
877 1 1600 1601
878 1 1600 1602
879 1 625 626
880 1 625 627
881 1 1447 1448
882 1 1447 1449
883 1 571 572
884 1 571 573
885 1 640 641
886 1 640 642
887 1 109 110
888 1 109 111
889 1 1729 1730
890 1 1729 1731
891 1 1027 1028
892 1 1027 1029
893 1 1777 1778
894 1 1777 1779
895 1 568 569
896 1 568 570
897 1 1003 1004
898 1 1003 1005
899 1 1441 1442
900 1 1441 1443
901 1 1342 1343
902 1 1342 1344
903 1 1153 1154
904 1 1153 1155
905 1 622 623
906 1 622 624
907 1 460 461
908 1 460 462
909 1 994 995
910 1 994 996
911 1 1654 1655
912 1 1654 1656
913 1 607 608
914 1 607 609
915 1 154 155
916 1 154 156
917 1 1414 1415
918 1 1414 1416
919 1 1051 1052
920 1 1051 1053
921 1 280 281
922 1 280 282
923 1 814 815
924 1 814 816
925 1 361 362
926 1 361 363
927 1 529 530
928 1 529 531
929 1 64 65
930 1 64 66
931 1 40 41
932 1 40 42
933 1 31 32
934 1 31 33
935 1 118 119
936 1 118 120
937 1 1171 1172
938 1 1171 1173
939 1 331 332
940 1 331 333
941 1 745 746
942 1 745 747
943 1 1588 1589
944 1 1588 1590
945 1 1399 1400
946 1 1399 1401
947 1 172 173
948 1 172 174
949 1 502 503
950 1 502 504
951 1 565 566
952 1 565 567
953 1 1711 1712
954 1 1711 1713
955 1 901 902
956 1 901 903
957 1 1459 1460
958 1 1459 1461
959 1 769 770
960 1 769 771
961 1 592 593
962 1 592 594
963 1 847 848
964 1 847 849
965 1 1204 1205
966 1 1204 1206
967 1 28 29
968 1 28 30
969 1 1078 1079
970 1 1078 1080
971 1 112 113
972 1 112 114
973 1 349 350
974 1 349 351
975 1 1738 1739
976 1 1738 1740
977 1 1759 1760
978 1 1759 1761
979 1 1015 1016
980 1 1015 1017
981 1 1375 1376
982 1 1375 1377
983 1 1255 1256
984 1 1255 1257
985 1 517 518
986 1 517 519
987 1 691 692
988 1 691 693
989 1 1126 1127
990 1 1126 1128
991 1 1264 1265
992 1 1264 1266
993 1 1681 1682
994 1 1681 1683
995 1 943 944
996 1 943 945
997 1 682 683
998 1 682 684
999 1 754 755
1000 1 754 756
1001 1 733 734
1002 1 733 735
1003 1 1240 1241
1004 1 1240 1242
1005 1 811 812
1006 1 811 813
1007 1 1225 1226
1008 1 1225 1227
1009 1 1558 1559
1010 1 1558 1560
1011 1 1231 1232
1012 1 1231 1233
1013 1 208 209
1014 1 208 210
1015 1 223 224
1016 1 223 225
1017 1 1228 1229
1018 1 1228 1230
1019 1 1012 1013
1020 1 1012 1014
1021 1 1798 1799
1022 1 1798 1800
1023 1 1060 1061
1024 1 1060 1062
1025 1 1531 1532
1026 1 1531 1533
1027 1 526 527
1028 1 526 528
1029 1 1009 1010
1030 1 1009 1011
1031 1 868 869
1032 1 868 870
1033 1 292 293
1034 1 292 294
1035 1 1585 1586
1036 1 1585 1587
1037 1 967 968
1038 1 967 969
1039 1 1762 1763
1040 1 1762 1764
1041 1 178 179
1042 1 178 180
1043 1 277 278
1044 1 277 279
1045 1 1144 1145
1046 1 1144 1146
1047 1 988 989
1048 1 988 990
1049 1 1249 1250
1050 1 1249 1251
1051 1 1174 1175
1052 1 1174 1176
1053 1 1102 1103
1054 1 1102 1104
1055 1 1183 1184
1056 1 1183 1185
1057 1 628 629
1058 1 628 630
1059 1 1669 1670
1060 1 1669 1671
1061 1 742 743
1062 1 742 744
1063 1 1039 1040
1064 1 1039 1041
1065 1 937 938
1066 1 937 939
1067 1 166 167
1068 1 166 168
1069 1 688 689
1070 1 688 690
1071 1 61 62
1072 1 61 63
1073 1 1339 1340
1074 1 1339 1341
1075 1 1114 1115
1076 1 1114 1116
1077 1 1000 1001
1078 1 1000 1002
1079 1 1420 1421
1080 1 1420 1422
1081 1 1699 1700
1082 1 1699 1701
1083 1 1636 1637
1084 1 1636 1638
1085 1 133 134
1086 1 133 135
1087 1 739 740
1088 1 739 741
1089 1 1453 1454
1090 1 1453 1455
1091 1 787 788
1092 1 787 789
1093 1 1438 1439
1094 1 1438 1440
1095 1 445 446
1096 1 445 447
1097 1 1 2
1098 1 1 3
1099 1 1180 1181
1100 1 1180 1182
1101 1 1246 1247
1102 1 1246 1248
1103 1 598 599
1104 1 598 600
1105 1 151 152
1106 1 151 153
1107 1 322 323
1108 1 322 324
1109 1 778 779
1110 1 778 780
1111 1 838 839
1112 1 838 840
1113 1 1732 1733
1114 1 1732 1734
1115 1 1369 1370
1116 1 1369 1371
1117 1 1645 1646
1118 1 1645 1647
1119 1 1138 1139
1120 1 1138 1140
1121 1 1297 1298
1122 1 1297 1299
1123 1 514 515
1124 1 514 516
1125 1 451 452
1126 1 451 453
1127 1 364 365
1128 1 364 366
1129 1 1792 1793
1130 1 1792 1794
1131 1 823 824
1132 1 823 825
1133 1 1207 1208
1134 1 1207 1209
1135 1 781 782
1136 1 781 783
1137 1 955 956
1138 1 955 957
1139 1 286 287
1140 1 286 288
1141 1 799 800
1142 1 799 801
1143 1 1492 1493
1144 1 1492 1494
1145 1 700 701
1146 1 700 702
1147 1 196 197
1148 1 196 198
1149 1 1537 1538
1150 1 1537 1539
1151 1 1462 1463
1152 1 1462 1464
1153 1 1528 1529
1154 1 1528 1530
1155 1 601 602
1156 1 601 603
1157 1 1555 1556
1158 1 1555 1557
1159 1 1756 1757
1160 1 1756 1758
1161 1 1291 1292
1162 1 1291 1293
1163 1 751 752
1164 1 751 753
1165 1 895 896
1166 1 895 897
1167 1 649 650
1168 1 649 651
1169 1 1591 1592
1170 1 1591 1593
1171 1 1048 1049
1172 1 1048 1050
1173 1 886 887
1174 1 886 888
1175 1 913 914
1176 1 913 915
1177 1 532 533
1178 1 532 534
1179 1 976 977
1180 1 976 978
1181 1 907 908
1182 1 907 909
1183 1 595 596
1184 1 595 597
1185 1 1105 1106
1186 1 1105 1107
1187 1 928 929
1188 1 928 930
1189 1 403 404
1190 1 403 405
1191 1 352 353
1192 1 352 354
1193 1 466 467
1194 1 466 468
1195 1 49 50
1196 1 49 51
1197 1 1507 1508
1198 1 1507 1509
1199 1 1744 1745
1200 1 1744 1746

Angles

1 1 1496 1495 1497
2 1 272 271 273
3 1 860 859 861
4 1 1031 1030 1032
5 1 1007 1006 1008
6 1 1349 1348 1350
7 1 308 307 309
8 1 542 541 543
9 1 1328 1327 1329
10 1 416 415 417
11 1 1481 1480 1482
12 1 1391 1390 1392
13 1 1136 1135 1137
14 1 377 376 378
15 1 1724 1723 1725
16 1 875 874 876
17 1 1406 1405 1407
18 1 884 883 885
19 1 1619 1618 1620
20 1 656 655 657
21 1 443 442 444
22 1 1286 1285 1287
23 1 314 313 315
24 1 1604 1603 1605
25 1 953 952 954
26 1 239 238 240
27 1 1499 1498 1500
28 1 491 490 492
29 1 5 4 6
30 1 971 970 972
31 1 1652 1651 1653
32 1 1178 1177 1179
33 1 986 985 987
34 1 1034 1033 1035
35 1 1097 1096 1098
36 1 1511 1510 1512
37 1 1037 1036 1038
38 1 1742 1741 1743
39 1 356 355 357
40 1 1787 1786 1788
41 1 1055 1054 1056
42 1 680 679 681
43 1 1610 1609 1611
44 1 338 337 339
45 1 1352 1351 1353
46 1 482 481 483
47 1 14 13 15
48 1 1622 1621 1623
49 1 8 7 9
50 1 1691 1690 1692
51 1 413 412 414
52 1 842 841 843
53 1 854 853 855
54 1 1064 1063 1065
55 1 941 940 942
56 1 1790 1789 1791
57 1 500 499 501
58 1 464 463 465
59 1 920 919 921
60 1 710 709 711
61 1 1664 1663 1665
62 1 38 37 39
63 1 1769 1768 1770
64 1 1478 1477 1479
65 1 845 844 846
66 1 794 793 795
67 1 59 58 60
68 1 1580 1579 1581
69 1 1703 1702 1704
70 1 926 925 927
71 1 128 127 129
72 1 188 187 189
73 1 1616 1615 1617
74 1 1151 1150 1152
75 1 341 340 342
76 1 1715 1714 1716
77 1 1412 1411 1413
78 1 1772 1771 1773
79 1 836 835 837
80 1 1160 1159 1161
81 1 506 505 507
82 1 1502 1501 1503
83 1 488 487 489
84 1 932 931 933
85 1 1781 1780 1782
86 1 1625 1624 1626
87 1 251 250 252
88 1 1163 1162 1164
89 1 1718 1717 1719
90 1 590 589 591
91 1 74 73 75
92 1 1259 1258 1260
93 1 1085 1084 1086
94 1 674 673 675
95 1 248 247 249
96 1 983 982 984
97 1 1709 1708 1710
98 1 1397 1396 1398
99 1 890 889 891
100 1 236 235 237
101 1 947 946 948
102 1 1409 1408 1410
103 1 707 706 708
104 1 521 520 522
105 1 1775 1774 1776
106 1 227 226 228
107 1 440 439 441
108 1 392 391 393
109 1 1520 1519 1521
110 1 1445 1444 1446
111 1 485 484 486
112 1 659 658 660
113 1 233 232 234
114 1 1613 1612 1614
115 1 728 727 729
116 1 857 856 858
117 1 1067 1066 1068
118 1 218 217 219
119 1 1043 1042 1044
120 1 1427 1426 1428
121 1 494 493 495
122 1 35 34 36
123 1 1193 1192 1194
124 1 935 934 936
125 1 26 25 27
126 1 644 643 645
127 1 290 289 291
128 1 1082 1081 1083
129 1 647 646 648
130 1 11 10 12
131 1 905 904 906
132 1 1631 1630 1632
133 1 1667 1666 1668
134 1 866 865 867
135 1 1553 1552 1554
136 1 1796 1795 1797
137 1 398 397 399
138 1 1541 1540 1542
139 1 275 274 276
140 1 1475 1474 1476
141 1 422 421 423
142 1 428 427 429
143 1 992 991 993
144 1 557 556 558
145 1 245 244 246
146 1 1562 1561 1563
147 1 605 604 606
148 1 620 619 621
149 1 749 748 750
150 1 1289 1288 1290
151 1 317 316 318
152 1 1628 1627 1629
153 1 68 67 69
154 1 1166 1165 1167
155 1 71 70 72
156 1 1253 1252 1254
157 1 125 124 126
158 1 614 613 615
159 1 200 199 201
160 1 1490 1489 1491
161 1 1643 1642 1644
162 1 83 82 84
163 1 863 862 864
164 1 1697 1696 1698
165 1 1736 1735 1737
166 1 1727 1726 1728
167 1 1148 1147 1149
168 1 785 784 786
169 1 803 802 804
170 1 1388 1387 1389
171 1 359 358 360
172 1 47 46 48
173 1 1373 1372 1374
174 1 1199 1198 1200
175 1 158 157 159
176 1 254 253 255
177 1 206 205 207
178 1 1331 1330 1332
179 1 389 388 390
180 1 191 190 192
181 1 1514 1513 1515
182 1 1262 1261 1263
183 1 1319 1318 1320
184 1 773 772 774
185 1 1313 1312 1314
186 1 1130 1129 1131
187 1 578 577 579
188 1 719 718 720
189 1 455 454 456
190 1 1100 1099 1101
191 1 1301 1300 1302
192 1 1364 1363 1365
193 1 737 736 738
194 1 980 979 981
195 1 215 214 216
196 1 1784 1783 1785
197 1 1073 1072 1074
198 1 872 871 873
199 1 911 910 912
200 1 758 757 759
201 1 1238 1237 1239
202 1 1076 1075 1077
203 1 146 145 147
204 1 1379 1378 1380
205 1 830 829 831
206 1 1685 1684 1686
207 1 1202 1201 1203
208 1 95 94 96
209 1 425 424 426
210 1 1577 1576 1578
211 1 1457 1456 1458
212 1 677 676 678
213 1 1070 1069 1071
214 1 1517 1516 1518
215 1 182 181 183
216 1 1505 1504 1506
217 1 263 262 264
218 1 299 298 300
219 1 635 634 636
220 1 1583 1582 1584
221 1 1526 1525 1527
222 1 131 130 132
223 1 1751 1750 1752
224 1 194 193 195
225 1 1322 1321 1323
226 1 53 52 54
227 1 458 457 459
228 1 1334 1333 1335
229 1 92 91 93
230 1 965 964 966
231 1 509 508 510
232 1 851 850 852
233 1 1433 1432 1434
234 1 1310 1309 1311
235 1 725 724 726
236 1 524 523 525
237 1 407 406 408
238 1 1535 1534 1536
239 1 302 301 303
240 1 923 922 924
241 1 1565 1564 1566
242 1 1430 1429 1431
243 1 1418 1417 1419
244 1 1469 1468 1470
245 1 431 430 432
246 1 1361 1360 1362
247 1 1217 1216 1218
248 1 806 805 807
249 1 1019 1018 1020
250 1 266 265 267
251 1 1244 1243 1245
252 1 1283 1282 1284
253 1 401 400 402
254 1 653 652 654
255 1 326 325 327
256 1 827 826 828
257 1 56 55 57
258 1 176 175 177
259 1 962 961 963
260 1 587 586 588
261 1 344 343 345
262 1 221 220 222
263 1 1316 1315 1317
264 1 1157 1156 1158
265 1 143 142 144
266 1 632 631 633
267 1 476 475 477
268 1 698 697 699
269 1 137 136 138
270 1 776 775 777
271 1 560 559 561
272 1 20 19 21
273 1 959 958 960
274 1 821 820 822
275 1 449 448 450
276 1 107 106 108
277 1 1235 1234 1236
278 1 1094 1093 1095
279 1 1307 1306 1308
280 1 1688 1687 1689
281 1 311 310 312
282 1 1766 1765 1767
283 1 1487 1486 1488
284 1 320 319 321
285 1 122 121 123
286 1 1748 1747 1749
287 1 386 385 387
288 1 86 85 87
289 1 1211 1210 1212
290 1 695 694 696
291 1 1355 1354 1356
292 1 1109 1108 1110
293 1 668 667 669
294 1 1190 1189 1191
295 1 791 790 792
296 1 731 730 732
297 1 1295 1294 1296
298 1 818 817 819
299 1 347 346 348
300 1 1214 1213 1215
301 1 767 766 768
302 1 512 511 513
303 1 1280 1279 1281
304 1 17 16 18
305 1 1484 1483 1485
306 1 1196 1195 1197
307 1 1304 1303 1305
308 1 1634 1633 1635
309 1 551 550 552
310 1 554 553 555
311 1 1706 1705 1707
312 1 374 373 375
313 1 539 538 540
314 1 1325 1324 1326
315 1 1673 1672 1674
316 1 371 370 372
317 1 671 670 672
318 1 1679 1678 1680
319 1 1523 1522 1524
320 1 575 574 576
321 1 1358 1357 1359
322 1 899 898 900
323 1 917 916 918
324 1 1754 1753 1755
325 1 1550 1549 1551
326 1 380 379 381
327 1 1661 1660 1662
328 1 1133 1132 1134
329 1 1142 1141 1143
330 1 1595 1594 1596
331 1 335 334 336
332 1 419 418 420
333 1 548 547 549
334 1 89 88 90
335 1 104 103 105
336 1 257 256 258
337 1 665 664 666
338 1 383 382 384
339 1 164 163 165
340 1 1598 1597 1599
341 1 686 685 687
342 1 470 469 471
343 1 1058 1057 1059
344 1 1424 1423 1425
345 1 185 184 186
346 1 611 610 612
347 1 1337 1336 1338
348 1 260 259 261
349 1 98 97 99
350 1 269 268 270
351 1 1574 1573 1575
352 1 809 808 810
353 1 998 997 999
354 1 974 973 975
355 1 704 703 705
356 1 1571 1570 1572
357 1 395 394 396
358 1 149 148 150
359 1 797 796 798
360 1 563 562 564
361 1 1091 1090 1092
362 1 305 304 306
363 1 1118 1117 1119
364 1 1046 1045 1047
365 1 881 880 882
366 1 329 328 330
367 1 833 832 834
368 1 1025 1024 1026
369 1 368 367 369
370 1 1268 1267 1269
371 1 545 544 546
372 1 23 22 24
373 1 1385 1384 1386
374 1 1367 1366 1368
375 1 584 583 585
376 1 296 295 297
377 1 1346 1345 1347
378 1 950 949 951
379 1 713 712 714
380 1 44 43 45
381 1 662 661 663
382 1 1274 1273 1275
383 1 1568 1567 1569
384 1 434 433 435
385 1 284 283 285
386 1 1223 1222 1224
387 1 80 79 81
388 1 1112 1111 1113
389 1 1436 1435 1437
390 1 617 616 618
391 1 203 202 204
392 1 242 241 243
393 1 1544 1543 1545
394 1 116 115 117
395 1 140 139 141
396 1 479 478 480
397 1 1187 1186 1188
398 1 1382 1381 1383
399 1 473 472 474
400 1 101 100 102
401 1 1271 1270 1272
402 1 437 436 438
403 1 1640 1639 1641
404 1 1403 1402 1404
405 1 1394 1393 1395
406 1 893 892 894
407 1 77 76 78
408 1 878 877 879
409 1 716 715 717
410 1 1169 1168 1170
411 1 1694 1693 1695
412 1 1277 1276 1278
413 1 230 229 231
414 1 1466 1465 1467
415 1 212 211 213
416 1 1649 1648 1650
417 1 536 535 537
418 1 581 580 582
419 1 1088 1087 1089
420 1 410 409 411
421 1 1721 1720 1722
422 1 1658 1657 1659
423 1 170 169 171
424 1 761 760 762
425 1 1022 1021 1023
426 1 764 763 765
427 1 497 496 498
428 1 1220 1219 1221
429 1 1472 1471 1473
430 1 1676 1675 1677
431 1 1547 1546 1548
432 1 722 721 723
433 1 1607 1606 1608
434 1 161 160 162
435 1 638 637 639
436 1 1121 1120 1122
437 1 1451 1450 1452
438 1 1124 1123 1125
439 1 1601 1600 1602
440 1 626 625 627
441 1 1448 1447 1449
442 1 572 571 573
443 1 641 640 642
444 1 110 109 111
445 1 1730 1729 1731
446 1 1028 1027 1029
447 1 1778 1777 1779
448 1 569 568 570
449 1 1004 1003 1005
450 1 1442 1441 1443
451 1 1343 1342 1344
452 1 1154 1153 1155
453 1 623 622 624
454 1 461 460 462
455 1 995 994 996
456 1 1655 1654 1656
457 1 608 607 609
458 1 155 154 156
459 1 1415 1414 1416
460 1 1052 1051 1053
461 1 281 280 282
462 1 815 814 816
463 1 362 361 363
464 1 530 529 531
465 1 65 64 66
466 1 41 40 42
467 1 32 31 33
468 1 119 118 120
469 1 1172 1171 1173
470 1 332 331 333
471 1 746 745 747
472 1 1589 1588 1590
473 1 1400 1399 1401
474 1 173 172 174
475 1 503 502 504
476 1 566 565 567
477 1 1712 1711 1713
478 1 902 901 903
479 1 1460 1459 1461
480 1 770 769 771
481 1 593 592 594
482 1 848 847 849
483 1 1205 1204 1206
484 1 29 28 30
485 1 1079 1078 1080
486 1 113 112 114
487 1 350 349 351
488 1 1739 1738 1740
489 1 1760 1759 1761
490 1 1016 1015 1017
491 1 1376 1375 1377
492 1 1256 1255 1257
493 1 518 517 519
494 1 692 691 693
495 1 1127 1126 1128
496 1 1265 1264 1266
497 1 1682 1681 1683
498 1 944 943 945
499 1 683 682 684
500 1 755 754 756
501 1 734 733 735
502 1 1241 1240 1242
503 1 812 811 813
504 1 1226 1225 1227
505 1 1559 1558 1560
506 1 1232 1231 1233
507 1 209 208 210
508 1 224 223 225
509 1 1229 1228 1230
510 1 1013 1012 1014
511 1 1799 1798 1800
512 1 1061 1060 1062
513 1 1532 1531 1533
514 1 527 526 528
515 1 1010 1009 1011
516 1 869 868 870
517 1 293 292 294
518 1 1586 1585 1587
519 1 968 967 969
520 1 1763 1762 1764
521 1 179 178 180
522 1 278 277 279
523 1 1145 1144 1146
524 1 989 988 990
525 1 1250 1249 1251
526 1 1175 1174 1176
527 1 1103 1102 1104
528 1 1184 1183 1185
529 1 629 628 630
530 1 1670 1669 1671
531 1 743 742 744
532 1 1040 1039 1041
533 1 938 937 939
534 1 167 166 168
535 1 689 688 690
536 1 62 61 63
537 1 1340 1339 1341
538 1 1115 1114 1116
539 1 1001 1000 1002
540 1 1421 1420 1422
541 1 1700 1699 1701
542 1 1637 1636 1638
543 1 134 133 135
544 1 740 739 741
545 1 1454 1453 1455
546 1 788 787 789
547 1 1439 1438 1440
548 1 446 445 447
549 1 2 1 3
550 1 1181 1180 1182
551 1 1247 1246 1248
552 1 599 598 600
553 1 152 151 153
554 1 323 322 324
555 1 779 778 780
556 1 839 838 840
557 1 1733 1732 1734
558 1 1370 1369 1371
559 1 1646 1645 1647
560 1 1139 1138 1140
561 1 1298 1297 1299
562 1 515 514 516
563 1 452 451 453
564 1 365 364 366
565 1 1793 1792 1794
566 1 824 823 825
567 1 1208 1207 1209
568 1 782 781 783
569 1 956 955 957
570 1 287 286 288
571 1 800 799 801
572 1 1493 1492 1494
573 1 701 700 702
574 1 197 196 198
575 1 1538 1537 1539
576 1 1463 1462 1464
577 1 1529 1528 1530
578 1 602 601 603
579 1 1556 1555 1557
580 1 1757 1756 1758
581 1 1292 1291 1293
582 1 752 751 753
583 1 896 895 897
584 1 650 649 651
585 1 1592 1591 1593
586 1 1049 1048 1050
587 1 887 886 888
588 1 914 913 915
589 1 533 532 534
590 1 977 976 978
591 1 908 907 909
592 1 596 595 597
593 1 1106 1105 1107
594 1 929 928 930
595 1 404 403 405
596 1 353 352 354
597 1 467 466 468
598 1 50 49 51
599 1 1508 1507 1509
600 1 1745 1744 1746
