LAMMPS data file via write_data, version 7 Feb 2024, timestep = 2000, units = real

1800 atoms
2 atom types
1200 bonds
1 bond types
600 angles
1 angle types

1.837017194044984 28.162982805954137 xlo xhi
1.837017194044984 28.162982805954137 ylo yhi
1.837017194044984 28.162982805954137 zlo zhi

Masses

1 15.9994
2 1.008

Pair Coeffs # lj/cut/coul/long

1 0.1553 3.166
2 0 0

Bond Coeffs # harmonic

1 600 1

Angle Coeffs # harmonic

1 75 109.47

Atoms # full

1496 499 2 0.4238 3.1273118121275925 6.426403599825466 3.0275182710727075 0 1 0
1495 499 1 -0.8476 3.3266214587899463 7.231968610915238 3.5854977115386197 0 1 0
1497 499 2 0.4238 4.275342434548261 7.1936569581237 3.899283660718088 0 1 0
271 91 1 -0.8476 5.284716495753939 4.236022674728277 7.201500782777995 1 0 0
860 287 2 0.4238 7.920281702858915 5.175939321967777 2.5065973892018287 -1 1 0
859 287 1 -0.8476 7.508487436709997 5.999671562527253 2.116865762079379 -1 1 0
861 287 2 0.4238 7.07991042361741 6.534568603164773 2.845018862995956 -1 1 0
1031 344 2 0.4238 6.6174798647468895 7.210020473379494 4.986336994280914 0 -1 1
1325 442 2 0.4238 3.1050236998261505 4.492520060245785 6.243466342365479 0 1 0
1030 344 1 -0.8476 6.120917066895274 7.456895293872516 4.154183651903144 0 -1 1
542 181 2 0.4238 4.764029173006656 3.8251938417507354 5.627371500255908 1 0 -1
1032 344 2 0.4238 5.959143032376727 8.443659176621606 4.142918038771891 0 -1 1
309 103 2 0.4238 7.4430957218395974 2.9206579123136605 3.4270056062223184 0 1 1
308 103 2 0.4238 8.627506431777926 3.7582625664446287 4.176816478602054 0 1 1
307 103 1 -0.8476 8.165161240911988 3.6014755912563934 3.3040880926785077 0 1 1
415 139 1 -0.8476 4.575282810483868 5.117528562360621 10.009205401075798 -2 0 0
273 91 2 0.4238 6.029144535993105 4.744528377939461 6.768777198655205 1 0 0
1480 494 1 -0.8476 7.2989106307207585 5.951687321640347 6.118146845134759 1 1 1
1329 443 2 0.4238 2.07376365603619 8.303849288562299 4.154268100269581 0 2 1
272 91 2 0.4238 5.614536705937467 3.333591131084907 7.478695778493373 1 0 0
1482 494 2 0.4238 7.453047747641431 6.402516586686215 6.99734857129279 1 1 1
416 139 2 0.4238 4.988397719662482 4.7762721956465075 9.164882530124586 -2 0 0
767 256 2 0.4238 2.286659437065303 4.310437771028861 2.8907549722874633 1 0 0
768 256 2 0.4238 2.942198867837873 3.4227165389845355 4.094435009307115 1 0 0
1481 494 2 0.4238 7.990302737786932 5.242223800634921 5.981619555811182 1 1 1
1348 450 1 -0.8476 11.403479428682383 2.5383603151884433 4.258295312493939 1 3 1
289 97 1 -0.8476 7.275558160647761 14.929055437970725 12.344947767307326 1 -1 0
1137 379 2 0.4238 11.68508138715659 6.046751773973716 4.88207017006164 0 1 -1
1390 464 1 -0.8476 13.333474741327008 3.3115614994702858 7.281824969052572 1 0 -1
1135 379 1 -0.8476 11.618562503151187 5.309717750662346 5.554644780177718 0 1 -1
1391 464 2 0.4238 14.083615627202537 2.969054983417172 7.847491249728458 1 0 -1
376 126 1 -0.8476 14.31216373734501 3.629673907521139 4.849887895889645 0 0 0
1349 450 2 0.4238 11.518005958645778 3.5178615470226973 4.4240115648065785 1 3 1
378 126 2 0.4238 13.922592457663889 2.913878965793282 4.270343392377085 0 0 0
1136 379 2 0.4238 11.904292022587336 5.649409639833117 6.450730171286088 0 1 -1
1405 469 1 -0.8476 9.182266970556086 4.026215137502097 5.705914517041853 0 -1 0
656 219 2 0.4238 12.605210378981937 6.36132268898015 3.166943957643369 1 -1 -1
657 219 2 0.4238 11.336732628987603 7.328603041340944 2.8177162388099988 1 -1 -1
1406 469 2 0.4238 9.906816717859503 4.670824518118716 5.949856034500001 0 -1 0
1407 469 2 0.4238 9.287058409322329 3.1885166434081627 6.241900329647597 0 -1 0
590 197 2 0.4238 9.44157553378771 3.523790092476873 2.1636797914883563 0 1 1
655 219 1 -0.8476 11.615413446983366 6.39145126693666 3.02767804495093 1 -1 -1
1392 464 2 0.4238 12.997909823396277 4.174340730898489 7.659991076367794 1 0 -1
442 148 1 -0.8476 12.293484574058505 5.763747791438386 8.050729012613223 0 2 3
444 148 2 0.4238 13.099694952342805 6.127487731440534 8.517331823858138 0 2 3
591 197 2 0.4238 10.999019348808005 3.0606123507968825 2.0010080776264267 0 1 1
377 126 2 0.4238 13.745137822349715 3.743410591891757 5.6656977094388745 0 0 0
512 171 2 0.4238 14.513913759648963 8.807690489653837 5.286714312797568 -1 -2 1
1619 540 2 0.4238 12.146262352936164 9.735777957862338 4.573307514006547 1 -1 2
1064 355 2 0.4238 7.956911667196183 5.790970107835378 14.010955545928404 1 2 -1
1548 516 2 0.4238 24.19580367132775 13.493823434511729 10.634096494660145 0 0 0
1605 535 2 0.4238 14.481105104986836 5.186407298554242 4.1259955498909235 -1 1 0
1603 535 1 -0.8476 14.453380019378807 6.048566277937353 3.620115464706437 -1 1 0
818 273 2 0.4238 17.700532865547878 8.136809354202759 4.614700865457437 0 0 -1
819 273 2 0.4238 16.958396097840428 7.765695383264761 6.021162416933662 0 0 -1
817 273 1 -0.8476 17.829594370445804 8.016249042083166 5.598981582143859 0 0 -1
346 116 1 -0.8476 16.991474069166898 2.8683023156581218 5.133541222221373 0 0 1
348 116 2 0.4238 17.02280682564507 2.902252403081402 6.132473545229244 0 0 1
347 116 2 0.4238 16.115840285977303 3.2313402948877785 4.814998490603872 0 0 1
1483 495 1 -0.8476 18.70414364121242 5.856963734800065 8.407707569674104 0 0 1
1197 399 2 0.4238 22.550182804857293 4.701898394661678 8.60252206125648 0 1 0
1485 495 2 0.4238 18.51669037990782 6.7707464645371225 8.768072551433153 0 0 1
1706 569 2 0.4238 15.232420477626322 6.437804192600603 9.738627210019661 0 1 1
1305 435 2 0.4238 21.472218044641178 5.54449362053038 3.2547280251628457 0 1 1
1303 435 1 -0.8476 20.732271129409924 6.214802480557742 3.1984652213207707 0 1 1
1484 495 2 0.4238 19.335918897116745 5.926273880833076 7.63565989849544 0 0 1
1705 569 1 -0.8476 14.827471855989094 6.577591518818764 8.835036429673208 0 1 1
1707 569 2 0.4238 15.476139369334861 7.065504879059587 8.25093789589709 0 1 1
513 171 2 0.4238 14.634244653752962 7.190419260844801 5.095453201374898 -1 -2 1
879 293 2 0.4238 20.598737829720793 7.700972175126114 3.8763194973992214 1 1 1
511 171 1 -0.8476 14.853615159008324 7.96028660334739 5.694770261113667 -1 -2 1
1604 535 2 0.4238 15.126715586944332 6.023262475156777 2.88121119820165 -1 1 0
1763 588 2 0.4238 17.80204925601257 4.217616629673441 8.059423912556706 -1 0 1
693 231 2 0.4238 20.21133940399251 2.241069519246243 3.94680860297836 -1 0 0
1762 588 1 -0.8476 17.115586754236904 3.4909487025194754 8.03251750067757 -1 0 1
1634 545 2 0.4238 21.09979095230823 2.4145069605451046 6.225862002755036 0 2 1
692 231 2 0.4238 18.835889309064694 2.4523779220437842 4.80127506967141 -1 0 0
691 231 1 -0.8476 19.832191254874253 2.5351999860322882 4.824153696227965 -1 0 0
1196 399 2 0.4238 22.12285468063143 3.130427749488334 8.482117698880867 0 1 0
1195 399 1 -0.8476 22.41978927815737 3.8500394718117286 9.109803065199014 0 1 0
766 256 1 -0.8476 2.120104100548991 3.5729583058013676 3.545265017945581 1 0 0
16 6 1 -0.8476 26.19575499389089 4.2805062681381845 4.907564207657885 -2 -1 2
539 180 2 0.4238 19.775314369441542 6.900570789833062 5.962752367058245 0 1 0
550 184 1 -0.8476 23.033290020989487 4.673335236920854 3.9375607961496812 -1 1 1
554 185 2 0.4238 22.075069841438072 6.674942481294767 9.445094208957741 1 0 0
17 6 2 0.4238 26.40333714488709 4.289460042205619 5.885740830770022 -2 -1 2
538 180 1 -0.8476 20.22396886072077 6.021319506304206 6.122837129460087 0 1 0
1324 442 1 -0.8476 2.4587085224286622 5.149794244963406 6.63111012599857 0 1 0
18 6 2 0.4238 27.031806246423674 4.095382632714386 4.391087982382478 -2 -1 2
575 192 2 0.4238 21.712851173542205 6.002071593842262 7.009150396997621 -1 1 0
1524 508 2 0.4238 24.573625012258045 3.1028151648444156 4.6049835697236245 -1 0 0
1679 560 2 0.4238 25.41777255790791 5.6708070834864825 4.325465309239785 1 0 -1
375 125 2 0.4238 27.864364607089914 6.766038460498252 7.012025481440455 0 1 1
102 34 2 0.4238 23.33257759543957 12.093867997423029 2.550368863729625 0 2 1
1522 508 1 -0.8476 24.02569250826438 2.468406710544775 5.150232558631318 -1 0 0
574 192 1 -0.8476 22.498104288676387 5.984128777994965 7.628065374084448 -1 1 0
551 184 2 0.4238 23.403406570375964 5.601410785463946 3.89645119406904 -1 1 1
552 184 2 0.4238 23.343331985521015 4.227747170603461 4.7773974123245315 -1 1 1
1326 442 2 0.4238 28.095624849460673 4.662809631200414 7.167820140698342 -1 1 0
1635 545 2 0.4238 22.71554976425883 2.1779992575984712 6.229613761059156 0 2 1
1633 545 1 -0.8476 21.879262934725148 2.1108429097479946 6.773777710494188 0 2 1
1678 560 1 -0.8476 25.190732010363536 6.595777328654226 4.020698725128847 1 0 -1
540 180 2 0.4238 20.062100939777647 5.417525249846277 5.34230411848163 0 1 0
1680 560 2 0.4238 25.75047335766032 6.831792359050039 3.226352086695081 1 0 -1
164 55 2 0.4238 26.430513584702982 2.6649327224720367 7.727949593589826 -1 0 0
576 192 2 0.4238 23.235184507127858 6.542679630736057 7.247626460172619 -1 1 0
370 124 1 -0.8476 2.7858137404670287 2.039168529420459 7.12168733657164 3 1 0
165 55 2 0.4238 25.83816728652106 4.0667347683017425 8.320151792213059 -1 0 0
163 55 1 -0.8476 26.60576360945175 3.643158889508367 7.839132338436642 -1 0 0
1599 533 2 0.4238 25.61201050400186 10.290025539183294 14.843689359514752 0 1 1
494 165 2 0.4238 14.512643986344079 14.847520305100586 6.209114604879428 -1 1 0
1427 476 2 0.4238 10.460457356985266 14.890624544784997 6.567420128077078 -1 1 0
1327 443 1 -0.8476 27.68451493666883 8.784906618197903 4.66127139345944 -1 2 1
1287 429 2 0.4238 6.610120316839406 10.893024899528882 4.616868161936011 2 -1 0
1775 592 2 0.4238 2.5649808590849554 10.608619739002283 4.913990638722598 -2 -1 0
1285 429 1 -0.8476 5.797647822243544 10.310027475736414 4.615245980067801 2 -1 0
1286 429 2 0.4238 5.0488583303832915 10.780528232081274 5.082091191061058 2 -1 0
235 79 1 -0.8476 2.1490145561378737 13.485369973069503 7.039075963762915 -1 0 0
1776 592 2 0.4238 2.952869580210187 12.03771627288685 5.60236007746076 -2 -1 0
1774 592 1 -0.8476 3.310219051149195 11.15569490281618 5.2952117484740855 -2 -1 0
634 212 1 -0.8476 13.940071987056514 1.8502412530315908 2.0697837657444635 0 1 0
232 78 1 -0.8476 7.195721316198344 13.176288224915158 4.264050912731014 -2 1 0
234 78 2 0.4238 6.421622441244 13.589217059242536 3.784195956694495 -2 1 0
987 329 2 0.4238 5.906535824985833 9.310613521311875 14.77885840998938 1 1 0
1723 575 1 -0.8476 8.549666999202843 11.01259178758998 2.2139125385918965 0 -1 1
236 79 2 0.4238 2.6025015468806685 13.786818121846274 7.877812297766466 -1 0 0
237 79 2 0.4238 27.715215440383894 12.87786789467524 7.270806287509479 -2 0 0
729 243 2 0.4238 3.837010015359946 14.825496538874892 8.748628462668721 1 -1 0
372 124 2 0.4238 3.3736725505871448 2.0738059420902317 6.3134655243789535 3 1 0
727 243 1 -0.8476 3.2016443078516517 14.282867579812368 9.298050272210338 1 -1 0
1036 346 1 -0.8476 7.087944251759005 11.145078427504764 7.568023478089866 1 0 0
1629 543 2 0.4238 8.569906349039433 11.83130817286601 6.6791882943980445 1 0 1
621 207 2 0.4238 5.62980392866678 14.40614737548215 7.193747175226716 1 1 -1
619 207 1 -0.8476 6.250036988369221 13.668957366137649 6.925674801949495 1 1 -1
1038 346 2 0.4238 6.336500721133943 10.520606061712908 7.3550283414759114 1 0 0
1037 346 2 0.4238 6.767744321296907 12.089504120031863 7.493644273480382 1 0 0
1627 543 1 -0.8476 9.518964304712192 12.078735526189156 6.4840761930973585 1 0 1
620 207 2 0.4238 6.623700784306002 13.861176882936611 6.018245828080495 1 1 -1
11 4 2 0.4238 4.017256590386979 9.966965192401917 6.89316850008741 0 1 -2
315 105 2 0.4238 14.161460855291331 8.748858195098105 7.137036076426274 1 1 1
313 105 1 -0.8476 13.840456249799571 9.387920811985897 7.836003917103712 1 1 1
1669 557 1 -0.8476 17.320341927398985 1.9246754167887719 12.02321804642387 0 0 0
1433 478 2 0.4238 5.240828984841562 1.8763465428724722 11.41577412811265 1 1 -2
1612 538 1 -0.8476 15.533963805551322 13.131980203115445 2.761183518156264 0 2 0
440 147 2 0.4238 11.596222673146277 14.306745627107722 3.1521856242075295 0 1 1
486 162 2 0.4238 10.153310864765075 11.329829775254092 5.12609263119175 0 1 2
1628 543 2 0.4238 9.55704875536832 13.023833020480396 6.159514415531562 1 0 1
885 295 2 0.4238 10.612442378891465 10.500726411744504 6.755678107789804 0 0 -1
883 295 1 -0.8476 11.12550692497064 9.881926274984654 7.350532360819596 0 0 -1
1618 540 1 -0.8476 12.989936619704284 9.311385517302076 4.24451344952709 1 -1 2
1620 540 2 0.4238 13.203820348032155 9.658585674383529 3.3314382930205886 1 -1 2
889 297 1 -0.8476 15.416802523398921 13.224195961758891 5.592062206067404 1 2 1
1519 507 1 -0.8476 13.094947821316191 12.16186158938674 6.223522597769331 -1 0 0
233 78 2 0.4238 7.968748191962884 13.810627598866414 4.257488581081473 -2 1 0
890 297 2 0.4238 14.627245600993366 12.655816095692437 5.823458714847888 1 2 1
1520 507 2 0.4238 12.538023632731289 11.352274804735968 6.409008937471435 -1 0 0
355 119 1 -0.8476 6.525757629548202 1.8735599327086154 7.8714912601763976 2 1 0
485 162 2 0.4238 9.904536196851469 10.60235404568424 3.685426957409538 0 1 2
1521 507 2 0.4238 12.986162706725487 12.819244001885343 6.969187059447816 -1 0 0
1043 348 2 0.4238 11.838809871094405 12.251481080380387 3.841206220398492 0 0 1
1044 348 2 0.4238 12.65278181300648 11.970198484253661 2.453778270499983 0 0 1
1042 348 1 -0.8476 12.42345884837627 12.660137902118516 3.1403601111026274 0 0 1
891 297 2 0.4238 15.556652999683507 13.213260894073118 4.601949911073198 1 2 1
1563 521 2 0.4238 11.74280960067943 14.32460903189993 12.432521184115148 1 0 1
1613 538 2 0.4238 15.658254347584235 14.076249944748762 2.456377765694933 0 2 0
132 44 2 0.4238 9.518069350355697 1.8372886544780087 8.744078021878845 0 1 1
1614 538 2 0.4238 14.557130951975488 12.93298835300663 2.839922687135827 0 2 0
1561 521 1 -0.8476 12.528145619081098 13.774944818959046 12.717331190811862 1 0 1
612 204 2 0.4238 2.131753606601048 2.964811145159848 8.67813188598762 2 -1 0
484 162 1 -0.8476 10.579432677490743 10.792220941577614 4.398494804453639 0 1 2
1275 425 2 0.4238 24.257162952687658 4.289355573593852 2.4939056137391793 0 0 0
996 332 2 0.4238 26.35988028817065 13.262936095337677 14.997477435251792 -1 -1 0
1301 434 2 0.4238 16.088329634408563 11.49473177473819 2.067733265393658 0 -1 0
1300 434 1 -0.8476 16.22932718152193 10.528244266271459 1.8532067916724568 0 -1 0
1213 405 1 -0.8476 20.090446010211156 8.799907740486923 7.52397316666269 1 -1 -1
1214 405 2 0.4238 19.9179831082552 8.585410842117602 6.56259506324161 1 -1 -1
1695 565 2 0.4238 19.297335273387652 9.61978007427473 3.1431115762563544 1 -1 1
878 293 2 0.4238 21.396058191670946 8.94792901937982 4.566250984495053 1 1 1
1543 515 1 -0.8476 21.790399496911057 11.594136640178082 6.269397999036422 0 -1 0
1545 515 2 0.4238 21.04846447503009 11.493998394502773 6.932349639793473 0 -1 0
1280 427 2 0.4238 22.562449872990268 10.425240403047425 4.993919547582572 0 0 0
139 47 1 -0.8476 17.394311681259765 13.00554940391382 7.508506018005824 -3 -2 0
1544 515 2 0.4238 21.72082738194194 12.486543981043411 5.823562933246473 0 -1 0
1186 396 1 -0.8476 19.603522817449655 11.522648805070954 8.11172485883146 0 -1 0
1302 434 2 0.4238 17.200928355900224 10.30667917029978 1.9362736301351824 0 -1 0
1188 396 2 0.4238 18.746862248467647 12.010965795345763 7.945353564060351 0 -1 0
1215 405 2 0.4238 19.888484075678832 9.764846842279882 7.691615525165965 1 -1 -1
141 47 2 0.4238 16.771065166338968 12.298481207958112 7.84259951852243 -3 -2 0
1694 565 2 0.4238 19.488640269992942 10.856216378492153 2.093704963109734 1 -1 1
1187 396 2 0.4238 20.05706932584467 11.909315284748036 8.914709706886548 0 -1 0
877 293 1 -0.8476 20.49546246778314 8.545765254856141 4.401351786148039 1 1 1
1693 565 1 -0.8476 18.826772634244193 10.34781617433273 2.6445783160606595 1 -1 1
140 47 2 0.4238 17.131638995830958 13.270033395079183 6.5805775009588645 -3 -2 0
116 39 2 0.4238 19.015237270235037 12.268108645711491 3.67068683824884 0 0 1
543 181 2 0.4238 4.974177263595141 2.859052321045901 4.327741787724012 1 0 -1
115 39 1 -0.8476 18.545625318685495 13.150739127258456 3.691389565471008 0 0 1
117 39 2 0.4238 17.557610014764013 13.001745828124816 3.7317278754530214 0 0 1
90 30 2 0.4238 18.674253313946345 8.760268669246367 8.659553125559206 0 0 1
411 137 2 0.4238 16.87685223018221 14.200090971982272 8.624960508984524 0 0 -1
437 146 2 0.4238 19.847800753007153 13.646942325966371 4.641504388684721 -1 1 0
100 34 1 -0.8476 24.080947461439624 11.43125929360416 2.52046197946265 0 2 1
226 76 1 -0.8476 2.6018425484307617 12.543303514052338 2.0261931475220174 0 0 0
648 216 2 0.4238 5.636635396479042 14.370123943928345 11.913789659028703 2 0 1
1198 400 1 -0.8476 10.24932785887255 13.58940969603016 14.870167837080551 0 1 0
1279 427 1 -0.8476 22.845102702294653 9.756306125241101 4.3064349465621445 0 0 0
555 185 2 0.4238 21.063316075907466 7.88165363160681 9.0128567436607 1 0 0
899 300 2 0.4238 26.651443639644377 8.523927015913875 2.886015814280266 -1 0 1
1673 558 2 0.4238 25.625733616379446 7.597102207822296 6.7236981271784035 1 1 0
374 125 2 0.4238 27.22637874732091 7.935027996520602 7.957046853289719 0 1 1
373 125 1 -0.8476 27.306494645575892 7.595931798065368 7.019712230363396 0 1 1
1672 558 1 -0.8476 24.656981088943876 7.611115809786449 6.4760646800678305 1 1 0
1674 558 2 0.4238 24.55870540286086 7.403586649520662 5.502784868002095 1 1 0
1328 443 2 0.4238 27.421169672227567 8.2442202856996 5.460212994785752 -1 2 1
1281 427 2 0.4238 23.494635163444894 10.180790040622973 3.675624459585115 0 0 0
898 300 1 -0.8476 26.401939028603817 8.10582909307034 2.0125502565907207 -1 0 1
1124 375 2 0.4238 25.224257986358136 13.755569997160917 6.494246059315535 -1 1 0
1395 465 2 0.4238 25.9822327023059 11.273850329735728 7.941220820601793 0 0 0
1393 465 1 -0.8476 26.97592714356136 11.274368311457769 8.053344484508768 0 0 0
1277 426 2 0.4238 24.23603977933629 9.359823242211583 7.518023437718297 0 0 0
717 239 2 0.4238 24.647711397226306 11.753615504682093 6.118712939727183 0 1 -2
1221 407 2 0.4238 23.877269489186666 10.718428444058887 9.64487843505405 0 1 1
1278 426 2 0.4238 23.166585712264276 10.569311085806866 7.2730050966656785 0 0 0
227 76 2 0.4238 2.1249828122444203 12.399089047885363 2.893261600613495 0 0 0
715 239 1 -0.8476 24.85440173438143 12.412068335174617 5.395028273404634 0 1 -2
716 239 2 0.4238 24.327406507831487 12.183922137913472 4.576355113660879 0 1 -2
1276 426 1 -0.8476 24.106684648811715 10.351275422302745 7.535064506917989 0 0 0
1283 428 2 0.4238 10.079094878878236 2.3379328111759827 13.71296253133499 1 1 0
1394 465 2 0.4238 27.2692854268084 10.39579534918791 8.430241620355389 0 0 0
230 77 2 0.4238 28.001869862617575 13.481728699096726 5.349535479701598 0 1 1
438 146 2 0.4238 20.61913908126741 14.57286831755575 5.7434684315067965 -1 1 0
971 324 2 0.4238 4.519997538865044 4.72775742875157 11.797896921537554 0 0 0
240 80 2 0.4238 5.121826508185285 8.03212567647793 10.37943470974266 2 0 -2
491 164 2 0.4238 6.983661708452499 6.9034712514561445 9.21352459687193 1 -1 0
238 80 1 -0.8476 5.529872291505835 7.910297496192397 9.47463800517364 2 0 -2
1498 500 1 -0.8476 5.166577168732926 7.779450096072296 12.312435666306197 1 1 1
492 164 2 0.4238 7.827366314047345 5.505738207930584 9.17988005383961 1 -1 0
490 164 1 -0.8476 7.759415772276629 6.427804527946453 8.798859613007782 1 -1 0
1499 500 2 0.4238 5.843651448747139 8.343372950036764 12.78526012838733 1 1 1
1500 500 2 0.4238 5.557591524680316 6.879115248114899 12.121372560150338 1 1 1
4 2 1 -0.8476 7.407060426752715 3.7142844012482694 9.904350632734644 -1 0 0
970 324 1 -0.8476 4.307617364063203 4.956356532656517 12.747969621184783 0 0 0
5 2 2 0.4238 7.3861983553862 3.1692090250817366 10.74247809318707 -1 0 0
1651 551 1 -0.8476 27.93830305819088 5.7038091217615605 13.279985920062934 -1 0 -1
417 139 2 0.4238 3.990427984802412 5.901479150953098 9.80095831844301 -2 0 0
972 324 2 0.4238 4.683429860545119 4.253501053342457 13.351923556249243 0 0 0
1653 551 2 0.4238 27.78244806111761 5.915941507129859 14.244718590369748 -1 0 -1
1652 551 2 0.4238 2.5805804409071076 5.499546647818552 13.135824657356425 0 0 -1
1787 596 2 0.4238 8.314813039415277 6.423400680854097 11.801981477022691 0 -1 -1
1788 596 2 0.4238 7.54056442238092 5.11316930090855 11.209985373257672 0 -1 -1
104 35 2 0.4238 1.849922361466291 3.798293465576476 12.571906042955973 1 1 0
6 2 2 0.4238 7.081765774961626 3.1600984545741424 9.13815134410488 -1 0 0
409 137 1 -0.8476 16.576660034894925 14.985569926439634 9.166169847271899 0 0 -1
103 35 1 -0.8476 27.74047855259302 2.995402660252804 12.164738567519578 0 1 0
611 204 2 0.4238 3.3703092818878915 3.352682901898368 9.66917281987747 2 -1 0
105 35 2 0.4238 27.913833475635002 2.985675627541644 11.179926622120165 0 1 0
610 204 1 -0.8476 2.5055081391020626 2.8554683290896317 9.599192651527543 2 -1 0
239 80 2 0.4238 5.102683298064177 8.542711739115735 8.828446796886947 2 0 -2
1243 415 1 -0.8476 5.199967356780574 2.8838749593873994 14.337806111250455 1 0 -1
1432 478 1 -0.8476 6.086470319448173 2.101002469731207 11.899944473815328 1 1 -2
1350 450 2 0.4238 11.66221136987636 2.0289678707362255 5.079013272599499 1 3 1
1097 366 2 0.4238 10.035949815010216 6.411941179850682 14.594002523432934 0 1 0
443 148 2 0.4238 11.504660756570209 6.346955444463915 8.244702984523112 0 2 3
525 175 2 0.4238 14.076720590042745 4.263541119274846 12.940239345674014 0 1 1
523 175 1 -0.8476 13.93256090673606 4.6969089197906 12.050626833578285 0 1 1
1562 521 2 0.4238 13.125748816217909 13.615252476258886 11.931602935110172 1 0 1
1786 596 1 -0.8476 8.049015502052285 5.477888871777859 11.990022024715726 0 -1 -1
524 175 2 0.4238 13.904538028484545 5.690033237060293 12.164288293612085 0 1 1
1033 345 1 -0.8476 13.432991236716513 9.505915575169553 11.118483421650929 0 1 0
392 131 2 0.4238 4.333733433802111 10.465467048811828 2.732764357214338 1 1 -1
1096 366 1 -0.8476 10.925982269016965 6.839665180338724 14.436221858012996 0 1 0
1054 352 1 -0.8476 10.158137611883525 7.587113053010262 8.978135765506554 0 1 1
339 113 2 0.4238 12.454946729824893 6.989070138870289 13.001942250772068 1 1 0
679 227 1 -0.8476 11.80952561760997 4.032635602010649 10.30816353341948 1 0 2
681 227 2 0.4238 11.766220228776977 4.684102279029767 9.55072305656376 1 0 2
1056 352 2 0.4238 10.264678526533746 7.71026453285774 9.964788135894981 0 1 1
1611 537 2 0.4238 10.53843307909088 3.73000540898632 11.767509859245337 -1 1 1
1055 352 2 0.4238 9.202413859113642 7.379692385486757 8.769404320213626 0 1 1
1609 537 1 -0.8476 9.762519010923842 3.34540739034344 12.267551740023375 -1 1 1
337 113 1 -0.8476 13.247791883093958 7.155787719358898 12.415766342720525 1 1 0
680 227 2 0.4238 12.671649539931465 4.151103925112566 10.800818138118563 1 0 2
338 113 2 0.4238 13.286810618044207 8.125785038282649 12.175800885778083 1 1 0
1610 537 2 0.4238 9.009828086932634 4.003762635807013 12.272534892886899 -1 1 1
1351 451 1 -0.8476 14.137888553865594 4.002173533373989 14.645294794044968 0 1 1
884 295 2 0.4238 10.666551952170147 8.99406363857643 7.383106659264262 0 0 -1
1725 575 2 0.4238 7.98642963283782 11.517637939912401 2.867894318490165 0 -1 1
1565 522 2 0.4238 14.766012722739477 3.7153203144692237 10.923166038784842 -3 2 0
1123 375 1 -0.8476 25.218876881750248 14.425223031331948 7.236901111347305 -1 1 0
65 22 2 0.4238 16.14746608396859 10.162144139347301 13.89039986221473 0 0 1
1564 522 1 -0.8476 15.012975475992144 2.994504630894365 10.275528616730742 -3 2 0
1179 393 2 0.4238 2.8679519467033083 9.022288236716877 14.288696392530445 -1 2 -1
1670 557 2 0.4238 17.32746949678559 2.8976838838224066 12.25387873932588 0 0 0
1566 522 2 0.4238 15.335523918082131 2.191842747774792 10.77722219055071 -3 2 0
917 306 2 0.4238 17.878842649692825 4.908387024001275 12.159945409052321 -1 -1 0
916 306 1 -0.8476 17.55828040841033 5.029924203909284 13.099343506037338 -1 -1 0
918 306 2 0.4238 17.297345312008588 5.984743787537511 13.241584790526199 -1 -1 0
1142 381 2 0.4238 19.57793582963206 4.017013348651182 10.923430436344306 -1 0 1
1141 381 1 -0.8476 18.667890466552993 4.3918294935647 10.746425869777422 -1 0 1
1143 381 2 0.4238 18.705310953611892 4.996094432343172 9.950520640836938 -1 0 1
185 62 2 0.4238 21.467404892760083 3.0397631617455136 10.42534050293149 0 1 0
549 183 2 0.4238 20.181287796880024 7.448274657726052 11.062133597055755 0 2 0
429 143 2 0.4238 7.791094686933728 13.848259652910047 8.970008257497216 -1 -1 1
336 112 2 0.4238 17.104781653044846 4.378297674079959 14.47705400682821 1 1 0
1200 400 2 0.4238 10.706602655488252 13.540824955650498 13.982170371640326 0 1 0
548 183 2 0.4238 19.479585428169074 7.27466444427203 12.526408308167907 0 2 0
547 183 1 -0.8476 19.461125325699122 7.786839188857939 11.667725263339358 0 2 0
1034 345 2 0.4238 13.509920045237484 9.241594822024998 10.157121238986186 0 1 0
1549 517 1 -0.8476 24.722660910922695 5.938166923747375 14.968928765586893 0 -1 0
665 222 2 0.4238 20.091338545299433 7.228232002770497 14.604962478984302 0 0 1
469 157 1 -0.8476 20.492781962896558 5.941110809861323 13.795308047843108 1 0 0
471 157 2 0.4238 19.833791659549327 5.24255519957788 13.516467402934342 1 0 0
184 62 1 -0.8476 20.97741016036915 2.396186882359328 11.013315689703937 0 1 0
1426 476 1 -0.8476 9.791924796356403 14.624475187344594 5.872993155109029 -1 1 0
1764 588 2 0.4238 16.26716650560825 3.818340041931847 8.448448295144459 -1 0 1
231 77 2 0.4238 26.687697424088245 12.951898675835025 4.537835024002967 0 1 1
1341 447 2 0.4238 23.470212067491484 2.1498286857164914 14.149018371801537 0 1 -1
479 160 2 0.4238 22.691250748945116 14.331251081449379 2.4619901009227068 -1 2 0
64 22 1 -0.8476 15.827550153561228 10.660124485699974 14.696421115760176 0 0 1
1125 375 2 0.4238 24.27514705297054 14.615014887836741 7.507740098952945 -1 1 0
1408 470 1 -0.8476 5.0816908976586825 14.059476392326706 2.6523024735320275 0 0 1
687 229 2 0.4238 25.43198882600535 3.4706550232321423 12.700567989667316 0 1 -1
382 128 1 -0.8476 22.837077428548668 4.939509548865031 12.060462079964191 0 0 0
470 157 2 0.4238 21.38806901120883 5.730341555764701 13.402831069980015 1 0 0
686 229 2 0.4238 24.839736177037366 3.978053631862384 14.135284054692383 0 1 -1
384 128 2 0.4238 22.87811661091114 4.583080623051592 11.127041353248297 0 0 0
383 128 2 0.4238 23.39254214476038 4.364793522314296 12.661428404100395 0 0 0
685 229 1 -0.8476 24.61475097597912 3.521235738765268 13.274644943302803 0 1 -1
1059 353 2 0.4238 26.396114221736536 6.069498677783355 12.472012727113814 -2 0 0
381 127 2 0.4238 2.0883851070597537 7.625277599165971 12.702143892852668 1 1 0
1057 353 1 -0.8476 25.50928306836587 6.2658652930334355 12.05371668421778 -2 0 0
641 214 2 0.4238 19.611652836142927 14.545895598059351 14.5797052240748 0 -1 0
12 4 2 0.4238 4.161059785338146 10.084609040481464 8.51554553279692 0 1 -2
1446 482 2 0.4238 2.7070526063921108 11.482339374269458 8.937523113304232 0 0 0
1444 482 1 -0.8476 3.090774100057888 10.830424825116005 9.59156099515604 0 0 0
728 243 2 0.4238 3.6093834666519644 14.096189719659753 10.19186245074785 1 -1 0
1445 482 2 0.4238 3.3129228529313433 11.304611816379133 10.443498171396893 0 0 0
953 318 2 0.4238 7.271970563757338 10.46378856556593 10.584764742070142 0 0 0
952 318 1 -0.8476 8.044374123687955 10.163518118436329 10.025094798850136 0 0 0
866 289 2 0.4238 5.461393824545141 12.060608086097348 11.56868888386959 1 1 -1
954 318 2 0.4238 7.831411071313315 10.307033609841863 9.058632102135178 0 0 0
35 12 2 0.4238 9.16734097990012 12.134076106477377 12.59739095217244 0 0 0
34 12 1 -0.8476 9.3923239339172 12.015642858534095 11.630252665953002 0 0 0
1192 398 1 -0.8476 8.739343741368286 10.98679893215757 14.901646224490587 1 -1 0
934 312 1 -0.8476 4.075369146603121 11.840604125167529 14.897842079262977 2 0 -1
985 329 1 -0.8476 6.627915897461562 9.345516514132335 14.087199099963991 1 1 0
1193 398 2 0.4238 9.553524249520812 10.444254157926672 14.694872418520646 1 -1 0
1796 599 2 0.4238 2.8338663743598915 11.953326397428564 13.40894315732602 1 0 1
646 216 1 -0.8476 4.867663097386838 13.744989744327187 11.780036730963623 2 0 1
10 4 1 -0.8476 4.533406654693202 9.657240446225329 7.691704502795597 0 1 -2
647 216 2 0.4238 4.161922342113942 13.933830271551807 12.462876271609337 2 0 1
36 12 2 0.4238 8.855652244509143 11.260777363036736 11.253208501447293 0 0 0
865 289 1 -0.8476 5.88642699067517 11.165504099299007 11.703362270846508 1 1 -1
867 289 2 0.4238 6.319574750097122 11.134335595270368 12.60414645156093 1 1 -1
1795 599 1 -0.8476 2.383183018812095 11.637761150739957 12.573895667487273 1 0 1
1743 581 2 0.4238 8.590475173986796 8.780503193808187 11.08393592419685 -1 0 1
380 127 2 0.4238 3.5505433291625605 8.299720328996404 12.430396027988103 1 1 0
640 214 1 -0.8476 19.57446708324417 13.550720320203418 14.670498774205736 0 -1 0
1425 475 2 0.4238 24.136303587329 9.855182723486992 12.938519103114311 0 -1 0
1063 355 1 -0.8476 8.356597096020124 6.174129844655037 14.843686389368886 1 2 -1
314 105 2 0.4238 12.858021410489483 9.537717059655776 7.724721855133177 1 1 1
398 133 2 0.4238 7.478557346386331 14.527938492886454 14.194475630823135 -2 1 1
1035 345 2 0.4238 12.74888067308589 10.229332399938961 11.211550113735619 0 1 0
1337 446 2 0.4238 15.371752260513992 10.375602434016134 8.160161088687945 1 0 0
1742 581 2 0.4238 9.489997647720296 8.486819260176759 12.414813930268803 -1 0 1
986 329 2 0.4238 7.413947334967901 9.845793916264205 14.450348089150053 1 1 0
1741 581 1 -0.8476 8.892409589600328 8.076027201469342 11.72623666433686 -1 0 1
1554 518 2 0.4238 11.165053265234574 10.679437851548919 9.363483197915842 1 0 2
483 161 2 0.4238 11.049054183497306 8.730286825096737 14.002441368017418 -1 0 1
481 161 1 -0.8476 10.797373797298702 9.696465165533365 13.94625519987369 -1 0 1
1133 378 2 0.4238 14.979956679608632 9.840181226034993 11.681453758573165 -2 0 1
15 5 2 0.4238 5.121895793104302 6.678322062592238 14.530611492420915 2 -1 0
1553 518 2 0.4238 10.848227074983305 11.79856318890804 10.50969712892561 1 0 2
428 143 2 0.4238 8.486777156499192 13.288107724528372 10.337078997202008 -1 -1 1
246 82 2 0.4238 13.71897306610901 10.784573750967926 14.505334200916053 0 -1 -1
1552 518 1 -0.8476 11.554123875096963 11.420483676471639 9.910726451046633 1 0 2
482 161 2 0.4238 11.623598055723374 10.258712048518909 13.981378591801288 -1 0 1
1289 430 2 0.4238 13.976616680019331 13.361480181718914 9.30885061100007 -1 -2 3
1428 476 2 0.4238 10.192519497004549 14.738088727036429 4.963808966008728 -1 1 0
1245 415 2 0.4238 4.700554817698785 2.0641353493888928 14.618188243288662 1 0 -1
1304 435 2 0.4238 19.931613918546713 5.792543235090366 2.7734404271846347 0 1 1
245 82 2 0.4238 13.067859270816205 12.14073102649514 13.870105351439834 0 -1 -1
244 82 1 -0.8476 12.870314596546695 11.29458666768026 14.365096636010852 0 -1 -1
1290 430 2 0.4238 12.507833315179674 12.659544937086787 9.180052863510022 -1 -2 3
1288 430 1 -0.8476 13.208841593904332 13.181375019557999 8.693965591963996 -1 -2 3
1132 378 1 -0.8476 15.899521412981215 10.030254425000717 12.025362193853 -2 0 1
1134 378 2 0.4238 16.25915322105982 10.85010923916331 11.579825248668056 -2 0 1
876 292 2 0.4238 9.99239274060352 9.598868603134228 1.9417633322416383 0 -1 1
1721 574 2 0.4238 20.573294735550263 14.607798042217937 11.177460062404293 0 1 1
1474 492 1 -0.8476 14.36139069460248 14.680289558364326 10.711277799508991 0 -2 -1
291 97 2 0.4238 7.52369392217881 14.521511216950605 11.466121012669333 1 -1 0
1434 478 2 0.4238 5.867831021908175 2.420705741277997 12.821892562099041 1 1 -2
258 86 2 0.4238 23.9982096543052 7.957948937469871 11.877224933734487 -1 0 0
642 214 2 0.4238 19.109608117967277 13.160646199626212 13.87567274746923 0 -1 0
1547 516 2 0.4238 23.74682249992481 13.027186732837956 12.133193808130532 0 0 0
148 50 1 -0.8476 20.564878948413625 10.76421345069165 14.93760473984119 0 0 1
1661 554 2 0.4238 15.72900510759414 7.350636496876516 14.033134237216197 0 0 0
1660 554 1 -0.8476 16.46101507528535 7.4676194752555185 13.361958746001026 0 0 0
1662 554 2 0.4238 16.170145755230322 8.119624987343975 12.661755981047476 0 0 0
480 160 2 0.4238 21.84429874865212 13.640530944687475 3.6753345230045573 -1 2 0
541 181 1 -0.8476 4.30467759801894 3.376246985744298 4.860922556053351 1 0 -1
764 255 2 0.4238 19.92829128565309 9.697493602905196 11.911625761905734 -1 0 0
1675 559 1 -0.8476 16.19691476334353 13.639646260477038 14.231533438125172 1 0 0
89 30 2 0.4238 18.54359249761389 8.513781477348866 10.268527726678945 0 0 1
1338 446 2 0.4238 16.821010336110554 9.950384883590333 8.781021542300653 1 0 0
88 30 1 -0.8476 18.037221670981033 8.578438069064442 9.408638610151066 0 0 1
765 255 2 0.4238 20.6503887040373 10.59896676766475 13.065986300257523 -1 0 0
1336 446 1 -0.8476 16.26911938477047 10.713276570401886 8.444253414070964 1 0 0
211 71 1 -0.8476 18.43480630529046 12.864638453765055 12.333477500837004 1 0 1
535 179 1 -0.8476 16.145334937118776 12.43482646579418 10.881287995723898 0 0 1
582 194 2 0.4238 20.71353109679936 11.753169796079327 10.937681952726829 1 1 0
580 194 1 -0.8476 20.723552145987263 12.516910538440264 10.292236530619567 1 1 0
213 71 2 0.4238 17.705925740440982 12.682770461778427 11.673433336197753 1 0 1
1546 516 1 -0.8476 24.325656575730033 13.654733953169389 11.612486221251396 0 0 0
536 179 2 0.4238 15.54695889271909 13.232336737493101 10.958256273945821 0 0 1
1022 341 2 0.4238 21.86053559550865 12.026453956405158 14.059157134593066 0 0 2
212 71 2 0.4238 19.223259808509596 12.285065209851492 12.127476037324028 1 0 1
763 255 1 -0.8476 20.366729392994163 10.574680551019382 12.107368710654134 -1 0 0
318 106 2 0.4238 12.340989823704636 14.363999241739991 7.988972542246581 0 -2 1
537 179 2 0.4238 16.072002223461812 12.05068732384726 9.960928966793585 0 0 1
420 140 2 0.4238 23.66274671330512 2.1187304094245842 8.906446940656329 0 1 1
1676 559 2 0.4238 16.565855643181692 12.779866731893774 13.878458033129862 1 0 0
436 146 1 -0.8476 20.70376366375579 13.778908111101451 5.1414169786966 -1 1 0
874 292 1 -0.8476 10.801702481895077 9.017079987006209 2.0226351626158143 0 -1 1
1595 532 2 0.4238 26.559801458428048 8.48099296045132 10.270541244589808 0 1 1
553 185 1 -0.8476 21.46195499812738 7.3877743561984035 9.78562474309228 1 0 0
1220 407 2 0.4238 22.970007289726002 10.269146698216453 10.926146546190928 0 1 1
1121 374 2 0.4238 25.860897177331594 13.420090821198519 12.610584067581959 -1 1 0
1596 532 2 0.4238 27.950296392304523 9.332931308191744 10.184800146981802 0 1 1
1120 374 1 -0.8476 26.604994220802194 13.442414658432659 13.278283147787777 -1 1 0
1423 475 1 -0.8476 24.726164004792235 10.585609329620171 13.282818859586955 0 -1 0
1797 599 2 0.4238 2.475438313266222 10.644755699366762 12.50020845934156 1 0 1
1219 407 1 -0.8476 23.196874190569734 11.024142946270793 10.310912453421395 0 1 1
1122 374 2 0.4238 27.3867345617196 12.929611366052962 12.92343717334358 -1 1 0
581 194 2 0.4238 21.62773588480845 12.585116722723889 9.870573495205681 1 1 0
1023 341 2 0.4238 23.17188722031804 12.896587312497632 14.494876697597451 0 0 2
1021 341 1 -0.8476 22.760368885361085 12.349468099224236 13.76596388472992 0 0 2
1424 475 2 0.4238 24.184033672555735 11.414390001267948 13.42144895237843 0 -1 0
379 127 1 -0.8476 2.5888658143778875 8.487990812537326 12.629721478596966 1 1 0
1594 532 1 -0.8476 27.265865488146105 8.831706932933141 9.655339290086063 0 1 1
1058 353 2 0.4238 24.81361234773718 5.66717826997034 12.450725928871304 -2 0 0
257 86 2 0.4238 22.616077789437007 8.034489001130495 11.010922443050706 -1 0 0
256 86 1 -0.8476 23.288779088024675 8.56774272897459 11.523869184963011 -1 0 0
1410 470 2 0.4238 4.221638112629917 13.671922739787224 2.3204720375473498 0 0 1
229 77 1 -0.8476 27.64330000704923 13.233084984662812 4.449755476664277 0 1 1
1352 451 2 0.4238 13.783020579662585 3.0801138956444243 14.799813506049356 0 1 1
427 143 1 -0.8476 7.923787763848367 14.016598556691001 9.946765549536597 -1 -1 1
1677 559 2 0.4238 15.307098644642505 13.471314039728329 14.655669885962979 1 0 0
478 160 1 -0.8476 22.44795711249014 13.464682015837845 2.8977268042015485 -1 2 0
875 292 2 0.4238 11.581489912287482 9.569781143418611 2.316665104143585 0 -1 1
1353 451 2 0.4238 15.137573477307788 3.9778622271842 14.63899661935641 0 1 1
13 5 1 -0.8476 4.987056503199959 6.562008976225967 15.51462882949122 2 -1 0
921 307 2 0.4238 5.523367525439576 3.732690673468379 18.20843287362177 1 1 0
1550 517 2 0.4238 24.927858404187763 6.748436490035867 15.517889086788681 0 -1 0
14 5 2 0.4238 4.0369974100694215 6.305862241656224 15.692891980323544 2 -1 0
1622 541 2 0.4238 5.83506694487877 8.408922325983479 18.239695239531365 0 0 1
1621 541 1 -0.8476 6.1492562771617 8.466636822844574 17.292090781780413 0 0 1
1623 541 2 0.4238 5.486424841248388 8.017202622981921 16.69320529579529 0 0 1
920 307 2 0.4238 4.249430007026481 3.0005543283395237 18.92095390956707 1 1 0
412 138 1 -0.8476 2.137144425278396 6.082260773030604 16.166874814455362 -1 0 0
843 281 2 0.4238 2.9049334718831656 5.952586732842266 20.104017031192587 -1 0 0
841 281 1 -0.8476 3.8518693515468407 6.000703055995805 19.78621611002302 -1 0 0
853 285 1 -0.8476 3.0847664520530325 2.06667676695545 18.044305687646467 2 0 -1
842 281 2 0.4238 4.149660568999614 5.094028640537732 19.48744592726138 -1 0 0
414 138 2 0.4238 1.899165802044429 6.990498040668953 16.511071570843754 -1 0 0
465 155 2 0.4238 6.019830697244968 4.003696681711934 20.522086815022003 -1 1 -1
855 285 2 0.4238 2.599187963626717 2.9301641328347805 17.90791065348209 2 0 -1
1791 597 2 0.4238 4.354142741229922 7.5613928432855735 20.08242623691437 1 -1 0
413 138 2 0.4238 1.8524324082989494 5.389549036150357 16.829513182828737 -1 0 0
463 155 1 -0.8476 6.123185145205443 4.263769701201952 21.482128740096517 -1 1 -1
919 307 1 -0.8476 4.94987990205887 3.706300147213723 19.027221944215746 1 1 0
501 167 2 0.4238 5.7229780467569915 5.192405660810277 16.58785671773372 1 1 0
500 167 2 0.4238 7.05842508227081 4.276791016041372 16.799653596917736 1 1 0
499 167 1 -0.8476 6.075005653930129 4.25694712363597 16.619396334322346 1 1 0
1091 364 2 0.4238 23.933601709946327 3.699480186262862 20.299719143796906 -1 1 -2
60 20 2 0.4238 7.123074208300726 6.269150364967561 20.360234798376514 2 1 -1
1760 587 2 0.4238 24.754022057726708 12.140078234171796 25.57704297488099 0 0 0
397 133 1 -0.8476 7.738228984944657 14.29292903412918 15.131140590819447 -2 1 1
926 309 2 0.4238 8.809385607870233 7.651909689951484 20.85921151905583 -1 0 0
59 20 2 0.4238 8.453433510036207 5.538051484039589 19.758350020378415 2 1 -1
58 20 1 -0.8476 8.08904542658219 6.391010685691364 20.13209064859708 2 1 -1
1769 590 2 0.4238 13.639351025545961 5.670961152226702 19.229540001535224 -1 1 -1
1759 587 1 -0.8476 24.237530604115715 12.866909029622237 25.1243249429179 0 0 0
38 13 2 0.4238 13.595300220124066 6.061983408301575 21.546472920211226 -1 0 0
1704 568 2 0.4238 9.382747249790244 5.696424888494914 16.220292256655224 2 0 1
1665 555 2 0.4238 13.199193757608086 5.533735563844668 17.15945403168599 1 -1 -1
1478 493 2 0.4238 13.713364521771977 3.379425894443866 17.835882494622453 1 0 -1
846 282 2 0.4238 14.758538187024444 9.55369044637142 17.820750432262894 0 0 1
1703 568 2 0.4238 10.901517137114414 5.26757139201032 16.639875139645685 2 0 1
37 13 1 -0.8476 13.507599358010046 6.7365055512425895 20.813446000302022 -1 0 0
1768 590 1 -0.8476 14.164295434815822 5.216559822132348 18.509849941210664 -1 1 -1
795 265 2 0.4238 8.417258812930804 3.2180058772675024 18.94078006124942 1 0 0
1477 493 1 -0.8476 13.213283292522117 2.6016399246676687 17.455136154281945 1 0 -1
793 265 1 -0.8476 8.833338180898446 4.068073409096078 19.26367826258865 1 0 0
845 282 2 0.4238 14.935113618950558 10.292341753984932 16.375121708174415 0 0 1
794 265 2 0.4238 9.40704920711111 4.453818211069463 18.541143300240016 1 0 0
1580 527 2 0.4238 10.715071349035625 3.4170375348035678 19.551225627039013 1 0 -1
1579 527 1 -0.8476 11.506635574297281 2.8062219785413065 19.569415792555574 1 0 -1
1702 568 1 -0.8476 9.935869119849007 5.20305741306839 16.891593535549436 2 0 1
1479 493 2 0.4238 12.505757524260599 2.3123730067948185 18.0999089556318 1 0 -1
129 43 2 0.4238 14.657852652673114 7.842283191500244 19.815362020056494 -1 -1 2
1755 585 2 0.4238 14.746819767559494 8.362105079243914 15.720827942968455 0 0 0
127 43 1 -0.8476 15.230353675739668 8.552505761358347 19.405695469740216 -1 -1 2
1770 590 2 0.4238 15.060579611086261 4.9532622541026665 18.86671107415198 -1 1 -1
844 282 1 -0.8476 14.412413945107701 9.608483457094046 16.88416298005055 0 0 1
1006 336 1 -0.8476 2.211276387344439 5.236399225864356 27.89804647772343 0 0 -2
39 13 2 0.4238 13.05157630890924 7.553900018313473 21.165453577487106 -1 0 0
563 188 2 0.4238 22.34403038307296 2.3077283677588243 21.569798259885122 1 1 -1
705 235 2 0.4238 16.88058669875668 3.0095696031707937 19.002772757774743 1 0 1
1139 380 2 0.4238 19.806981392819086 3.596356727764655 18.017696166110074 -1 1 0
975 325 2 0.4238 19.49068139992822 5.471140930294438 17.216122825292505 0 1 0
259 87 1 -0.8476 17.604120806069993 9.228952835976287 18.508385322409104 0 0 0
97 33 1 -0.8476 18.115603942700744 4.951773128514397 17.647986887412294 0 1 0
808 270 1 -0.8476 19.93129120125902 4.1068498878718716 20.79565548701596 -1 0 0
98 33 2 0.4238 17.456348808281064 4.5941074676932105 18.30939300289587 0 1 0
809 270 2 0.4238 19.111806773333672 4.262485759847471 21.347219469758844 -1 0 0
260 87 2 0.4238 16.774284865175865 9.142169227133518 19.059603076671216 0 0 0
973 325 1 -0.8476 20.354811712837126 5.953873684047236 17.073827505199436 0 1 0
810 270 2 0.4238 19.85885309035183 3.2232484239767714 20.33305274017824 -1 0 0
703 235 1 -0.8476 16.449984654200634 3.8757095324686786 19.25651191903621 1 0 1
999 333 2 0.4238 20.742318687547797 6.312009823558691 18.89800924223865 0 1 -1
261 87 2 0.4238 17.649208021026148 8.475099871758786 17.85289080016341 0 0 0
99 33 2 0.4238 17.876555322631525 5.8945619657421515 17.415597058796745 0 1 0
974 325 2 0.4238 20.174651250596572 6.842560980597643 16.652191218509266 0 1 0
796 266 1 -0.8476 17.561902876454468 7.222677955250802 16.492967006208648 -2 0 1
1597 533 1 -0.8476 26.038522956796427 10.510012356492817 15.72101088356863 0 1 1
1346 449 2 0.4238 20.026928021922142 7.806545309102549 20.057756010265642 1 1 0
997 333 1 -0.8476 21.010048868061276 6.577749549140555 19.8241324975383 0 1 -1
998 333 2 0.4238 20.71539895760833 5.874397128253777 20.471031203539006 0 1 -1
704 235 2 0.4238 16.37105432805662 3.9296836347723447 20.251929858818247 1 0 1
1140 380 2 0.4238 20.89124142593108 2.51433011154309 17.45181138004008 -1 1 0
1138 380 1 -0.8476 19.986934468384504 2.6247358882014815 17.864170894244374 -1 1 0
712 238 1 -0.8476 17.642934928241683 4.265917422004114 22.39875101270621 0 0 1
798 266 2 0.4238 18.140819243386765 7.418392367254214 15.70141679002006 -2 0 1
1581 527 2 0.4238 11.479913541601418 2.2506561029011674 20.40045905506107 1 0 -1
797 266 2 0.4238 16.603094210997206 7.208371873562964 16.20927472297275 -2 0 1
1573 525 1 -0.8476 25.596095671534165 2.2742062904732716 17.490929940768613 0 0 0
1570 524 1 -0.8476 23.955776526765554 9.70720510277864 17.516171411801754 1 0 0
1025 342 2 0.4238 27.226072535521418 7.79004338979186 19.58348639775731 -1 0 0
1092 364 2 0.4238 24.474178528557758 2.1613647079284446 20.392479609977844 -1 1 -2
1090 364 1 -0.8476 23.659168654455307 2.7390584304388472 20.347434446403938 -1 1 -2
834 278 2 0.4238 22.415947995204334 3.5189784556679307 16.207986762501715 0 0 1
1046 349 2 0.4238 23.793452039027493 5.642151046521788 19.52506823970221 0 -2 0
1047 349 2 0.4238 23.751286429097863 6.392038439562434 20.97507435653187 0 -2 0
1045 349 1 -0.8476 24.24517253907452 5.728573270233849 20.413032330501547 0 -2 0
1571 524 2 0.4238 23.98350490695525 10.269046658733389 18.342952261570893 1 0 0
833 278 2 0.4238 21.628482100931823 4.9170905030645935 15.904989754275094 0 0 1
880 294 1 -0.8476 27.616261684256145 4.397929520091265 18.046543051187975 0 -1 1
1026 342 2 0.4238 25.76257050641784 7.178979714778882 19.972574720684296 -1 0 0
881 294 2 0.4238 27.24877447510419 4.996518318429098 18.75833324826238 0 -1 1
832 278 1 -0.8476 22.49850056302475 4.433103613596699 15.811047102376769 0 0 1
1024 342 1 -0.8476 26.686504191636814 6.952019791954757 19.6646205185646 -1 0 0
882 294 2 0.4238 26.91210418350346 3.7475303760826506 17.761684158480655 0 -1 1
1118 373 2 0.4238 25.618168665720955 5.357013948896153 21.809932082925933 0 1 -1
1462 488 1 -0.8476 16.894969270618063 2.093519423647585 25.130063004848832 0 0 -1
1730 577 2 0.4238 22.864310697687145 12.067551189768661 22.47343710856725 0 -1 0
1501 501 1 -0.8476 13.96292455937863 2.0934259137071445 20.985671570462344 0 1 1
472 158 1 -0.8476 21.73182208623045 13.287095123074668 26.379846987064155 -1 1 0
191 64 2 0.4238 27.52099333000693 14.492816954061787 25.777546653859233 0 -1 1
609 203 2 0.4238 1.9012490487318523 14.848853297221426 21.79068325526198 0 -1 -2
1690 564 1 -0.8476 27.71039732485433 8.644997031564149 17.173799167682958 0 0 0
1551 517 2 0.4238 23.930796581345103 5.4654184944507636 15.355531488046305 0 -1 0
942 314 2 0.4238 2.255550418789824 10.257530952857701 19.68718621184112 -1 0 0
941 314 2 0.4238 2.9094379938448673 8.793863252551011 19.998207790428882 -1 0 0
7 3 1 -0.8476 5.931082015763336 11.175126411713679 18.328053645269726 0 -1 1
9 3 2 0.4238 5.81365071950901 10.341052482225418 17.789044690766957 0 -1 1
1692 564 2 0.4238 27.919044871294357 8.800615340709294 18.13933049810539 0 0 0
1691 564 2 0.4238 26.78765798678731 8.975068997219688 16.974788843523122 0 0 0
940 314 1 -0.8476 2.0913018282796916 9.271159331215046 19.677518367698852 -1 0 0
1789 597 1 -0.8476 4.632060151171195 8.45455122680958 20.43602216580425 1 -1 0
1790 597 2 0.4238 5.40643599140641 8.340397542618224 21.058365400200284 1 -1 0
8 3 2 0.4238 5.878819732414784 11.97149480060876 17.725503900613663 0 -1 1
1663 555 1 -0.8476 12.853914882791564 5.7414775428946445 16.244234956789917 1 -1 -1
1163 388 2 0.4238 14.57624249098743 2.866543744309816 27.222335090335708 0 0 0
335 112 2 0.4238 17.360805335996663 4.381853576843806 16.08983608481704 1 1 0
1166 389 2 0.4238 7.0879166859202005 14.328329606536379 19.01229100738714 0 0 -1
1252 418 1 -0.8476 5.812442398562233 13.113993460141847 16.409754309741068 2 0 -1
1753 585 1 -0.8476 14.583407257511075 7.594398857010086 15.101212281889811 0 0 0
1737 579 2 0.4238 3.7970145693946264 12.455693444082481 20.161220553274042 0 0 0
159 53 2 0.4238 28.078397884446332 12.09663800975704 19.961847569793395 -2 -1 0
1735 579 1 -0.8476 3.495132286579303 11.852297209505778 19.423128320535294 0 0 0
1253 418 2 0.4238 5.5765670428621785 13.777068501973538 17.12017287377723 2 0 -1
1736 579 2 0.4238 4.28434006620156 11.369799769454708 19.043197478672482 0 0 0
46 16 1 -0.8476 7.0106518303388405 12.422179511109832 20.605925614858016 0 1 -1
157 53 1 -0.8476 27.17525728330107 12.260047812445872 20.358880758382533 -2 -1 0
1254 418 2 0.4238 6.395903386939303 13.551764924416462 15.725700531606496 2 0 -1
48 16 2 0.4238 6.802898753252981 11.959593867448373 19.74403561058134 0 1 -1
158 53 2 0.4238 26.575613187492433 12.66405943831698 19.668082219638517 -2 -1 0
47 16 2 0.4238 7.993754955630883 12.372780211621894 20.782190736612947 0 1 -1
1178 393 2 0.4238 2.564302787173382 9.217139708675907 15.881322372804988 -1 2 -1
718 240 1 -0.8476 13.421712208763987 10.626139679648398 28.074608509677166 0 1 0
128 43 2 0.4238 15.35016567069058 9.301270496532114 20.057613082339316 -1 -1 2
1388 463 2 0.4238 8.249690753407009 11.501226237821466 17.46265709488297 1 -1 0
1731 577 2 0.4238 24.098001041082643 12.500792937114785 23.451668694056952 0 -1 0
254 85 2 0.4238 12.576867263292796 12.027154448161474 16.0121848898504 -1 -1 1
1167 389 2 0.4238 8.351201192722787 13.82080101209669 18.110540755158816 0 0 -1
360 120 2 0.4238 11.932556333113432 10.21079132337538 19.438745219096564 1 1 1
66 22 2 0.4238 16.571980209506908 10.733515542555963 15.360077077392644 0 0 1
1199 400 2 0.4238 10.933695168609551 13.688814096703885 15.592497976830236 0 1 0
1387 463 1 -0.8476 8.84982771000398 12.131482760222047 17.95521438953044 1 -1 0
1389 463 2 0.4238 9.713080409228915 11.673115346566844 18.166625577810773 1 -1 0
358 120 1 -0.8476 11.410787542754022 11.022103547997888 19.17505945106534 1 1 1
206 69 2 0.4238 14.87249953755147 13.042434791528379 18.515971451948626 -1 -1 0
1098 366 2 0.4238 11.539555563888117 6.622199495208546 15.195324322356422 0 1 0
359 120 2 0.4238 12.023442900835157 11.689186294443225 18.751202673785 1 1 1
126 42 2 0.4238 11.761536623573225 14.023246116959504 17.463689328613423 0 0 -1
200 67 2 0.4238 9.90212030104184 13.535221087240343 20.492957118561637 0 0 -1
253 85 1 -0.8476 12.422339749565085 12.577747345269477 16.832532208099554 -1 -1 1
205 69 1 -0.8476 14.730429814977253 12.623816161955434 19.412952592249425 -1 -1 0
1073 358 2 0.4238 10.017390448258809 11.410455556310025 20.27189409246519 -1 -1 1
203 68 2 0.4238 15.25872567092064 11.272856838248252 20.494912875532478 -2 2 1
1008 336 2 0.4238 28.014757290448717 4.464344883966835 27.536187524825664 -1 0 -2
255 85 2 0.4238 13.23687975592445 13.125008167217619 17.024967407041828 -1 -1 1
1664 555 2 0.4238 13.200382467356185 5.063877260456443 15.595529972462257 1 -1 -1
1772 591 2 0.4238 10.998018828278818 8.473421102307695 21.33636312718654 -2 0 0
1771 591 1 -0.8476 11.93889906583598 8.694418124202926 21.593085443909036 -2 0 0
1194 398 2 0.4238 9.01066014289107 11.922732488725126 15.126181010761025 1 -1 0
202 68 1 -0.8476 15.59538580116282 10.504688541124956 21.03950215580033 -2 2 1
1784 595 2 0.4238 13.62208192694755 13.013318886048209 26.062142190731752 0 1 -2
460 154 1 -0.8476 14.613809177458206 14.35316622793669 17.09292260974449 0 -1 -1
1347 449 2 0.4238 18.92049202555548 8.978389597874713 19.7946840315432 1 1 0
207 69 2 0.4238 15.236683313492966 13.138484336229824 20.10492443717288 -1 -1 0
269 90 2 0.4238 19.189683253768912 13.651868168735353 16.404852824406007 -1 -1 0
270 90 2 0.4238 19.681190826511482 13.607366616406281 17.961473472363895 -1 -1 0
268 90 1 -0.8476 18.91390531223928 13.809912938421231 17.352992943000164 -1 -1 0
1437 479 2 0.4238 25.706234803335477 2.4157102930324394 23.999116833895073 1 1 -1
67 23 1 -0.8476 4.935847774994144 14.517811546782612 18.23888877550297 -2 -1 0
1448 483 2 0.4238 17.532327303744026 14.679807745316324 17.799914374034667 0 1 -1
24 8 2 0.4238 17.688068111852655 5.3884567733063395 27.478787304807145 -1 1 -1
109 37 1 -0.8476 17.756285160963596 11.295040560459476 16.58982113288721 0 1 -2
110 37 2 0.4238 17.959221040652793 10.644655527001504 17.32181643854781 0 1 -2
111 37 2 0.4238 18.118110377033037 12.194837834914082 16.833640222178655 0 1 -2
462 154 2 0.4238 15.298321041878502 14.980628320165865 17.464049145229644 0 -1 -1
1568 523 2 0.4238 24.422532413933293 8.744659416317855 21.79188822777867 -1 0 -1
1345 449 1 -0.8476 19.44085968468784 8.489025867764886 20.494498762576146 1 1 0
44 15 2 0.4238 18.574640293756573 9.286761191435335 21.882410609023584 0 1 -1
736 246 1 -0.8476 2.4721856614504745 11.129768094986808 24.20236980615876 1 -1 -1
531 177 2 0.4238 20.656733562376324 12.13999092898868 22.48394038637711 1 0 -1
1080 360 2 0.4238 20.41875744634275 9.150241009015634 21.803242593535003 0 1 -1
1085 362 2 0.4238 2.6612839887430404 9.92732165844081 27.193496440274338 -1 1 -1
1464 488 2 0.4238 16.64529761494673 2.043604630439706 24.16301976264484 0 0 -1
28 10 1 -0.8476 26.314817649103546 14.530535357340467 24.44123737633613 1 1 0
396 132 2 0.4238 24.03272106754619 11.39554868719378 20.630191308099686 0 0 -1
1459 487 1 -0.8476 27.893881182189567 13.162220578362545 22.63441682721703 -1 2 -2
330 110 2 0.4238 22.72124071046112 11.13611381966492 17.614298351642244 0 2 0
1572 524 2 0.4238 24.71412715668112 9.960423402835874 16.915517215692965 1 0 0
306 102 2 0.4238 21.309051170131912 13.025934108488169 20.15947182022851 0 0 -1
150 50 2 0.4238 21.28467713239258 11.024000375498826 15.581344928367002 0 0 1
399 133 2 0.4238 8.725849118678862 14.142449021480404 15.175438256711317 -2 1 1
529 177 1 -0.8476 21.31259981743515 12.589031742146618 21.877143958366872 1 0 -1
394 132 1 -0.8476 23.931527109054745 11.261211689812551 19.644436071006652 0 0 -1
304 102 1 -0.8476 21.10081096660046 13.352109259642713 19.237383278394695 0 0 -1
395 132 2 0.4238 24.574129123601306 11.854421091222477 19.159497602537783 0 0 -1
329 110 2 0.4238 21.700261929133184 12.36585745097621 17.948902229690745 0 2 0
305 102 2 0.4238 21.6329743527591 14.177204048201618 19.047591145470044 0 0 -1
328 110 1 -0.8476 22.106193417365727 11.817608073400034 17.217709793504284 0 2 0
1343 448 2 0.4238 25.734609542370244 13.057739605065754 17.391201036467077 0 0 0
779 260 2 0.4238 17.322741632720565 2.2598166670773923 16.356580703897432 0 0 1
995 332 2 0.4238 26.694078336768758 14.467673092304688 16.047975885357467 -1 -1 0
1342 448 1 -0.8476 25.376506927447906 12.96681770952227 18.32044576867913 0 0 0
1344 448 2 0.4238 24.961483056622 13.83138061483866 18.603793936076933 0 0 0
994 332 1 -0.8476 26.299136036373113 13.553966714966784 15.952260870947121 -1 -1 0
1053 351 2 0.4238 24.474829440285713 13.956296458962004 16.016382159699788 0 1 -1
30 10 2 0.4238 25.51157752676892 14.024221055001643 24.755006661993384 1 1 0
1051 351 1 -0.8476 23.47635335545551 14.011453573800265 16.018226930246968 0 1 -1
173 58 2 0.4238 21.008638128891036 6.846655227743236 26.29083791745665 1 0 1
1052 351 2 0.4238 23.101729046775564 13.254902907893985 16.554219448805547 0 1 -1
1017 339 2 0.4238 26.55830395359725 10.606526143871678 26.589071017046734 0 -1 -1
1598 533 2 0.4238 26.678213935022754 11.268999914741986 15.599629839835108 0 1 1
124 42 1 -0.8476 11.214795793882645 14.665078305751338 18.001394615213883 0 0 -1
530 177 2 0.4238 21.470765612311936 13.525072160184347 22.191487863562564 1 0 -1
709 237 1 -0.8476 2.3884647988150274 6.173458400790659 23.02148925879482 1 0 0
710 237 2 0.4238 3.048772315438835 5.433267324447948 22.894556717754355 1 0 0
252 84 2 0.4238 3.1414452057161517 7.7995496907314426 23.159913754756356 0 1 0
1710 570 2 0.4238 8.713912047557901 6.932605890831826 27.37876872296993 0 0 1
187 63 1 -0.8476 4.17092342863993 3.8012994581930015 23.161186196591483 0 -1 -1
1615 539 1 -0.8476 27.82398408071582 7.183442823341768 25.77309393666453 0 0 -1
368 123 2 0.4238 25.153552719879695 10.467906333477988 22.82751745669731 0 -1 0
1150 384 1 -0.8476 6.091653806544273 3.3357254925687756 25.074777066151416 1 0 -1
1152 384 2 0.4238 5.339050282713571 3.5348849051081217 24.447143776761635 1 0 -1
1151 384 2 0.4238 6.933825523825691 3.2000273153295926 24.552921806927422 1 0 -1
342 114 2 0.4238 4.957182446128275 8.12259630948479 24.271561124951585 1 1 0
1617 539 2 0.4238 2.282353020302162 6.701621679989204 25.382365849675235 1 0 -1
340 114 1 -0.8476 5.4336244145577535 8.287436852425209 25.13517601746409 1 1 0
341 114 2 0.4238 5.643406220161287 7.412856850214921 25.57232759986277 1 1 0
489 163 2 0.4238 6.013677778963366 4.91611873659811 25.87878172372706 1 0 -2
189 63 2 0.4238 3.7157704469273103 2.931109794248867 22.972491398081488 0 -1 -1
188 63 2 0.4238 4.820335889105491 4.003611885922228 22.42815602835572 0 -1 -1
487 163 1 -0.8476 6.110766139202144 5.895137936041837 26.05793714240321 1 0 -2
932 311 2 0.4238 7.438596042908173 7.8311801721569845 24.1550995519497 0 1 -1
931 311 1 -0.8476 8.42531514506363 7.7265095205545435 24.279315025726486 0 1 -1
933 311 2 0.4238 8.626839330486035 7.5934626359694715 25.24972039205236 0 1 -1
464 155 2 0.4238 7.045568298051996 4.033626153235271 21.792359966975603 -1 1 -1
488 163 2 0.4238 6.485402875478089 6.030593777082688 26.97516141884019 1 0 -2
1616 539 2 0.4238 27.16454322651755 7.38830308482012 25.04978812779236 0 0 -1
1708 570 1 -0.8476 9.345622314213005 7.244072879649696 26.66888710567821 0 0 1
927 309 2 0.4238 8.877377926672713 8.051996519272194 22.440961879368395 -1 0 0
835 279 1 -0.8476 8.014418211436872 2.77815115624091 23.391114929903157 -1 0 0
672 224 2 0.4238 27.723658487108004 1.880055122587793 27.426102555608676 1 1 -1
837 279 2 0.4238 8.382242619421847 2.0041988441016025 23.906578912751986 -1 0 0
1007 336 2 0.4238 2.1790123496124854 5.994976296206843 27.247262397128665 0 0 -2
1709 570 2 0.4238 9.984194403879755 7.907585615146865 27.058730155582875 0 0 1
1015 339 1 -0.8476 25.58982873498267 10.848019762883295 26.527942627667844 0 -1 -1
925 309 1 -0.8476 9.23846013537203 8.255767690553254 21.530963524010943 -1 0 0
1716 572 2 0.4238 12.066526334737132 2.273294555718977 25.9569157324324 1 1 1
125 42 2 0.4238 10.75115443079267 14.172464166789885 18.737851319640455 0 0 -1
1714 572 1 -0.8476 12.323054352476202 2.9545426143145774 25.271280598311 1 1 1
675 225 2 0.4238 12.31684754797294 7.386812122231484 24.50596101645148 0 1 0
201 67 2 0.4238 9.021345066280396 14.731711673958396 19.81526116202894 0 0 -1
1162 388 1 -0.8476 14.67533401084355 3.3250728527047784 26.339197500845867 0 0 0
1717 573 1 -0.8476 15.41916937473279 7.104549196165725 25.051151121507495 -1 0 0
1503 501 2 0.4238 13.270800051166987 2.8152043043798196 20.98530014761886 0 1 1
75 25 2 0.4238 9.507260594691815 4.929397304199488 24.244662299375374 -1 1 0
73 25 1 -0.8476 9.47360920006145 5.1403069947710645 23.26773582846901 -1 1 0
983 328 2 0.4238 11.106852592790762 4.462839719795715 22.569501691239687 -1 1 -1
1164 388 2 0.4238 13.770263967968571 3.510203530765129 25.956346425177635 0 0 0
1258 420 1 -0.8476 10.736435335259687 5.146155771416655 25.97796576291208 0 1 1
984 328 2 0.4238 12.58758896000979 4.493752316622743 23.2573176927664 -1 1 -1
674 225 2 0.4238 12.049549861665794 6.074813084765433 25.44075393733441 0 1 0
1260 420 2 0.4238 10.31367268136729 6.04859490893833 26.06088428497828 0 1 1
74 25 2 0.4238 9.472285299090357 6.132209563200225 23.140739329771357 -1 1 0
1718 573 2 0.4238 14.472234226321126 6.786880815515777 25.00215447516101 -1 0 0
673 225 1 -0.8476 12.680975755475842 6.500718065197033 24.792751473425113 0 1 0
982 328 1 -0.8476 12.071835754981901 4.234256656932913 22.440824673080375 -1 1 -1
1715 572 2 0.4238 11.652606776541754 3.696500299702697 25.27150841740777 1 1 1
836 279 2 0.4238 8.696889314429653 3.508093992145891 23.3534753695859 -1 0 0
666 222 2 0.4238 20.205289788611317 8.791225063351279 15.063977093389786 0 0 1
1259 420 2 0.4238 10.354536410890153 4.534261098935689 26.670597177995663 0 1 1
172 58 1 -0.8476 21.735909929902757 7.043981344917953 26.948210184841237 1 0 1
1587 529 2 0.4238 20.271978392492905 2.1658369783283873 27.67275494937732 -1 -2 -1
950 317 2 0.4238 18.59224546367823 2.4500492537973813 25.713529755050477 0 1 0
951 317 2 0.4238 20.03265939890257 3.2184822975822645 25.750204026640404 0 1 0
29 10 2 0.4238 26.76235635979772 14.022696490064156 23.70516069065247 1 1 0
1463 488 2 0.4238 16.258067876436574 2.698486705845422 25.60794507960635 0 0 -1
435 145 2 0.4238 21.539193083000942 8.912206401871753 25.52134222193122 -2 0 0
1367 456 2 0.4238 15.403324040142293 4.820981894720445 26.997040639947418 0 0 1
1368 456 2 0.4238 15.615760873199074 6.339748115149946 26.435928949751975 0 0 1
1268 423 2 0.4238 16.77414802770904 6.91590030334219 24.06292008611799 1 0 -1
1267 423 1 -0.8476 17.591460816808244 6.884778822520852 23.487566864421563 1 0 -1
42 14 2 0.4238 18.068052717414083 13.6645633594675 26.651474471705544 0 1 0
1269 423 2 0.4238 17.70290940377896 7.761232470321959 23.019156500390707 1 0 -1
545 182 2 0.4238 19.065649704458536 6.155286210894307 26.07369262272407 0 0 -1
544 182 1 -0.8476 19.7305189258678 6.36658006397874 25.35723987497548 0 0 -1
546 182 2 0.4238 19.25524026356775 6.742856256171751 24.56192422394383 0 0 -1
23 8 2 0.4238 18.87090472024212 4.262861802309438 27.502462204884754 -1 1 -1
22 8 1 -0.8476 18.65590950146179 5.22499832699383 27.670007329694947 -1 1 -1
618 206 2 0.4238 20.575813576259474 4.703882189541357 23.613989992252222 0 0 0
461 154 2 0.4238 14.249563342958638 14.724484408996561 16.2388453835049 0 -1 -1
391 131 1 -0.8476 4.032345138616931 10.155831165150785 28.156902950693823 1 1 -2
334 112 1 -0.8476 16.875545182240067 3.9302008113942124 15.341148912306656 1 1 0
949 317 1 -0.8476 19.264179475649343 2.897460133915748 26.303723198102357 0 1 0
713 238 2 0.4238 17.151293169115185 3.5318733584678377 22.867224929840933 0 0 1
714 238 2 0.4238 17.583551985514408 5.1049410770194825 22.939596360032187 0 0 1
1224 408 2 0.4238 22.530108979982664 5.390195308459911 26.23996788796547 1 0 -1
616 206 1 -0.8476 20.77423890527045 3.7819996281550394 23.94679652632933 0 0 0
617 206 2 0.4238 21.077358839105102 3.210416544065522 23.184292665371146 0 0 0
1223 408 2 0.4238 22.079205445183966 4.237302580613212 25.17500242631432 1 0 -1
1761 587 2 0.4238 23.366401854388712 13.00074471172803 25.596789490392766 0 0 0
174 58 2 0.4238 21.339672927417578 7.1588117573058145 27.85914938832002 1 0 1
1575 525 2 0.4238 24.615808682372098 2.2041046727356686 17.675655033421233 0 0 0
711 237 2 0.4238 27.78849176722195 5.821045225620028 22.885681305678226 0 0 0
661 221 1 -0.8476 24.461011561416882 2.3647534673571933 25.256711773817578 1 1 -1
1117 373 1 -0.8476 26.027596461641284 5.373911013507551 22.72211848568538 0 1 -1
1119 373 2 0.4238 25.576545601121182 6.072937830502167 23.27702025164615 0 1 -1
663 221 2 0.4238 23.964267772261792 3.1821548098493966 25.5484320336953 1 1 -1
1274 425 2 0.4238 24.032435099998608 4.5296499505343855 27.22037669901646 0 0 -1
1436 479 2 0.4238 26.325808927514235 3.5733469979542605 23.028224422996455 1 1 -1
284 95 2 0.4238 25.38202571481593 8.479785650384159 23.63036993184772 0 -1 0
285 95 2 0.4238 24.84423091867211 7.919524870333683 25.066862995275645 0 -1 0
81 27 2 0.4238 27.26977951999734 3.311089458771651 25.688062374543126 -1 1 1
389 130 2 0.4238 11.407041326652 14.76197499538207 21.54199024264023 0 0 -1
1273 425 1 -0.8476 24.716578999151842 4.411401063208908 27.940074556368383 0 0 -1
283 95 1 -0.8476 25.272443758761046 7.665049882383667 24.19975441503251 0 -1 0
80 27 2 0.4238 26.299448704538193 3.667859816702318 26.952103612222068 -1 1 1
1222 408 1 -0.8476 22.73841698719813 4.477872471439141 25.887440288061708 1 0 -1
79 27 1 -0.8476 27.21449538213237 3.3655843894577506 26.685045160626906 -1 1 1
1435 479 1 -0.8476 26.550037306198796 2.8172856671080555 23.643117636875466 1 1 -1
199 67 1 -0.8476 9.813049805712488 14.525960086785151 20.390474220539854 0 0 -1
1729 577 1 -0.8476 23.859142355325368 12.087329161425886 22.573035916812525 0 -1 0
1113 371 2 0.4238 23.270976863596783 7.928225392861148 26.791546582371996 1 0 -1
1111 371 1 -0.8476 24.16000352913319 8.367166866641314 26.66130359079138 1 0 -1
1112 371 2 0.4238 24.83185638370427 7.9466897558495395 27.271069083976414 1 0 -1
1330 444 1 -0.8476 4.617859279337932 13.578179712886676 21.282216729318804 1 0 0
251 84 2 0.4238 3.848041785452153 8.776489996418418 22.05858001427821 0 1 0
367 123 1 -0.8476 25.884598694904657 9.804010068383556 22.66999194350622 0 -1 0
1165 389 1 -0.8476 7.8889103371129625 14.621963704359057 18.490574356547736 0 0 -1
1461 487 2 0.4238 27.404847837447186 13.057898949582077 21.76841246881822 -1 2 -2
250 84 1 -0.8476 3.344309962517214 8.749419013091694 22.92201621798341 0 1 0
1331 444 2 0.4238 5.4877391663256825 13.10879549860742 21.13060012575233 1 0 0
1413 471 2 0.4238 6.758667539319056 11.290306279470595 25.153986161692337 -2 0 0
1782 594 2 0.4238 6.586104393279745 9.981104722904362 22.960998183666746 0 2 -1
1781 594 2 0.4238 7.296945712953045 9.361221054655557 21.627928096920808 0 2 -1
1160 387 2 0.4238 5.745249767533844 9.778269924748123 25.942794200975637 0 0 0
1411 471 1 -0.8476 7.079161943009751 11.437292435052916 24.218209233523428 -2 0 0
1159 387 1 -0.8476 6.138413544093527 10.468813331756662 26.54989561958947 0 0 0
1161 387 2 0.4238 5.60639347870666 10.510907298616939 27.395580461953905 0 0 0
1086 362 2 0.4238 1.904658967484135 8.75106510183966 26.350544684054782 -1 1 -1
1780 594 1 -0.8476 6.53611114482301 9.260872065668549 22.269068720243045 0 2 -1
1084 362 1 -0.8476 1.9093893727953024 9.7277567914907 26.565141977312734 -1 1 -1
190 64 1 -0.8476 2.047859678685128 14.57036531852223 26.293942227590744 1 -1 1
1261 421 1 -0.8476 7.759155800059798 13.877191522258252 26.94324646815601 0 2 -1
1412 471 2 0.4238 6.475542278412429 12.087970766976802 23.757491274448434 -2 0 0
1366 456 1 -0.8476 15.718769805469568 5.740858783017317 27.230108270403942 0 0 1
456 152 2 0.4238 4.215204374625523 13.84076731820049 24.435020637082243 0 -1 1
455 152 2 0.4238 3.836378550730429 12.264152091566226 24.241622289312577 0 -1 1
454 152 1 -0.8476 4.513864313927293 12.971700828895928 24.040652604003025 0 -1 1
1262 421 2 0.4238 7.067855657564163 13.375427051511403 27.46318554037196 0 2 -1
1625 542 2 0.4238 8.840786933623734 10.98894503416843 23.631127203845914 0 -1 -1
738 246 2 0.4238 2.74319318292578 10.292132817384902 23.728110218720058 1 -1 -1
473 158 2 0.4238 21.380236722166572 12.705091318891368 27.113099781840415 -1 1 0
1332 444 2 0.4238 4.2631727770947885 13.339006297579516 22.186093798609924 1 0 0
192 64 2 0.4238 2.1707586260468537 13.754488502317285 26.85895671911231 1 -1 1
1099 367 1 -0.8476 12.226318972154246 14.075941568625241 25.451565915690676 -1 1 0
1016 339 2 0.4238 25.04389160181492 10.015347050537043 26.43515865067313 0 -1 -1
1719 573 2 0.4238 15.432850169528557 8.101813803083841 25.123788764694883 -1 0 0
216 72 2 0.4238 9.229662559693914 12.847860994508496 26.40715618215619 0 1 -2
214 72 1 -0.8476 9.98937316496389 12.26921921804066 26.11048390165918 0 1 -2
204 68 2 0.4238 15.084955152849686 10.455725461860586 21.898026109920036 -2 2 1
1624 542 1 -0.8476 9.657008055716275 10.447847244592529 23.428651797287245 0 -1 -1
1626 542 2 0.4238 9.423586866704598 9.475536636800403 23.439905428673733 0 -1 -1
248 83 2 0.4238 11.187597795970625 9.908784430868794 24.035820557592533 0 1 0
249 83 2 0.4238 12.809683432758762 9.947258507569833 24.22017261692932 0 1 0
247 83 1 -0.8476 11.988215929646234 9.388152937268522 24.33239222577535 0 1 0
1773 591 2 0.4238 11.956061065760416 9.039429027119052 22.531527547944552 -2 0 0
1513 505 1 -0.8476 14.286312012200273 10.525511296765123 23.39063015100472 0 1 1
1101 367 2 0.4238 11.438159832367337 13.6318405820067 25.877688247967946 -1 1 0
1515 505 2 0.4238 14.74035258973831 10.276769186418168 24.246185263158765 0 1 1
1514 505 2 0.4238 14.37527511268076 11.510104096793485 23.24008880244035 0 1 1
1785 595 2 0.4238 15.04480121314669 12.501580899079272 25.445197172002032 0 1 -2
1783 595 1 -0.8476 14.325361989543708 12.304091971203675 26.11108494496445 0 1 -2
215 72 2 0.4238 9.653628872906381 11.583489081605691 25.464689595266616 0 1 -2
1072 358 1 -0.8476 9.635322917564423 11.884728101124109 21.065046024594007 -1 -1 1
1074 358 2 0.4238 9.74189678334903 11.312965046459453 21.878513322293287 -1 -1 1
518 173 2 0.4238 13.298644426634116 13.56629722745478 22.387663023483537 -2 0 0
118 40 1 -0.8476 16.590213461459918 13.091352157339541 24.576997626992345 2 0 0
519 173 2 0.4238 13.11625132422716 13.273338284971093 23.983762748810946 -2 0 0
119 40 2 0.4238 16.739210800275828 14.080189563517415 24.5761350411186 2 0 0
517 173 1 -0.8476 13.691462355584997 13.105068122403667 23.183251996288362 -2 0 0
1402 468 1 -0.8476 21.349205743665877 10.51509428159709 27.58166290118838 0 0 0
1078 360 1 -0.8476 21.015061453739527 9.312553510244147 22.589420849628283 0 1 -1
1460 487 2 0.4238 1.861842809497972 12.264102795126375 22.96151218343916 0 2 -2
737 246 2 0.4238 2.056590090078476 10.895610086559415 25.08126140119612 1 -1 -1
43 15 1 -0.8476 17.736467665659017 9.389640761542976 22.418024740271655 0 1 -1
1569 523 2 0.4238 23.267034693434887 8.850708982034991 20.64288642268022 -1 0 -1
433 145 1 -0.8476 21.480595329820783 9.8390611733411 25.15052313283422 -2 0 0
1384 462 1 -0.8476 15.971089968771807 9.687742749552136 25.616892045307427 0 1 -1
1386 462 2 0.4238 16.906421560641387 10.018011653718531 25.490095623640883 0 1 -1
1385 462 2 0.4238 15.613216536502149 10.026154047484782 26.48718193272897 0 1 -1
434 145 2 0.4238 21.41321181922486 9.795622468737044 24.153741375133283 -2 0 0
45 15 2 0.4238 17.0500938809636 9.871831670779452 21.873614033650995 0 1 -1
295 99 1 -0.8476 18.511499761414576 10.296281254911246 24.91265580422919 -1 -3 0
296 99 2 0.4238 19.197675880402155 9.647756333565676 25.242167714829737 -1 -3 0
297 99 2 0.4238 18.269377955616367 10.074171671892806 23.968173861099846 -1 -3 0
1589 530 2 0.4238 18.858899478054795 13.52598365405864 22.456111413125708 -1 1 -1
120 40 2 0.4238 17.45535120781142 12.623759898155106 24.39562949374806 2 0 0
31 11 1 -0.8476 19.645982912704547 12.8562523369933 24.092004236520545 0 0 0
33 11 2 0.4238 20.36956165184701 13.296362248610016 24.623735447843618 0 0 0
32 11 2 0.4238 19.605189511432755 11.88460517274572 24.324896980960464 0 0 0
1588 530 1 -0.8476 18.541196678023283 14.093449653978526 21.696474695913682 -1 1 -1
1590 530 2 0.4238 19.328465622382357 14.429622361386848 21.179564680540157 -1 1 -1
903 301 2 0.4238 15.317415225942682 13.717585601827054 22.4194906962307 -2 0 -1
1404 468 2 0.4238 21.649228417328764 10.647983995116592 26.637031825643554 0 0 0
902 301 2 0.4238 16.648044671228167 13.862393535479303 21.484031698563257 -2 0 -1
901 301 1 -0.8476 15.671343902470955 14.066094937109678 21.551575682691922 -2 0 -1
1567 523 1 -0.8476 23.512211347608666 8.434087721858116 21.518280783039543 -1 0 -1
1079 360 2 0.4238 21.889885434376378 8.850035429551893 22.44533729440617 0 1 -1
40 14 1 -0.8476 18.67378645290768 14.45070282349121 26.774241137995556 0 1 0
720 240 2 0.4238 13.790985990400259 11.393786193467037 27.550818613052293 0 1 0
369 123 2 0.4238 26.67409659979463 10.266925853283054 22.266998288673314 0 -1 0
474 158 2 0.4238 21.694578497928514 14.244220046394775 26.66711905200687 -1 1 0
935 312 2 0.4238 4.826152292588107 12.218435710099648 15.439662682701377 2 0 -1
719 240 2 0.4238 14.033789015067692 9.839865451434726 27.99014029889606 0 1 0
664 222 1 -0.8476 19.667697981868418 7.9523380428986306 15.149204299192391 0 0 1
900 300 2 0.4238 27.21919630097718 8.00698090448951 27.770783857365686 -1 0 0
1177 393 1 -0.8476 3.2676882271585215 9.266406209475077 15.17222247553233 -1 2 -1
1263 421 2 0.4238 8.18133823387423 14.568026457235037 27.530196340767038 0 2 -1
1244 415 2 0.4238 5.320218831118668 3.4869443184136832 15.12637887357804 1 0 -1
1065 355 2 0.4238 7.748704595717616 6.877519504768931 15.21207469593196 1 2 -1
1754 585 2 0.4238 13.7916649380129 7.072524592753747 15.41868890491827 0 0 0
589 197 1 -0.8476 10.11665189252228 3.135419120322534 27.8623965126051 0 1 0
68 23 2 0.4238 4.779067129956561 14.22110214347766 19.18089912467965 -2 -1 0
1724 575 2 0.4238 8.948068093306631 11.650426400552464 27.880754642129 0 -1 0
388 130 1 -0.8476 12.38344689739428 14.977921300850742 21.541848973826767 0 0 -1
936 312 2 0.4238 3.948142476723617 10.876575591388516 15.13121611832156 2 0 -1
101 34 2 0.4238 24.62292837026056 11.577707872584929 28.01889506669344 0 2 0
700 234 1 -0.8476 22.473921093620127 1.8845310443285197 17.031781524315047 -1 0 0
1308 436 2 0.4238 6.341048426783971 2.1048675060373903 26.49405134821272 1 -1 -1
393 131 2 0.4238 4.087963987558111 9.158426509546691 28.111170328803937 1 1 -2
1403 468 2 0.4238 22.139686941848858 10.300764751010167 28.15542459354095 0 0 0
149 50 2 0.4238 19.73380799011258 11.282229652839144 15.140040908083234 0 0 1
228 76 2 0.4238 3.039828561543762 11.690803043804118 28.06683170772375 0 0 -1
1238 413 2 0.4238 2.9379748681409117 19.652003242281122 3.7186147292210476 1 0 0
606 202 2 0.4238 4.5823913128717715 16.382723606027536 6.9467782788345795 -1 0 0
1372 458 1 -0.8476 13.485108878296371 15.42595148291307 14.967383192009288 0 -1 0
946 316 1 -0.8476 6.193058156409976 18.203554538887378 6.929323648698133 0 1 1
660 220 2 0.4238 5.843040122908942 18.10303058035914 5.249460309227046 -1 0 2
708 236 2 0.4238 5.206647002809198 17.21359902814986 2.797998400382969 -2 0 1
161 54 2 0.4238 24.42973043861349 15.170829074710543 12.408628312968496 0 1 0
77 26 2 0.4238 27.904776126649278 15.077956706898945 8.572262653107032 0 1 -1
948 316 2 0.4238 5.435658926854807 18.686086522384723 7.369222840683633 0 1 1
658 220 1 -0.8476 5.411280866780553 18.278072375620276 4.3646181907633546 -1 0 2
1040 347 2 0.4238 25.59816235130883 22.669304076863643 10.360803985652822 -1 -1 0
659 220 2 0.4238 5.350769260513217 19.264597652176626 4.212610101638819 -1 0 2
1237 413 1 -0.8476 3.2487725269709773 20.60146917697798 3.674804484846659 1 0 0
830 277 2 0.4238 7.282268074838336 21.31513955367431 4.35678578985952 0 0 -1
1685 562 2 0.4238 6.307516700237571 21.34245860994699 2.4828146478474102 0 0 0
677 226 2 0.4238 3.1483564769159855 18.8954861505281 7.780506578280448 1 0 0
676 226 1 -0.8476 4.027417820813702 19.369947377700015 7.734259927154029 1 0 0
947 316 2 0.4238 6.993179939796033 18.222117027495425 7.528874042579246 0 1 1
678 226 2 0.4238 3.941968419445324 20.173331450259212 7.144960768375948 1 0 0
1380 460 2 0.4238 3.5430928217238913 21.41741836010759 5.122430744804059 0 -1 1
604 202 1 -0.8476 4.811105925208804 15.878226717866765 7.7793481304919245 -1 0 0
671 224 2 0.4238 2.0404238782616506 27.829678201036785 2.5533712189161895 2 0 0
639 213 2 0.4238 27.24200603315527 17.677382161771956 11.30910805380613 -1 0 1
1239 413 2 0.4238 3.65750672251555 20.777406024774827 2.779269649715617 1 0 0
26 9 2 0.4238 7.954406886286488 17.616662843977487 13.329977887078211 1 0 0
755 252 2 0.4238 17.216709628232433 28.111963963726883 7.98919542314282 -1 0 0
829 277 1 -0.8476 7.8181782738665335 20.614818122288135 4.828326994987902 0 0 -1
831 277 2 0.4238 7.963200939887225 19.837590943550172 4.21604712808042 0 0 -1
1752 584 2 0.4238 11.38572388475446 19.410441519504744 5.616536117699744 -1 0 0
350 117 2 0.4238 21.758275662118162 16.270992523982464 1.9531982252495976 0 2 0
441 147 2 0.4238 11.748521981459646 15.822706647597494 3.739802582709033 0 1 1
887 296 2 0.4238 15.620623993068211 21.79865399395947 3.034068468757298 0 -1 1
1068 356 2 0.4238 13.351413211681981 16.861417045791637 3.4292347787651694 -2 1 2
1067 356 2 0.4238 13.402347749101793 16.59357465787277 5.039294629804101 -2 1 2
218 73 2 0.4238 11.915397493696183 19.506142120300243 7.61855453012255 0 -1 0
317 106 2 0.4238 12.614607446825213 15.645023332561465 7.013914980905572 0 -2 1
219 73 2 0.4238 11.563101002130516 21.068647615248835 7.300606700095426 0 -1 0
1066 356 1 -0.8476 12.879899281987623 17.014422180684505 4.29771859884689 -2 1 2
217 73 1 -0.8476 11.212325599744382 20.132380018895518 7.281633045605234 0 -1 0
493 165 1 -0.8476 14.227901645978069 15.804986898448371 6.255812182959819 -1 1 0
424 142 1 -0.8476 8.59775680801997 20.72145030767519 7.425858480172224 1 -1 -1
426 142 2 0.4238 8.213960475013025 20.59117228048867 6.511676648130119 1 -1 -1
1751 584 2 0.4238 12.047768163343294 18.73930394599558 4.283157412222524 -1 0 0
300 100 2 0.4238 11.161596030397298 21.10899557916959 4.319908597625243 0 -1 0
425 142 2 0.4238 9.578643999566385 20.527862992333098 7.406248106767663 1 -1 -1
1525 509 1 -0.8476 8.744570098119151 18.659986829145627 2.81762512052313 0 0 1
1526 509 2 0.4238 9.338463784824448 19.176282353242463 3.43465842094988 0 0 1
1322 441 2 0.4238 12.580704608825217 23.210335563748483 8.060203384502127 0 -1 0
1750 584 1 -0.8476 11.296250781019307 19.30269789503831 4.626391521175921 -1 0 0
1321 441 1 -0.8476 12.517127248801174 22.376741642114048 7.511495941496389 0 -1 0
1586 529 2 0.4238 20.212911436831984 27.141298352485734 2.262909829522057 -1 -3 0
276 92 2 0.4238 11.149706201079539 16.743808890723564 8.153228687998807 3 0 0
1264 422 1 -0.8476 20.872461706628492 23.487439813609512 2.327935490571179 0 -1 1
316 106 1 -0.8476 11.93413433181474 15.18159414321753 7.581532651405292 0 -2 1
1206 402 2 0.4238 27.13947572803607 15.469236756735942 2.0944870133447044 0 0 1
601 201 1 -0.8476 17.76208703010903 18.81153511870622 3.8946027771894856 2 0 1
495 165 2 0.4238 15.025873776375784 16.381912697681305 6.430162729139979 -1 1 0
241 81 1 -0.8476 17.88128941049027 16.086273420529363 6.091182436575783 1 1 1
243 81 2 0.4238 17.297478323076824 16.577268651826785 6.73778049556526 1 1 1
1381 461 1 -0.8476 17.313999096541778 15.83443529022153 3.433708366909818 -1 0 0
592 198 1 -0.8476 20.348907267674882 17.39397445300003 2.833570849319138 -2 -1 0
1382 461 2 0.4238 17.368539381911514 15.809952566064304 4.431919784481808 -1 0 0
1171 391 1 -0.8476 14.997189504162705 15.908130272553814 2.2492590407349824 0 0 0
1639 547 1 -0.8476 18.313103589173803 19.349179170556845 6.818066298100419 0 0 0
1271 424 2 0.4238 21.430455831630567 16.857088511876434 5.988252069068879 -1 0 2
1383 461 2 0.4238 18.09123316281648 15.339498411571348 3.0451922979836343 -1 0 0
1641 547 2 0.4238 19.242923520233067 19.501404642051185 7.153122750981814 0 0 0
1640 547 2 0.4238 18.3406722590259 19.14503303755443 5.8395136610048395 0 0 0
1227 409 2 0.4238 15.970787627237245 18.576030857873143 7.109877821043394 1 1 2
682 228 1 -0.8476 15.856390632678819 20.359802571244437 6.553685862954486 0 0 1
293 98 2 0.4238 18.092015016222533 20.39823352468439 8.249632770292846 -1 1 1
734 245 2 0.4238 18.560555406259958 20.819480069985158 3.843029062175314 -1 0 0
1011 337 2 0.4238 14.873134938114436 20.664106069705504 4.888306653407485 1 -1 0
1225 409 1 -0.8476 15.924538822686468 17.745601226064334 7.665079500772199 1 1 2
1226 409 2 0.4238 16.010863357065535 17.98584022164058 8.63194749702227 1 1 2
1009 337 1 -0.8476 14.383102604186206 20.993955959602786 4.081418283877823 1 -1 0
292 98 1 -0.8476 17.774997882150547 20.827721606180724 9.095233609405295 -1 1 1
1270 424 1 -0.8476 20.759683840039745 16.443335913534778 6.6037805298856735 -1 0 2
1272 424 2 0.4238 20.462600613952674 17.120649089535995 7.276825116036786 -1 0 2
1266 422 2 0.4238 20.460443436394634 24.386697099758667 2.474830553864389 0 -1 1
812 271 2 0.4238 21.891184399118018 20.500672956534352 6.292532881159461 -1 1 1
813 271 2 0.4238 21.27059105764664 21.459389946889846 5.1253342823185575 -1 1 1
811 271 1 -0.8476 21.13118678573671 21.103395962578833 6.049366355317176 -1 1 1
684 228 2 0.4238 16.85275341833059 20.441629645698967 6.529892425619611 0 0 1
242 81 2 0.4238 18.82816417776233 16.111022712966815 6.411832236640478 1 1 1
294 98 2 0.4238 16.976591253269024 20.334495539763147 9.440596217882584 -1 1 1
1010 337 2 0.4238 13.464826154550895 21.288235256477066 4.346313044587963 1 -1 0
603 201 2 0.4238 17.63605505840079 17.86617950042366 4.195300020706915 2 0 1
886 296 1 -0.8476 16.362395714209452 22.382508839075378 2.7040842192498435 0 -1 1
967 323 1 -0.8476 18.988919161671568 25.71308201312448 2.8967805501768358 -1 0 0
520 174 1 -0.8476 27.96654119132429 18.518042301478594 3.5851588636983034 -1 -1 0
521 174 2 0.4238 27.39654833674688 18.94290835280746 4.2884347984465 -1 -1 0
522 174 2 0.4238 27.742098622205102 17.545972501176728 3.51655927546481 -1 -1 0
594 198 2 0.4238 19.952884198311136 17.929652987809096 3.579369062652933 -2 -1 0
1204 402 1 -0.8476 27.24164132274288 15.830728059237911 3.021248263545856 0 0 1
1170 390 2 0.4238 22.855592285584653 15.882698284006212 4.480775871348542 0 0 0
1466 489 2 0.4238 27.476636473647687 17.446003509777707 7.304765742663985 1 0 1
892 298 1 -0.8476 22.95617403524907 19.137323749414676 6.488920867759404 -1 -1 1
1169 390 2 0.4238 23.091009674016533 17.468227907408064 4.168844355105029 0 0 0
76 26 1 -0.8476 27.196309702859654 15.737535324364863 8.321201969472112 0 1 -1
1205 402 2 0.4238 27.362637307132456 15.07339333781289 3.662968338263498 0 0 1
78 26 2 0.4238 26.388635919518173 15.249431090750312 7.990418908569531 0 1 -1
418 140 1 -0.8476 24.49382683045108 27.8927176082962 8.974461658749268 0 0 1
1168 390 1 -0.8476 22.762061467879793 16.809212259839132 4.845226314456434 0 0 0
221 74 2 0.4238 9.466696665622086 24.865619960033143 13.835699260562503 1 0 2
893 298 2 0.4238 23.15653672106747 18.408858102196177 5.833792882207804 -1 -1 1
1465 489 1 -0.8476 27.484028899400027 18.245673005115272 6.704370025334802 1 0 1
1467 489 2 0.4238 26.66140616104433 18.790985029455467 6.8653901519000184 1 0 1
1240 414 1 -0.8476 24.452667854026842 18.608873243522783 3.695715633838104 0 0 0
208 70 1 -0.8476 25.391287375631467 19.400922870446752 8.105930808886404 0 0 1
1241 414 2 0.4238 24.641541790794044 19.5768933084601 3.8608333070439906 0 0 0
1242 414 2 0.4238 24.38885124608519 18.44491170386218 2.7113152576377697 0 0 0
210 70 2 0.4238 25.633579553598917 20.159499369033135 8.710791711426715 0 0 1
498 166 2 0.4238 21.660454023188628 18.825953174628108 7.789692919259046 -1 -1 0
894 298 2 0.4238 23.812908503108435 19.532994672967025 6.819754212178321 -1 -1 1
220 74 1 -0.8476 8.889684781406153 24.077092003526186 14.048494946448686 1 0 2
1416 472 2 0.4238 16.221217450004975 17.753191372749832 14.754574160806035 0 0 1
630 210 2 0.4238 1.9769018706321881 23.2222624406943 8.383137101693334 1 0 0
762 254 2 0.4238 25.24183168227163 19.735750769148257 12.856043177702867 -1 0 -1
62 21 2 0.4238 25.572420680890332 25.161311229869227 14.369791292638551 -1 0 0
181 61 1 -0.8476 8.375988151263451 23.810320592185132 2.232836970937062 1 -2 0
1075 359 1 -0.8476 5.727727730174637 23.821679039198667 6.206428928219764 1 0 1
145 49 1 -0.8476 5.4598937175480025 25.57127870286882 4.212910481430444 0 0 0
1506 502 2 0.4238 5.712657724698005 27.225136681720535 3.57685597928923 1 -1 1
146 49 2 0.4238 5.283652495725478 24.830276597558946 4.860873465692193 0 0 0
1378 460 1 -0.8476 3.8001571269453756 21.920793953323013 5.94737392834476 0 -1 1
170 57 2 0.4238 17.36662073669864 15.576688263757243 10.943945669846874 -1 0 -1
147 49 2 0.4238 5.131722663757841 25.306296849974007 3.3062193317869117 0 0 0
1684 562 1 -0.8476 6.41040864313473 22.207777932448234 2.9733610671073247 0 0 0
706 236 1 -0.8476 4.97801707661123 16.6947060848353 1.974299658005699 -2 0 1
1686 562 2 0.4238 5.597111454355538 22.77145824867592 2.8290963445153134 0 0 0
1339 447 1 -0.8476 23.306208069781647 27.57315589565779 14.5469462909002 0 0 -1
1379 460 2 0.4238 4.490456375181667 22.60688400952188 5.71766229523711 0 -1 1
94 32 1 -0.8476 7.635544080208885 26.807109572212106 5.749021304966517 0 -2 0
990 330 2 0.4238 17.65891634560073 26.858834826750083 14.733482014505777 1 -2 0
1559 520 2 0.4238 26.085074863477647 26.538722863734495 1.971383511021356 0 -1 0
969 323 2 0.4238 18.244831347388956 26.05656087529705 2.3237567601718716 -1 0 0
182 61 2 0.4238 7.5246304858482445 23.304523980089023 2.3719771998861083 1 -2 0
923 308 2 0.4238 8.422476261381947 22.567088559384697 7.049628561498748 0 0 2
61 21 1 -0.8476 25.62988705893867 26.156484863208984 14.449335822649367 -1 0 0
527 176 2 0.4238 27.320259638919026 23.977827867087434 4.719769409998837 -1 0 1
526 176 1 -0.8476 26.651949765283174 24.44751617892385 5.29661856471608 -1 0 1
528 176 2 0.4238 26.368249632616045 23.84115081610086 6.039475048560329 -1 0 1
186 62 2 0.4238 20.487061331755395 28.059935493123827 10.44672339322804 0 0 0
357 119 2 0.4238 6.921782075081123 27.868263361434586 7.015085954618203 2 0 0
96 32 2 0.4238 6.917954351488964 26.14146383142407 5.544129250063455 0 -2 0
1076 359 2 0.4238 5.516866108421509 24.38736002646042 7.003638120058583 1 0 1
629 210 2 0.4238 2.8373499851233857 22.139461295960118 7.514922072714499 1 0 0
1077 359 2 0.4238 6.692500651747713 23.559605706178132 6.229472201591859 1 0 1
838 280 1 -0.8476 17.070378125730585 21.73163295980088 14.282737940285745 -1 0 -1
750 250 2 0.4238 2.1688272853146757 19.026616777583055 14.438961503879728 0 -1 1
1323 441 2 0.4238 12.61807169194429 22.606388279843824 6.543470664494671 0 -1 0
95 32 2 0.4238 8.402360046698359 26.674501749047764 5.1210018012340335 0 -2 0
183 61 2 0.4238 8.865977197945362 23.88351514532663 3.1014873050842704 1 -2 0
1576 526 1 -0.8476 10.024512499124741 24.111662124493115 4.502802792692353 0 2 0
1578 526 2 0.4238 9.519389284501901 23.968285799874348 5.35385789105357 0 2 0
1577 526 2 0.4238 10.322849791718989 25.064592375777444 4.448766542555214 0 2 0
1456 486 1 -0.8476 14.356977078456442 25.620972780577308 6.620252278050714 -1 1 2
1069 357 1 -0.8476 9.82401058637767 26.829202013423657 4.146655258821043 1 -1 1
1070 357 2 0.4238 9.500710213515163 27.043962975644366 3.225050854777151 1 -1 1
194 65 2 0.4238 16.268299806996055 23.188383303792175 6.59030055747744 0 0 0
1584 528 2 0.4238 15.151890143171649 26.47457502976134 4.897113278527798 1 -1 1
262 88 1 -0.8476 11.971351957911631 27.2630881144271 6.758797265937187 0 -1 0
263 88 2 0.4238 11.034371792455696 27.263893924006922 7.108179028284187 0 -1 0
298 100 1 -0.8476 11.709353223829522 21.94516048149707 4.348038782201268 0 -1 0
195 65 2 0.4238 14.786486083184233 23.800174290069283 6.901052331757167 0 0 0
1582 528 1 -0.8476 15.1800036574786 27.21914503918616 4.230160384753736 1 -1 1
1458 486 2 0.4238 13.51859051815683 26.10166485045238 6.3632614257314835 -1 1 2
1457 486 2 0.4238 14.798165548125016 26.102071039368674 7.377812765548263 -1 1 2
635 212 2 0.4238 14.337700394204019 27.760998504619433 2.8880104239542885 0 0 0
193 65 1 -0.8476 15.374635680239628 22.99703787008164 6.996196692463603 0 0 0
299 100 2 0.4238 11.104850696132182 22.73679088081252 4.436919580348455 0 -1 0
1071 357 2 0.4238 10.53520500259979 27.480741337154832 4.410661188433191 1 -1 1
439 147 1 -0.8476 11.098474159752664 15.102894807066635 3.496268404738103 0 1 1
131 44 2 0.4238 8.808590043653505 27.523387447097107 7.419753181960605 0 0 1
50 17 2 0.4238 15.464523633283564 25.772110258312566 2.983720119627381 -1 1 0
1505 502 2 0.4238 5.936155379220314 28.10931832278999 2.2222718478152044 1 -1 1
1671 557 2 0.4238 17.913470670412007 28.090796469252908 11.234136934687802 0 -1 0
733 245 1 -0.8476 18.611542968023706 21.767193726316915 4.158052166680488 -1 0 0
968 323 2 0.4238 18.660660356971718 25.59506592549726 3.8339676121185455 -1 0 0
1126 376 1 -0.8476 18.42979483687342 23.267635439749654 6.424020188065286 -1 -1 1
1722 574 2 0.4238 19.131894224438156 15.364558866608009 11.049771869105014 0 1 1
1583 528 2 0.4238 16.011691707925642 27.757420112079064 4.366380994200158 1 -1 1
1109 370 2 0.4238 11.82096513295605 21.678330830708152 2.7007437559028435 1 1 0
1683 561 2 0.4238 18.258621075406626 24.67900362788458 5.853261118615588 0 0 0
1682 561 2 0.4238 18.000831092875778 26.24730935135953 6.228211806369111 0 0 0
1681 561 1 -0.8476 18.410798967161124 25.623661974094304 5.562636630599038 0 0 0
1128 376 2 0.4238 19.117199561522135 23.169831282039745 7.143679248121678 -1 -1 1
1127 376 2 0.4238 18.59042160067619 22.581782107750776 5.714228412199027 -1 -1 1
944 315 2 0.4238 21.34459295795633 26.829275789757556 6.616818706541186 -1 -2 0
735 245 2 0.4238 17.78363382149963 22.255279383682982 3.8817560592890765 -1 0 0
945 315 2 0.4238 20.19454727683736 26.008655286447514 5.797914108600423 -1 -2 0
943 315 1 -0.8476 20.99592353440732 25.920020763420087 6.389472091748115 -1 -2 0
754 252 1 -0.8476 17.32939100510866 27.153594507488943 8.251551930567498 -1 0 0
683 228 2 0.4238 15.480781559472064 21.042316199849395 7.18065796614356 0 0 1
756 252 2 0.4238 16.495920596192068 26.830523406946163 8.699828838576593 -1 0 0
1531 511 1 -0.8476 20.15017411144395 22.37630246654158 8.139507888222207 0 0 2
1533 511 2 0.4238 20.777458678556954 21.97859107891987 7.4699260638564375 0 0 2
266 89 2 0.4238 2.6580264548632244 26.94506995277666 14.049908160159484 1 -1 0
1638 546 2 0.4238 21.685342725097517 24.848609035870243 8.011153074843985 0 -2 2
1358 453 2 0.4238 25.58119299695771 27.168909407562584 7.744566704285142 0 -1 1
556 186 1 -0.8476 9.683138381989933 17.363075746437424 14.018419840754166 -1 -1 -1
991 331 1 -0.8476 10.859968282224097 15.919967612476523 11.874168342816755 0 0 0
1130 377 2 0.4238 7.030053333851531 19.37210273341739 2.40321958810378 1 -1 0
1359 453 2 0.4238 26.03169294030201 26.866275358762007 6.204407730168243 0 -1 1
225 75 2 0.4238 23.6909825828724 25.1181199054373 5.5111627718486265 0 0 0
171 57 2 0.4238 17.396924338351614 15.017759920227205 12.477995064102656 -1 0 -1
1230 410 2 0.4238 22.13234826854875 22.74370054067148 3.0995714016584404 1 0 1
1471 491 1 -0.8476 19.85000374730837 16.301273383299513 14.809555379410934 0 2 -1
1233 411 2 0.4238 25.21387608501218 21.4778133968696 5.384677668089545 1 -1 -1
1558 520 1 -0.8476 25.20925814741959 26.066178719495625 1.873163686994915 0 -1 0
1231 411 1 -0.8476 25.05341828206039 21.234286945211093 4.428148407950883 1 -1 -1
1062 354 2 0.4238 24.734381503493733 26.32282736113512 3.573832127151634 0 -1 1
224 75 2 0.4238 22.130741565865343 24.864205171943137 5.920799071218153 0 0 0
223 75 1 -0.8476 23.021401193061642 24.429162669039904 5.78864946422776 0 0 0
1228 410 1 -0.8476 22.73402116861568 22.40556716294612 3.8232119683199617 1 0 1
1229 410 2 0.4238 22.8550773704505 23.116910659994417 4.51555285338425 1 0 1
1232 411 2 0.4238 24.149646711138978 21.558526332904563 4.148745688422263 1 -1 -1
1061 354 2 0.4238 25.576053693228634 25.62598795890896 4.787351510013536 0 -1 1
1799 600 2 0.4238 26.498330726288444 21.57659733973658 3.455262786022855 -1 1 0
82 28 1 -0.8476 9.892488092045523 19.94716835672086 14.629605767385607 -1 -1 -1
1798 600 1 -0.8476 27.180408112602837 21.925715804114837 2.8126991648931092 -1 1 0
1060 354 1 -0.8476 24.81101450794465 26.230972769935015 4.566651446110076 0 -1 1
870 290 2 0.4238 24.142684212909725 23.277927591134958 6.756589829348238 -2 0 1
868 290 1 -0.8476 24.88041028881162 22.654672733839714 7.016039961119263 -2 0 1
1607 536 2 0.4238 22.179389693028554 15.923398616569726 7.980797624644965 0 0 -1
405 135 2 0.4238 23.04570667399503 21.780453023837016 2.0451324381570823 -1 0 1
869 290 2 0.4238 24.879234904878235 22.531605070785936 8.00843762294688 -2 0 1
1800 600 2 0.4238 28.022108596251986 21.392508333222654 2.8977328950603187 -1 1 0
761 254 2 0.4238 24.960323712764357 19.317918978025183 14.409361193927685 -1 0 -1
264 88 2 0.4238 12.428176430023932 28.110947361254127 7.0279556002492285 0 -1 0
905 302 2 0.4238 5.507296012374023 16.78144553780819 13.94571493142684 0 0 0
965 322 2 0.4238 27.813683119689284 16.82805442709635 9.448109396344247 -2 -3 0
1216 406 1 -0.8476 6.141803838165893 20.424587157973708 12.89072162498436 -1 0 0
25 9 1 -0.8476 6.957353213348403 17.69249366403195 13.341566726413584 1 0 0
643 215 1 -0.8476 6.3938192108857415 20.89091941767832 8.89769027970145 1 1 2
290 97 2 0.4238 7.3410388993340066 15.924852913157201 12.280919037005738 1 -1 0
602 201 2 0.4238 17.474072605693493 18.899190651714626 2.940996824798698 2 0 1
1081 361 1 -0.8476 4.043748827662575 17.781181335375702 11.37334546471082 0 -1 0
644 215 2 0.4238 5.550177114045483 20.40837443605696 8.662278826031923 1 1 2
904 302 1 -0.8476 4.596805541683503 16.370393489847785 13.990930431022948 0 0 0
1630 544 1 -0.8476 7.765549556394208 19.19815133897171 10.556852996133076 1 1 1
1631 544 2 0.4238 8.45405487691646 19.660146934982034 11.11588835997601 1 1 1
1632 544 2 0.4238 7.242757438778207 19.87804264166544 10.042619282850367 1 1 1
1083 361 2 0.4238 4.914282702899508 17.78210088166929 10.881237732335386 0 -1 0
1668 556 2 0.4238 7.081678351930201 17.54225781801784 10.078268071033914 0 1 0
605 202 2 0.4238 5.646389160866513 16.255801140822825 8.179022493926297 -1 0 0
966 322 2 0.4238 2.7534830445498795 17.541837815893842 10.19307916438981 -1 -3 0
1082 361 2 0.4238 3.8513741524868763 18.702188934597487 11.712074790505934 0 -1 0
806 269 2 0.4238 3.0944542790654954 20.831480004600646 13.51699706567044 0 1 0
964 322 1 -0.8476 1.861754822954602 17.698389199988867 9.768445882134701 -1 -3 0
645 215 2 0.4238 7.093872349385512 20.69238131170052 8.211753258053776 1 1 2
807 269 2 0.4238 2.966984443999273 20.673211373395514 11.896710354286121 0 1 0
1218 406 2 0.4238 5.167252130169702 20.53558191000838 12.695964688498593 -1 0 0
805 269 1 -0.8476 3.3329554962852432 20.26101039793613 12.731069742459301 0 1 0
1666 556 1 -0.8476 6.889422898802155 16.817236636815174 9.416918707597585 0 1 0
1174 392 1 -0.8476 27.304578658421246 24.67062105750552 8.214242881231915 0 -1 -2
1217 406 2 0.4238 6.659029080554363 21.140772231295525 12.422151840131646 -1 0 0
27 9 2 0.4238 6.691631597990283 18.629078073102885 13.113087834681272 1 0 0
1472 491 2 0.4238 20.09754256953148 17.098729977528656 14.25929334530381 0 2 -1
1041 347 2 0.4238 26.365404201926136 21.228209947505103 10.325958999054329 -1 -1 0
274 92 1 -0.8476 10.735697202325785 17.411746662240514 8.771659390560613 3 0 0
275 92 2 0.4238 9.950920623234166 17.839549939158154 8.323206073348484 3 0 0
1542 514 2 0.4238 11.04429316105867 19.62914669731373 11.119386096304408 1 0 1
1667 556 2 0.4238 7.491367967563793 16.038139578527293 9.592048211477922 0 1 0
422 141 2 0.4238 13.398675096897971 17.796553274129597 13.135430688316982 0 0 1
1540 514 1 -0.8476 11.73960550186481 19.112775221072592 10.61948481130001 1 0 1
267 89 2 0.4238 27.992821920032352 27.62373384998805 12.943732905138779 0 -1 0
421 141 1 -0.8476 13.594443909485237 18.043825978135516 12.186467575033868 0 0 1
1541 514 2 0.4238 11.294812883993785 18.507067704699374 9.959728761714336 1 0 1
423 141 2 0.4238 12.881833863182546 18.65856060185739 11.848400942819115 0 0 1
992 331 2 0.4238 10.485413115363379 16.36978716641731 12.68495301254736 0 0 0
509 170 2 0.4238 9.708054832454906 20.38369623698988 12.900637645919456 1 0 0
508 170 1 -0.8476 9.72240396133323 20.611292646769925 11.92698777191666 1 0 0
510 170 2 0.4238 9.116486724241947 21.388536286262273 11.757409608640975 1 0 0
1357 453 1 -0.8476 26.353325552243522 26.951583276519614 7.147421741089568 0 -1 1
432 144 2 0.4238 10.686604932474955 22.026128847583465 12.35528738866311 1 1 0
1454 485 2 0.4238 13.745339671810017 21.43329530192007 10.491171708112747 3 -1 0
1018 340 1 -0.8476 13.43950985760127 20.317002336117454 8.98448923279334 0 -1 0
1019 340 2 0.4238 12.792630222295466 19.723781531311854 9.463694034720628 0 -1 0
1020 340 2 0.4238 12.961797110344964 21.129094117732905 8.64937923333393 0 -1 0
653 218 2 0.4238 3.5817585803664076 23.072578890404603 14.64081461323487 1 0 -1
1452 484 2 0.4238 14.818837896420058 18.494567794904484 10.958743173685981 -1 -1 1
153 51 2 0.4238 19.41763133956519 25.804059154144735 14.879672323219072 1 0 0
1000 334 1 -0.8476 24.067576300609712 23.515834581369372 14.836593232616945 0 0 0
430 144 1 -0.8476 11.332694913100172 22.59462578124811 12.86458031257538 1 1 0
593 198 2 0.4238 20.245868667087827 17.893288709817615 1.973297807691599 -2 -1 0
1173 391 2 0.4238 15.860550769701996 15.903933718404634 2.7538279893973736 0 0 0
1700 567 2 0.4238 26.508300263676936 24.265047600303582 11.26711746855437 -2 0 -1
1523 508 2 0.4238 24.025641742736884 27.894380126616593 4.714325773236495 -1 -1 0
1027 343 1 -0.8476 24.0303993405078 17.791085282009075 14.835307367165635 -1 1 1
1512 504 2 0.4238 11.92192287004783 27.821309591717753 14.681060786796689 2 -1 0
1414 472 1 -0.8476 15.647195819354705 18.571240166942548 14.71857902913686 0 0 1
1451 484 2 0.4238 14.87318292743298 19.395425838867556 9.597813920722384 -1 -1 1
1648 550 1 -0.8476 21.18318766894257 18.530993885559674 13.988076795832905 0 0 0
1088 363 2 0.4238 19.509595757246867 16.363633834048848 9.375692766770573 -1 0 2
1087 363 1 -0.8476 18.734986413121614 16.873565472229732 9.001592654656456 -1 0 2
410 137 2 0.4238 17.190184180648206 15.757877298568683 9.001459370613803 0 0 -1
1658 553 2 0.4238 17.61185677488117 17.467654333166557 12.224423571804516 0 1 1
1657 553 1 -0.8476 17.462989538664104 18.453379687866416 12.30306278985959 0 1 1
722 241 2 0.4238 21.257935696570833 16.40568648923594 11.6315159939452 0 1 1
1659 553 2 0.4238 16.740782415393472 18.73292304514333 11.67039193783498 0 1 1
690 230 2 0.4238 26.301682893814103 21.23174852639763 14.012652283430228 1 0 -1
1649 550 2 0.4238 21.525193868759132 17.91696038324717 13.27674275344289 0 0 0
1089 363 2 0.4238 18.90104479344273 17.8543791975742 9.103717340448096 -1 0 2
1415 472 2 0.4238 15.756375576283743 19.016188695713055 13.829702969642648 0 0 1
1450 484 1 -0.8476 15.42285714766229 18.92196137001374 10.28606515018032 -1 -1 1
1146 382 2 0.4238 18.631074566932533 20.743155791890654 14.02224066803468 0 0 0
1144 382 1 -0.8476 19.07334493001738 20.00915611743076 13.506836398286291 0 0 0
1184 395 2 0.4238 18.04020654662248 22.371980457807794 10.484224951964618 0 0 0
1145 382 2 0.4238 18.37973702038493 19.481364330105414 13.016587437229058 0 0 0
1650 550 2 0.4238 20.41907232765971 19.065906519587184 13.627524328540163 0 0 0
740 247 2 0.4238 21.003234802860725 19.369964362407625 11.49478784358392 1 1 0
496 166 1 -0.8476 20.874958764651772 18.707328716126945 8.397085289590958 -1 -1 0
721 241 1 -0.8476 21.93258396470045 17.101896707465947 11.876752830357125 0 1 1
741 247 2 0.4238 21.244567093850712 20.715260975144727 10.601164647255105 1 1 0
739 247 1 -0.8476 21.448747626529094 19.739451749445895 10.679313932439792 1 1 0
497 166 2 0.4238 21.08603644513893 19.094778209739047 9.294486659075066 -1 -1 0
1185 395 2 0.4238 18.498122531744766 22.45039821335618 12.04972492284867 0 0 0
1029 343 2 0.4238 24.36835404297989 17.062125648301894 14.239988507548395 -1 1 1
169 57 1 -0.8476 17.544920691027727 15.818618483642288 11.89771669447609 -1 0 -1
209 70 2 0.4238 25.053009204819663 18.63434987682035 8.651765276685925 0 0 1
1115 372 2 0.4238 23.16539333395798 20.017450533061304 11.32865119734491 -1 0 1
938 313 2 0.4238 28.14827921176711 20.896819612307283 9.22300266527418 -1 -1 -1
1114 372 1 -0.8476 23.989886666121897 20.34200691037463 11.792196162956067 -1 0 1
856 286 1 -0.8476 8.750595988338164 15.92164459499417 2.2356781845227522 1 1 1
1701 567 2 0.4238 25.140498918699684 24.918856294803934 10.660255777931015 -2 0 -1
135 45 2 0.4238 22.171473304577926 20.252068919288373 14.127420983919906 0 -2 0
1608 536 2 0.4238 23.339164143079238 16.1327590943225 9.111159574361176 0 0 -1
1004 335 2 0.4238 16.620565319056954 15.466311738703387 14.61189238247105 -1 0 0
1606 536 1 -0.8476 22.89899193980377 15.46929911114693 8.506122667455061 0 0 -1
160 54 1 -0.8476 24.353139717726293 16.077203127565724 12.824103992099216 0 1 0
637 213 1 -0.8476 26.45438980547367 17.5231448920306 11.905658552916185 -1 0 1
162 54 2 0.4238 25.125205906391596 16.642934132908316 12.534514078227565 0 1 0
723 241 2 0.4238 22.754957051341307 16.658268046605375 12.23297785756809 0 1 1
638 213 2 0.4238 26.61365256420576 17.96445854222927 12.78876554152574 -1 0 1
937 313 1 -0.8476 27.758251304907805 20.38967445379085 9.991561656820943 -1 -1 -1
939 313 2 0.4238 27.991911194758064 19.421235365352643 9.904785745346242 -1 -1 -1
788 263 2 0.4238 25.261242682502886 17.37267873468555 10.612319750303987 -1 0 1
134 45 2 0.4238 23.32393523805154 20.940791680144233 13.197840894903575 0 -2 0
133 45 1 -0.8476 22.753663658877038 21.056753430777754 14.011071050624494 0 -2 0
789 263 2 0.4238 23.64057460378911 17.560187275212357 10.682338684110375 -1 0 1
787 263 1 -0.8476 24.426744943486266 17.47297688903726 10.070512780670448 -1 0 1
265 89 1 -0.8476 28.14520995430476 26.820689249483785 13.51983817801601 0 -1 0
760 254 1 -0.8476 25.614258210845744 19.743807335324114 13.784069934962904 -1 0 -1
130 44 1 -0.8476 9.563392097560882 28.091484257935992 7.747686785545706 0 0 1
371 124 2 0.4238 2.037183797859361 27.721664480864327 6.9619990272124745 3 0 0
1699 567 1 -0.8476 25.897804473126214 24.292453456537313 10.475572101997177 -2 0 -1
277 93 1 -0.8476 23.442109282003724 25.69041289842413 10.43258811887262 1 0 0
654 218 2 0.4238 3.9808538248608807 23.638997900993807 13.16212631369378 1 0 -1
356 119 2 0.4238 6.288204570799033 27.42075030593287 8.45207522112269 2 0 0
52 18 1 -0.8476 5.904690704470167 23.082738068368197 10.334706190030609 1 0 2
54 18 2 0.4238 5.035760533428571 22.860504014125546 10.776941888669988 1 0 2
1335 445 2 0.4238 2.5415064500676725 23.265734405396504 11.433942174464127 -1 0 1
63 21 2 0.4238 26.54367759790155 26.46020521115487 14.179628557244587 -1 0 0
457 153 1 -0.8476 5.4885517676242515 25.37892633593579 8.92353729800213 0 0 0
1333 445 1 -0.8476 3.2494344355201945 22.719609828521506 10.986073746657196 -1 0 1
92 31 2 0.4238 3.2442509811972857 27.860043447390797 10.355799796294793 1 0 0
91 31 1 -0.8476 3.5519725314385355 27.027219691122802 10.815921720941082 1 0 0
852 284 2 0.4238 7.896679245808659 26.920990169022673 11.110320577663568 1 0 0
1334 445 2 0.4238 2.929538470017059 22.435967587782454 10.082075020704831 -1 0 1
850 284 1 -0.8476 8.671954569243852 27.221668997763246 10.554856018910758 1 0 0
93 31 2 0.4238 2.870263497483007 26.306281825965016 10.691336647839192 1 0 0
459 153 2 0.4238 5.48777638937148 24.60781166648897 9.560233930833608 0 0 0
406 136 1 -0.8476 27.58853931858621 24.29183340393159 12.461246822610137 2 0 0
1536 512 2 0.4238 7.457054039617138 23.20392571532223 11.47744777336966 0 -1 1
1535 512 2 0.4238 8.351735036172405 23.249053219275023 12.842781451997912 0 -1 1
1534 512 1 -0.8476 8.067084065058388 22.67964635588681 12.071581218262185 0 -1 1
458 153 2 0.4238 4.783841727231493 26.034965433376485 9.19371631565622 0 0 0
53 18 2 0.4238 6.029090848757002 22.499210330505292 9.532197606729222 1 0 2
922 308 1 -0.8476 8.246116149530783 23.50325014729534 6.7454926132722495 0 0 2
408 136 2 0.4238 27.845828068885265 25.14035057651999 12.923656719434698 2 0 0
924 308 2 0.4238 8.639681904976618 24.146728101430057 7.402030664888064 0 0 2
628 210 1 -0.8476 2.5166199461964607 22.38175437097858 8.430578319702796 1 0 0
652 218 1 -0.8476 4.078194015076254 23.78612512377512 14.146442576369648 1 0 -1
1360 454 1 -0.8476 14.454196836705405 27.62677428971944 12.713365367505027 0 0 0
1129 377 1 -0.8476 6.166447460905175 19.732664681512823 2.0508277618930832 1 -1 0
1265 422 2 0.4238 20.16669927780946 22.840639640015635 2.038886223469334 0 -1 1
857 286 2 0.4238 9.458467699507317 15.311264703393615 2.5911425565968864 1 1 1
1103 368 2 0.4238 18.81128885082538 26.9572118190676 9.002706994065898 0 1 0
1282 428 1 -0.8476 10.36772767438331 27.81744143855439 14.160403155449474 1 0 0
725 242 2 0.4238 13.229253003046022 27.17497220300174 11.457954697663514 0 1 0
724 242 1 -0.8476 12.571178123489672 26.91507175677052 10.751279855896609 0 1 0
1469 490 2 0.4238 10.41188694427393 24.61293386842866 8.977280264986726 2 0 -1
557 186 2 0.4238 9.553586384785808 16.851391827368154 14.867770122267755 -1 -1 -1
1470 490 2 0.4238 8.979548032384928 25.291565127608383 9.370334578112486 2 0 -1
1431 477 2 0.4238 12.364479293672103 25.30555648092638 10.12832473324643 -2 0 0
1361 454 2 0.4238 13.987136557867638 27.583196131657914 13.596517230804286 0 0 0
1429 477 1 -0.8476 12.259647526394826 24.419250876932967 9.677244021624592 -2 0 0
1455 485 2 0.4238 12.794665612478225 22.306640549056194 11.49122893200246 3 -1 0
1430 477 2 0.4238 12.828884299396995 23.740051501233133 10.14055652152914 -2 0 0
1417 473 1 -0.8476 10.765211424082626 25.622092608550027 12.769850617546975 -1 0 0
1468 490 1 -0.8476 9.512667578443123 24.880296443101766 8.630982091274127 2 0 -1
431 144 2 0.4238 11.032609767447173 23.548092834560382 12.83542619379438 1 1 0
1419 473 2 0.4238 11.374231335524724 25.815579354257792 12.000657745282414 -1 0 0
1418 473 2 0.4238 10.620440257895282 26.45825208011027 13.298886264675668 -1 0 0
1453 485 1 -0.8476 13.630419170975228 22.31835106134182 10.942248651873337 3 -1 0
1585 529 1 -0.8476 20.688684047654338 28.008646924458546 2.1168012724720793 -1 -3 0
726 242 2 0.4238 12.105185069865456 27.73259526201895 10.412892742575055 0 1 0
749 250 2 0.4238 26.894371358913535 19.117331506883048 14.750487755239691 -1 -1 1
1532 511 2 0.4238 19.67441057827457 21.643918896773837 8.626605003922611 0 0 2
1421 474 2 0.4238 22.268454631402747 26.86453011132121 13.312019487715235 -1 0 -1
167 56 2 0.4238 20.09036593571223 21.10836408445659 12.732075630869799 -1 -1 0
851 284 2 0.4238 9.250336132843293 27.834204874453604 11.093627960944351 1 0 0
1311 437 2 0.4238 14.08866503275466 26.558612756678787 9.66996405599495 1 -1 0
1309 437 1 -0.8476 15.038486178525863 26.365361425188414 9.424009186268318 1 -1 0
1362 454 2 0.4238 15.435990752217405 27.74620321751301 12.861073247682295 0 0 0
1104 368 2 0.4238 19.92620855899709 25.817183128268102 9.354722924964944 0 1 0
180 60 2 0.4238 16.642236412006124 25.093812097547666 13.972114046504842 -1 0 0
178 60 1 -0.8476 15.79104640228225 24.585611229724176 13.84093647854659 -1 0 0
989 330 2 0.4238 17.744457745600368 27.033483662473447 13.11212231538752 1 -2 0
1504 502 1 -0.8476 5.7733711404616255 28.15263127174158 3.207982413818928 1 -1 1
988 330 1 -0.8476 17.817499128395873 26.383169814480514 13.868268454873057 1 -2 0
1249 417 1 -0.8476 21.24564568009859 23.922816206292183 13.645455684691763 0 0 0
1251 417 2 0.4238 20.89249485983971 24.30169815631674 14.500870289304439 0 0 0
743 248 2 0.4238 16.505860890152988 23.882826056964248 11.21747103389839 -1 0 -1
1102 368 1 -0.8476 19.750389260944644 26.80052209554964 9.308548117668476 0 1 0
1116 372 2 0.4238 24.518261249526024 20.917815935169806 11.168285619188921 -1 0 1
1183 395 1 -0.8476 17.861206454743016 22.807444146091928 11.366455667554915 0 0 0
742 248 1 -0.8476 15.62420281652911 24.349942318706407 11.150526167827064 -1 0 -1
179 60 2 0.4238 15.564543731137892 24.56044259317031 12.867251090294982 -1 0 0
1250 417 2 0.4238 21.47229692512578 24.668627322072588 13.019040574005633 0 0 0
1310 437 2 0.4238 15.465612933845442 25.821022534393098 10.145991168303361 1 -1 0
166 56 1 -0.8476 20.37189631793183 21.895279528966817 12.18298115792494 -1 -1 0
168 56 2 0.4238 20.7222362101435 22.613229347232327 12.784487650456395 -1 -1 0
1637 546 2 0.4238 21.098716261467462 23.605718621877546 8.893037048122855 0 -2 2
839 280 2 0.4238 16.548768904868318 22.539744534569262 14.00909635155801 -1 0 -1
1420 474 1 -0.8476 21.477436635271516 26.69827268439343 12.723249594920118 -1 0 -1
1636 546 1 -0.8476 21.625240189119754 24.45513803712495 8.92852338369849 0 -2 2
744 248 2 0.4238 14.890439352462323 23.67205398880905 11.105153497228478 -1 0 -1
1422 474 2 0.4238 21.303169299828944 27.50782352376994 12.162660868168247 -1 0 -1
906 302 2 0.4238 4.080770012360862 16.612157005556725 13.16918950692337 0 0 0
558 186 2 0.4238 9.741423232030861 18.340090092832167 14.223470909033868 -1 -1 -1
407 136 2 0.4238 27.482331126600425 23.562751258319548 13.137383081145739 2 0 0
419 140 2 0.4238 24.319156085979124 27.09740332511032 9.55494977910303 0 0 1
1176 392 2 0.4238 27.09582146019367 25.46081539391202 7.638036625871228 0 -1 -2
1175 392 2 0.4238 26.679696613422156 24.652874979328296 8.994760438442714 0 -1 -2
278 93 2 0.4238 22.68326541285465 26.212630598011884 10.821747159580633 1 0 0
688 230 1 -0.8476 26.367340981261027 22.228546698370028 14.058288213238171 1 0 -1
1039 347 1 -0.8476 25.492627508326613 21.692400674984302 10.175002542538941 -1 -1 0
1001 334 2 0.4238 23.55649644077978 22.790535868187526 14.375356601155513 0 0 0
279 93 2 0.4238 23.082020273356765 24.97589500126417 9.832754659635643 1 0 0
1476 492 2 0.4238 14.218679809036637 15.256150078245936 11.51627368673258 0 -2 -1
689 230 2 0.4238 25.617550607406237 22.586851274656077 14.614554750064487 1 0 -1
993 331 2 0.4238 11.107793340552643 16.610375209269645 11.194521153619325 0 0 0
49 17 1 -0.8476 15.462015261228307 25.101879043792575 2.2415713217799618 -1 1 0
1720 574 1 -0.8476 20.12296039387084 15.478742044446605 10.980848192857124 0 1 1
858 286 2 0.4238 8.894396883144921 16.843725524470887 2.594968173133789 1 1 1
176 59 2 0.4238 6.532336652105858 19.63266879026811 14.744447361806833 1 0 -1
888 296 2 0.4238 16.043445590333317 23.328813626526276 2.651366597061193 0 -1 1
1340 447 2 0.4238 24.159641697714065 27.052004151532554 14.554154045734276 0 0 -1
1510 504 1 -0.8476 12.894057244512506 27.911885896231038 14.897279968445964 2 -1 0
123 41 2 0.4238 14.144232867425057 20.056296128753868 2.399328928482249 1 -2 1
1475 492 2 0.4238 15.114816239547013 15.049130056124664 10.166937212130101 0 -2 -1
302 101 2 0.4238 11.948446030414525 21.861066140141677 14.809145948757935 1 -1 0
1409 470 2 0.4238 5.096406542029918 15.042670268230767 2.4703317863019842 0 0 1
1373 458 2 0.4238 13.026084661723603 15.025713273330227 14.174220904904383 0 -1 0
222 74 2 0.4238 9.097644856187928 23.75108477634296 14.970705548727764 1 0 2
1527 509 2 0.4238 9.015652765153016 18.833991308553568 1.870926649772997 0 0 1
70 24 1 -0.8476 4.393842630122552 18.45033596843221 18.566126417504492 1 0 -1
71 24 2 0.4238 3.907093937970173 17.867688560840723 17.915282408190794 1 0 -1
72 24 2 0.4238 4.7138796912771905 17.896449773583374 19.334752760076647 1 0 -1
785 262 2 0.4238 7.330588842216475 15.785427942035724 16.06371598073145 1 2 1
1642 548 1 -0.8476 4.115636370239697 16.38586682132252 21.056433852045956 0 0 0
1643 548 2 0.4238 3.2393306307213554 16.636485220376816 21.46786973635078 0 0 0
1148 383 2 0.4238 5.520208631870239 20.53035406951109 16.6053243573826 0 -1 1
1696 566 1 -0.8476 6.612980327288047 17.21393871868577 20.0380022149834 2 -1 0
1644 548 2 0.4238 4.266321894286368 15.403345925460966 21.165738465198697 0 0 0
1147 383 1 -0.8476 4.651866653584776 20.78904850854012 17.028478500417872 0 -1 1
784 262 1 -0.8476 7.064004325446807 16.58046573510801 16.608553310586434 1 2 1
786 262 2 0.4238 6.756507742297457 16.27826614179929 17.51084003432841 1 2 1
1697 566 2 0.4238 6.007726581798496 17.050615074943096 20.817100122368597 2 -1 0
584 195 2 0.4238 17.035182404509573 27.51695987579399 22.086646087501148 -1 -1 -1
55 19 1 -0.8476 7.325509743934084 19.68989750152618 18.527457136562035 0 0 1
175 59 1 -0.8476 6.7110057827235226 19.372440655911568 15.693319870426883 1 0 -1
177 59 2 0.4238 6.535360305720292 18.394874345760424 15.809568477714476 1 0 -1
57 19 2 0.4238 7.050386287349116 18.844641868105676 18.985551120192675 0 0 1
1734 578 2 0.4238 19.72486416569584 26.3974450325954 20.58345799056826 1 -2 0
363 121 2 0.4238 27.43822970702467 21.105901823014673 20.619682381988607 0 0 0
614 205 2 0.4238 13.934422671030049 18.502224535488 15.149146566295954 0 0 0
1149 383 2 0.4238 4.318111298572495 20.03401506402987 17.59286484025379 0 -1 1
827 276 2 0.4238 3.374505908280819 21.064820958835583 15.708112304485377 0 0 0
56 19 2 0.4238 6.991390965867841 19.682188185546618 17.584957585712708 0 0 1
1698 566 2 0.4238 7.564907170081093 17.124203548468643 20.33088977675078 2 -1 0
588 196 2 0.4238 4.248759808550846 21.97578549156563 18.650746810384252 1 -1 -1
862 288 1 -0.8476 3.512362625329251 16.540201201747664 16.838122481456242 0 0 0
1491 497 2 0.4238 10.880831229061712 19.76147122518886 20.40932659416287 1 -1 -1
1316 439 2 0.4238 9.02241686782198 19.90903911880502 18.902872190286125 0 -1 -1
1727 576 2 0.4238 10.182479960882853 15.85662642106313 17.357974117897932 1 0 1
1489 497 1 -0.8476 11.402883142218814 19.039981948015647 20.864206298567716 1 -1 -1
562 188 1 -0.8476 21.788868471947506 28.144237757688217 22.24227724144506 1 0 -1
1726 576 1 -0.8476 9.939908510680814 16.74956283734635 16.97873118603652 1 0 1
816 272 2 0.4238 15.229110486734704 18.09507725829768 23.85913023954942 0 0 -1
802 268 1 -0.8476 12.533420337539459 16.95339978992206 19.34771305757241 0 -1 0
1728 576 2 0.4238 8.987762280848058 16.95880600071666 17.201521398807586 1 0 1
570 190 2 0.4238 24.69890771913845 15.178713934271729 20.999269318665686 -2 0 0
1490 497 2 0.4238 12.276294644967754 19.40976659164928 21.181086895074014 1 -1 -1
803 268 2 0.4238 12.12848382787329 16.35277760653134 18.658307647951116 0 -1 0
804 268 2 0.4238 12.009865573295544 17.803923006554104 19.39772211268248 0 -1 0
475 159 1 -0.8476 11.400181694758915 19.09642950448189 17.09578814893173 0 0 -1
476 159 2 0.4238 10.952734700923465 19.6723326980348 17.779986653236914 0 0 -1
477 159 2 0.4238 10.99210988456368 18.18359127562976 17.110116232881285 0 0 -1
1601 534 2 0.4238 14.327373131986057 17.20470840542143 20.112107447943046 1 0 0
151 51 1 -0.8476 19.88454141636667 25.24123777458801 15.561748488588549 1 0 0
83 28 2 0.4238 9.179947822477187 20.11338262591689 15.311265327730856 -1 -1 -1
507 169 2 0.4238 8.839063284042204 27.472457390848426 26.29937360485166 0 -2 0
303 101 2 0.4238 12.598125737970468 22.203857820713175 16.26758258699854 1 -1 0
607 203 1 -0.8476 28.02711222291945 15.82252367985695 21.68147864055603 -1 -1 -2
281 94 2 0.4238 22.479959972946844 15.230001375825333 16.284044556763636 0 2 1
280 94 1 -0.8476 21.964563782785657 16.08630799018739 16.317298199895546 0 2 1
1155 385 2 0.4238 21.93705435543675 16.404531817883957 18.09348911364485 -2 1 0
1509 503 2 0.4238 26.62073205894729 21.493428183223582 26.905482022645273 1 1 2
152 51 2 0.4238 19.218100471210754 24.89863255723652 16.223925644110505 1 0 0
1600 534 1 -0.8476 14.980600837189545 16.756738980805967 20.722531702442424 1 0 0
815 272 2 0.4238 16.38226479835493 19.10084005990084 23.288776217667102 0 0 -1
571 191 1 -0.8476 18.009248478337717 17.23329615758853 19.652149201214783 0 -1 -1
573 191 2 0.4238 18.7147869538919 17.033745181113584 20.33214615293002 0 -1 -1
572 191 2 0.4238 17.155855312261853 17.46960665154851 20.11677576382258 0 -1 -1
699 233 2 0.4238 9.40536678860933 28.06090018028943 17.541644689624277 1 0 1
1371 457 2 0.4238 18.234159633800832 18.847203810245553 18.87946578412314 1 0 1
445 149 1 -0.8476 18.799384359416692 20.222368669369768 22.64723310204162 0 0 -1
446 149 2 0.4238 18.33681255251659 20.730600757809057 21.9207845198939 0 0 -1
447 149 2 0.4238 19.785583670027716 20.227607004456143 22.481753386991425 0 0 -1
598 200 1 -0.8476 16.224873865786225 20.469263630035904 16.7784657908046 0 1 0
1369 457 1 -0.8476 18.43188900560341 19.73777689512549 18.469852879217814 1 0 1
600 200 2 0.4238 16.942798938585593 20.27302586886945 17.44635457666115 0 1 0
599 200 2 0.4238 16.05388544795625 19.654863274235154 16.223924525533096 0 1 0
1443 481 2 0.4238 21.9846638788364 18.99837502956353 21.71836002830489 0 -1 1
1442 481 2 0.4238 21.73850431959525 20.60836720107336 21.836501993937276 0 -1 1
1370 457 2 0.4238 19.284825833262087 19.683859237795993 17.95063063400447 1 0 1
1 1 1 -0.8476 17.83930900658264 21.645407264240408 20.59018198469448 1 0 -1
915 305 2 0.4238 23.042039729848423 24.96541271797701 24.46645588390799 -1 0 0
453 151 2 0.4238 16.795165549532822 26.910101336671552 20.17646152923756 0 -1 -1
1749 583 2 0.4238 12.597719513182968 28.08865678863467 24.087539198681622 -1 1 -1
854 285 2 0.4238 2.6721619760145843 27.895138512100843 18.807357944539728 2 -1 -1
515 172 2 0.4238 14.272435380468819 27.419350105787032 17.431680916326208 0 0 0
1647 549 2 0.4238 20.87697302612743 18.48195890144907 16.45275826054086 1 0 -2
154 52 1 -0.8476 27.085165853903515 16.143324083934157 16.634991335390584 0 0 -2
1028 343 2 0.4238 23.089849492368927 17.58920653205958 15.108457643407153 -1 1 1
1777 593 1 -0.8476 25.8888251965539 19.010844258382726 17.860721300186572 -1 -1 -1
1257 419 2 0.4238 25.82718005251779 19.382362741078445 21.989141587341326 1 -1 0
1779 593 2 0.4238 26.040674181200885 18.233152967493822 18.47075297989519 -1 -1 -1
1778 593 2 0.4238 25.17698660689408 18.780099944661362 17.197363903740342 -1 -1 -1
622 208 1 -0.8476 26.80746109792931 16.91743929731115 19.238165014921645 0 -1 -1
623 208 2 0.4238 27.533225559359114 16.575364914832573 19.835032745506737 0 -1 -1
1654 552 1 -0.8476 23.307303288486036 18.803856609651316 19.819250576447207 0 0 1
1154 385 2 0.4238 22.628707141765652 17.256322599462294 19.30290857516906 -2 1 0
1655 552 2 0.4238 24.19126373964075 18.856170638489942 20.283876649195758 0 0 1
1656 552 2 0.4238 23.0275445679456 19.719635683617298 19.53100719677898 0 0 1
362 121 2 0.4238 26.888370542447817 19.640956453378145 20.15254523889234 0 0 0
361 121 1 -0.8476 26.707456452183408 20.433155901754667 20.73537495317697 0 0 0
1645 549 1 -0.8476 20.61929065868927 19.1976119884755 17.101943009728657 1 0 -2
1646 549 2 0.4238 21.21428849389757 19.991474872217292 16.976405713422764 1 0 -2
956 319 2 0.4238 24.77638617106712 20.575132831307783 18.575703238269707 0 -2 0
1014 338 2 0.4238 22.034288794683494 27.46121834983307 27.539593114579844 -1 -1 0
1002 334 2 0.4238 23.42901724389368 24.19394124682401 15.20048023566081 0 0 0
781 261 1 -0.8476 22.343034586226032 21.697132448677305 16.572524604022195 -1 -1 0
955 319 1 -0.8476 24.21820592763121 21.404696877388165 18.55962212156396 0 -2 0
957 319 2 0.4238 23.585295390564603 21.365640628229116 17.786382130026503 0 -2 0
156 52 2 0.4238 26.936941211314757 16.51463677294622 17.551592449143296 0 0 -2
783 261 2 0.4238 22.541795660990577 21.50719591402699 15.611057902543989 -1 -1 0
1255 419 1 -0.8476 25.134832102423964 18.886012769184713 22.512870364192654 1 -1 0
624 208 2 0.4238 25.953316672277165 16.440234162045293 19.444835250034167 0 -1 -1
155 52 2 0.4238 27.182650399710223 16.894943344554907 15.982637036411216 0 0 -2
534 178 2 0.4238 25.263895162723227 21.71744762365412 21.294902647850744 0 0 0
962 321 2 0.4238 7.514549147631558 27.194956098238606 18.017944568828835 2 -1 0
1156 386 1 -0.8476 2.3965578304614694 26.888353218715125 20.151195090084208 1 -1 0
468 156 2 0.4238 26.61907156197236 24.972310878650884 21.748828339700786 0 -1 -1
400 134 1 -0.8476 2.935006349047425 24.80715779289221 18.36796632502528 -2 0 -1
401 134 2 0.4238 3.6444959891645703 24.83851052733229 17.663948157902144 -2 0 -1
325 109 1 -0.8476 4.894087417784401 24.90090578303155 16.307544225506835 0 -2 0
670 224 1 -0.8476 27.844159532129833 27.478939429939018 28.101996323105926 1 0 -1
326 109 2 0.4238 4.764334907780778 24.471007229671415 15.41403900154721 0 -2 0
327 109 2 0.4238 5.868880364661494 24.920008289072317 16.52983644906176 0 -2 0
402 134 2 0.4238 2.0418868246959034 24.969838549663493 17.948594616525842 -2 0 -1
701 234 2 0.4238 22.672744555772784 27.89918924524069 16.102503856844283 -1 -1 0
961 321 1 -0.8476 7.77702421674844 27.88920500314214 18.688113209227865 2 -1 0
20 7 2 0.4238 7.934516737981809 22.628890158180724 20.026808771000162 0 1 0
586 196 1 -0.8476 4.660758981942179 22.683633667689705 19.22451362973042 1 -1 -1
343 115 1 -0.8476 7.519188326744808 25.074024323203684 17.371266639621638 -2 -1 1
344 115 2 0.4238 8.291671959845072 24.723766326824265 16.841559996353972 -2 -1 1
345 115 2 0.4238 7.398550904288276 24.51695941881611 18.192926883717284 -2 -1 1
587 196 2 0.4238 4.3306432568737545 23.58186687988429 18.934338673344804 1 -1 -1
1157 386 2 0.4238 2.346811919425369 26.093962575343284 19.545827768861074 1 -1 0
633 211 2 0.4238 3.9833942467841608 26.449970865492176 15.927126997432467 0 -1 1
631 211 1 -0.8476 3.658127958371975 27.282758060749096 15.479167873440563 0 -1 1
963 321 2 0.4238 7.500303242163606 27.591841244827055 19.601897275967556 2 -1 0
1158 386 2 0.4238 2.2114738392136477 26.602924129183563 21.09155382319296 1 -1 0
1516 506 1 -0.8476 4.759671802495777 24.087040166463566 27.785374170056024 0 0 1
1689 563 2 0.4238 6.996897345859222 20.772209877218003 20.208758628062103 -1 -1 0
1688 563 2 0.4238 5.84098306141795 21.92288786935968 20.288938800977945 -1 -1 0
1315 439 1 -0.8476 9.853162942281914 20.44879514115451 19.038976675374048 0 -1 -1
778 260 1 -0.8476 17.872156006379885 27.752326221665644 16.41570825294349 0 -1 1
1317 439 2 0.4238 9.606961362740217 21.404329396372486 19.20126994540691 0 -1 -1
311 104 2 0.4238 9.735897344584526 26.82922437883041 20.712861949777906 -1 -1 -1
138 46 2 0.4238 11.921227423343597 25.837863926187648 20.489964813264287 -1 -1 0
142 48 1 -0.8476 11.544438354250342 25.563149329838488 17.286335084164484 1 -1 0
821 274 2 0.4238 10.285753794427176 22.78588522521087 16.25044795930832 0 -1 0
697 233 1 -0.8476 10.016283132229091 27.768557793887304 16.805901890626775 1 0 1
136 46 1 -0.8476 12.630550862344679 25.461454575093025 19.893997964324058 -1 -1 0
144 48 2 0.4238 12.198452232350805 25.81797175680689 16.574062501088388 1 -1 0
828 276 2 0.4238 2.0063103264779794 21.937844257360837 15.527839409436593 0 0 0
21 7 2 0.4238 9.302600713745134 23.34202877059567 20.561978193392235 0 1 0
41 14 2 0.4238 18.34493372406322 15.214755097346487 26.219190791880976 0 1 0
698 233 2 0.4238 10.627373736577743 27.053103044239666 17.144566478055914 1 0 1
143 48 2 0.4238 11.013972395196918 24.7712290324174 16.983897010365897 1 -1 0
19 7 1 -0.8476 8.831250878762887 22.980215370076092 19.757664544983424 0 1 0
958 320 1 -0.8476 13.998549119904366 24.845738193381184 15.901299893385067 0 -1 0
137 46 2 0.4238 12.245733693733527 25.285283201018025 18.987973805056654 -1 -1 0
822 274 2 0.4238 8.940484303656541 22.8401719756446 17.17453114378598 0 -1 0
820 274 1 -0.8476 9.589704996057858 23.385921531310544 16.644748220309175 0 -1 0
662 221 2 0.4238 24.099109336981737 27.891660297865936 25.736849143638633 1 0 -1
323 108 2 0.4238 13.57823557565396 23.838667008503904 19.991183483717688 -1 -1 -1
864 288 2 0.4238 3.9286535314238997 16.523896174912526 15.929036680149036 0 0 0
69 23 2 0.4238 4.180366660379308 15.10262577046082 17.94352249917473 -2 -1 0
748 250 1 -0.8476 27.758786968919047 18.701129101301614 15.032555036647056 -1 -1 1
310 104 1 -0.8476 10.635743463132487 26.790572673145665 21.147354217153975 -1 -1 -1
1449 483 2 0.4238 17.281535618376964 16.168022666768305 18.42357010654597 0 1 -1
1003 335 1 -0.8476 16.939883023125088 16.19245426323423 15.220787567159457 -1 0 0
840 280 2 0.4238 16.73268663677873 21.39941997918338 15.163419202597998 -1 0 -1
3 1 2 0.4238 17.92449783105203 20.9751261434787 19.8529804058826 1 0 -1
959 320 2 0.4238 13.916620123811498 23.95386533273645 16.346103946034752 0 -1 0
1293 431 2 0.4238 23.506945971629424 27.00230142552088 22.994514176045424 0 2 -1
516 172 2 0.4238 14.761255730444553 25.99567374074704 16.79857201996911 0 0 0
848 283 2 0.4238 22.707316831823583 15.111129817126136 23.11548628693045 -1 0 0
1439 480 2 0.4238 17.160234183711832 24.800609103849037 15.994807495142522 -1 -1 0
1438 480 1 -0.8476 17.173941287559682 25.05822248512466 16.960958473535523 -1 -1 0
1440 480 2 0.4238 17.037410465182884 26.045314054859414 17.044688808532825 -1 -1 0
452 151 2 0.4238 16.418774784752717 27.554549256681565 18.724000378388425 0 -1 -1
1180 394 1 -0.8476 17.507858535707072 23.92240248861139 19.4623450295889 1 0 0
1181 394 2 0.4238 17.461919396620615 24.357703463981228 18.563232746010083 1 0 0
2 1 2 0.4238 17.613555112069193 22.539481453052073 20.203314202599962 1 0 -1
1246 416 1 -0.8476 14.058639938330648 22.533342660589526 17.168696189300633 -1 -1 0
1248 416 2 0.4238 14.690370432722919 21.835515322209076 16.831126023245055 -1 -1 0
1247 416 2 0.4238 14.147191369978493 22.6107644387289 18.1617544077772 -1 -1 0
322 108 1 -0.8476 13.755680049527061 22.855760250720024 20.040252774132764 -1 -1 -1
625 209 1 -0.8476 20.30691629281271 16.23504270127795 21.184681399357853 -1 0 -1
333 111 2 0.4238 16.875573844872864 16.188413781036033 24.406432884486282 0 1 0
1013 338 2 0.4238 23.505826760116115 26.753261926712145 27.53889638045562 -1 -1 0
288 96 2 0.4238 21.400369679458834 25.000462862415343 16.109506701234544 0 -1 0
1284 428 2 0.4238 9.922946597488675 27.743839488540942 15.05301400948577 1 0 0
324 108 2 0.4238 12.969496077874968 22.395297358772503 20.452428426202648 -1 -1 -1
514 172 1 -0.8476 15.032388385184824 26.77262235654016 17.36676039675944 0 0 0
1574 525 2 0.4238 26.066821226988303 27.810792670536152 17.88500862020036 0 -1 0
615 205 2 0.4238 12.570998193470649 18.719278641721246 16.021264870931763 0 0 0
801 267 2 0.4238 19.510724539282773 24.3114923907058 19.565425924679303 1 -1 -1
799 267 1 -0.8476 20.17549628646758 24.81819306619434 20.114364661018275 1 -1 -1
1557 519 2 0.4238 14.979107322378528 22.27404738948659 21.308448379929256 1 0 0
780 260 2 0.4238 18.796178328935294 27.983149544085595 16.7205106770496 0 -1 1
366 122 2 0.4238 24.637633235035533 24.05544352506916 21.249263312266287 -1 0 0
1517 506 2 0.4238 3.8011911852219225 24.157138312633307 27.50896418649289 0 0 1
505 169 1 -0.8476 8.793207566311311 27.614447703169745 25.310567880597265 0 -2 0
825 275 2 0.4238 26.478360836454055 26.209803700427255 16.324947493159204 0 -1 0
1297 433 1 -0.8476 22.431821129635125 25.923851315706763 18.83720451892384 -1 0 1
1299 433 2 0.4238 21.542897229680847 25.716538764058612 19.245660087454727 -1 0 1
782 261 2 0.4238 21.909247307802584 22.594615947504675 16.652223978849477 -1 -1 0
1493 498 2 0.4238 25.396171479388887 26.536956875342334 20.48742978846165 0 -1 0
1494 498 2 0.4238 26.754020878401843 27.250731670938023 19.927610286439357 0 -1 0
364 122 1 -0.8476 25.004485219428542 24.984708607284432 21.292692981731044 -1 0 0
824 275 2 0.4238 26.332995917574163 24.85753262636868 17.22874988426718 0 -1 0
800 267 2 0.4238 20.318673523837965 24.345914742862302 20.98410850430615 1 -1 -1
1792 598 1 -0.8476 21.983409235402245 21.972159100426865 21.060099499972516 0 -1 -1
823 275 1 -0.8476 26.789949667198684 25.74379594580829 17.153047315959824 0 -1 0
1298 433 2 0.4238 23.051734259519 26.265395586154842 19.543643016517315 -1 0 1
1208 403 2 0.4238 24.819537488370088 22.822897302418017 17.818709544250748 0 -1 0
1207 403 1 -0.8476 25.398578014627947 23.239791583379102 17.118057925510165 0 -1 0
1733 578 2 0.4238 18.739292313057007 27.629061394768808 20.16108847272611 1 -2 0
287 96 2 0.4238 22.337820005670523 25.087625479024588 17.443754093817432 0 -1 0
1209 403 2 0.4238 24.82758644016173 23.566880151057134 16.36507546189013 0 -1 0
286 96 1 -0.8476 22.164661815945987 24.58089301520424 16.599219612220345 0 -1 0
1492 498 1 -0.8476 25.849349307815363 27.412832973859803 20.321682838024145 0 -1 0
301 101 1 -0.8476 11.74988344086073 21.997991102344265 15.779622499251602 1 -1 0
1793 598 2 0.4238 22.9488716035755 21.9987352960116 21.319286053840894 0 -1 -1
578 193 2 0.4238 9.364107420645022 16.14477979643175 21.034325644620104 0 0 1
774 258 2 0.4238 5.657772926403222 15.923956656070306 24.80759249166668 1 0 0
1447 483 1 -0.8476 16.920410779389005 15.470717344407728 17.80441407155755 0 1 -1
1320 440 2 0.4238 3.161266198109281 15.417214322713873 25.214357922796392 -1 0 0
1318 440 1 -0.8476 3.869267394414725 15.7379975819369 24.585205683632786 -1 0 0
1313 438 2 0.4238 6.245070314727071 17.99253693584694 25.627647975487093 -1 -1 0
1319 440 2 0.4238 3.448152094806494 16.27968972594376 23.85772266102269 -1 0 0
1312 438 1 -0.8476 6.023924802756947 18.952828801684834 25.7977511120943 -1 -1 0
863 288 2 0.4238 2.545228751912352 16.296295253212516 16.76627060442675 0 0 0
1131 377 2 0.4238 5.832070484342456 19.14002504050232 27.644010678308113 1 -1 -1
577 193 1 -0.8476 9.024699080531295 17.084313577858005 20.98873739587406 0 0 1
1364 455 2 0.4238 8.525526825963249 16.885323627748924 22.675906389412834 1 -1 -1
1363 455 1 -0.8476 8.721783426616268 16.78732076837057 23.651549388289038 1 -1 -1
772 258 1 -0.8476 6.564423051857935 16.152723701296534 25.162065901116303 1 0 0
106 36 1 -0.8476 3.3081906265524506 19.388573558077205 25.609712073381527 1 -1 -1
107 36 2 0.4238 3.027403768543387 20.14625798770605 25.020582328710738 1 -1 -1
108 36 2 0.4238 4.275906948925775 19.188300500435176 25.456684943642927 1 -1 -1
1314 438 2 0.4238 6.617857991082698 19.535049845040145 25.242537396559104 -1 -1 0
1365 455 2 0.4238 7.923699867293995 16.402311891762395 24.11504920925515 1 -1 -1
847 283 1 -0.8476 21.709731632337164 15.067111180989153 23.1692096476738 -1 0 0
504 168 2 0.4238 27.153065856085878 18.227148376288955 23.676429669588288 0 -1 1
502 168 1 -0.8476 27.991390759665826 17.737039680148303 23.915187241109138 0 -1 1
503 168 2 0.4238 2.3013370641305304 18.36395114233626 24.365296732474196 1 -1 1
608 203 2 0.4238 27.74065309267087 16.20452538621032 22.560123274968326 -1 -1 -2
579 193 2 0.4238 9.78801694478394 17.720325234169763 21.102029440248952 0 0 1
561 187 2 0.4238 14.257866293934349 19.215007545662953 22.37692604504805 -1 -1 -1
390 130 2 0.4238 12.604730964545814 15.520348087905324 20.731412444172808 0 0 -1
960 320 2 0.4238 14.626012719662718 24.775088604709985 15.125865755456495 0 -1 0
559 187 1 -0.8476 13.770115166026416 19.86919701827982 21.79888151652672 -1 -1 -1
560 187 2 0.4238 14.421814730354765 20.519163446719872 21.40794467989469 -1 -1 -1
814 272 1 -0.8476 15.597299153860266 19.02376937380404 23.90350329888643 0 0 -1
979 327 1 -0.8476 10.013387349138855 19.32709203669184 26.536426864046774 0 -1 -1
981 327 2 0.4238 9.730407306555504 20.27598197934373 26.676180186526167 0 -1 -1
1190 397 2 0.4238 11.764305186783105 19.30648049634945 23.36849703426743 0 -1 0
122 41 2 0.4238 14.362763162866457 19.921661799824356 27.11261210185758 1 -2 0
873 291 2 0.4238 14.059666442425875 17.16530486089166 25.44241465396955 1 -1 0
872 291 2 0.4238 14.267875383697625 18.008341411713953 26.82537038577893 1 -1 0
980 327 2 0.4238 10.390068063776264 19.22374193128578 25.615866465160625 0 -1 -1
871 291 1 -0.8476 14.55945868133377 17.203982119704083 26.30769675706153 1 -1 0
758 253 2 0.4238 13.656729476687497 16.30403964999511 23.214903022925686 0 1 -1
910 304 1 -0.8476 11.106331029010233 16.591179679244267 25.123465038985348 2 -1 0
759 253 2 0.4238 12.68510335615663 17.27353326027653 24.099578931483308 0 1 -1
912 304 2 0.4238 10.319243674720248 16.618789655229605 24.507241635733408 2 -1 0
757 253 1 -0.8476 13.632399349947962 17.081928111354376 23.842834303354046 0 1 -1
1602 534 2 0.4238 14.973478920921655 15.771245271688839 20.55296744352074 1 0 0
121 41 1 -0.8476 13.813643484647276 19.61607042569925 27.890481977122587 1 -2 0
791 264 2 0.4238 10.291698245907673 20.892343166317907 23.85887423630704 -1 -2 -3
564 188 2 0.4238 20.926345525100288 27.86331048801206 21.82140410255807 1 0 -1
1189 397 1 -0.8476 11.683930313978982 19.678192306301312 24.293359403722402 0 -1 0
1191 397 2 0.4238 12.594066736538492 19.898216836926043 24.64441647904041 0 -1 0
1110 370 2 0.4238 12.853808860549437 20.908164013709644 28.023363233602446 1 1 -1
627 209 2 0.4238 20.702727710388643 15.966729943724008 22.062942676884223 -1 0 -1
112 38 1 -0.8476 15.10884409260215 20.70215053486794 25.92024749283395 1 1 0
114 38 2 0.4238 15.371554791091732 20.044443491044166 25.214269685616966 1 1 0
113 38 2 0.4238 15.418941843146596 21.615614649948963 25.65676539911956 1 1 0
790 264 1 -0.8476 9.508742656544278 21.490834143476967 24.02854786426416 -1 -2 -3
1005 335 2 0.4238 16.883337729826525 15.880940703320547 16.169345473346453 -1 0 0
746 249 2 0.4238 18.426896384352816 19.372252138317403 24.361664375992355 0 -1 -1
1441 481 1 -0.8476 21.5200501035217 19.71757818158409 22.234965245714807 0 -1 1
1529 510 2 0.4238 21.666745159877557 20.21335346447765 24.0299499964942 0 -1 -1
1401 467 2 0.4238 20.106869983639175 15.541894631150518 26.175772973268558 0 1 -1
1400 467 2 0.4238 20.992477544015568 16.901091706031877 25.98893244522445 0 1 -1
532 178 1 -0.8476 24.53788800559281 22.229926569877005 21.753465418892812 0 0 0
569 190 2 0.4238 23.7642771946564 15.763049089497676 19.794426969487613 -2 0 0
332 111 2 0.4238 16.391526396471306 16.57063375411937 25.9184625594076 0 1 0
404 135 2 0.4238 23.977279643681147 21.074486689038505 27.230742814331627 -1 0 0
1746 582 2 0.4238 21.132924188092307 27.038212873775855 23.935592633112737 -1 -1 0
745 249 1 -0.8476 18.449828769958398 18.879593668246113 25.231584935978724 0 -1 -1
566 189 2 0.4238 16.374902302250042 16.549733594816203 22.125699589070436 0 2 0
1399 467 1 -0.8476 20.775887079308834 16.00728035647694 25.596262166045932 0 1 -1
565 189 1 -0.8476 17.214590018794755 16.4776407909259 22.663963546773473 0 2 0
1711 571 1 -0.8476 16.928007785631085 19.323372367739783 27.509091728670533 0 0 0
1712 571 2 0.4238 16.26703785742091 20.03110321017264 27.25961943617888 0 0 0
1713 571 2 0.4238 17.46640628246772 19.07174489801047 26.704845680128084 0 0 0
1758 586 2 0.4238 17.957224587490774 21.978520273829417 28.14359231046044 0 -1 0
747 249 2 0.4238 18.196321451543803 17.92415810976908 25.08033357969221 0 -1 -1
1757 586 2 0.4238 18.80511941584387 21.179456446558678 26.999390301415467 0 -1 0
773 258 2 0.4238 6.682115057881226 15.742197642354016 26.06628764872206 1 0 0
1511 504 2 0.4238 13.004142527860036 28.066539941257286 15.879096348459694 2 -1 0
1528 510 1 -0.8476 21.955440295823266 20.461020163714625 24.95478358846066 0 -1 -1
595 199 1 -0.8476 20.438154719489994 19.06902335026549 26.87809138079887 -1 0 -1
596 199 2 0.4238 19.739301980771113 18.92432295670309 26.177615328627752 -1 0 -1
1530 510 2 0.4238 21.504254198424206 21.31041761607071 25.228563670829868 0 -1 -1
1291 431 1 -0.8476 24.062680876028256 26.31604211998435 23.463776918438896 0 2 -1
849 283 2 0.4238 21.406732950373833 15.43483325667476 24.048398263721662 -1 0 0
1502 501 2 0.4238 13.749766453149897 27.752829171322716 20.27134781749802 0 0 1
351 117 2 0.4238 23.335660041759823 16.555254334539896 27.966624711536884 0 2 -1
770 257 2 0.4238 24.821018201522513 17.805109235100115 26.826994791597727 -2 1 -1
769 257 1 -0.8476 24.173002344977174 18.23433716415708 27.456152527352558 -2 1 -1
1377 459 2 0.4238 26.441485456297297 17.641494881072326 25.557202937666794 -1 1 -1
1740 580 2 0.4238 24.152054881658366 16.81150133908186 22.94056320580553 -2 0 -1
1376 459 2 0.4238 26.024764102922553 16.13940661045898 25.07068320309523 -1 1 -1
1012 338 1 -0.8476 22.766518126169267 27.10045094224162 26.961936522926138 -1 -1 0
1739 580 2 0.4238 25.109787346394413 15.546366305880655 23.326320469520958 -2 0 -1
1201 401 1 -0.8476 2.039647782339385 23.388383243367677 27.035383724982907 0 0 0
1738 580 1 -0.8476 24.31572135803856 15.836227217620053 22.792053968582245 -2 0 -1
1375 459 1 -0.8476 25.69551957243298 17.073363173328627 25.2096942811372 -1 1 -1
771 257 2 0.4238 23.298840744919847 18.373236942159902 26.990804456542143 -2 1 -1
1591 531 1 -0.8476 27.264274870889835 18.677701853761096 27.001248425057955 -1 1 -1
1592 531 2 0.4238 28.136703498996262 18.80900503896638 26.53047338939342 -1 1 -1
1256 419 2 0.4238 24.788777747095725 19.471086524196156 23.24631133551092 1 -1 0
928 310 1 -0.8476 24.53264087039925 21.16724330246601 24.429592032018036 0 -1 0
597 199 2 0.4238 20.949844396382957 19.902903544187826 26.67116740737819 -1 0 -1
1508 503 2 0.4238 26.062495416548032 19.958946173579147 26.886417265609982 1 1 2
930 310 2 0.4238 25.05144205676365 20.83409035588614 25.21690043814298 0 -1 0
929 310 2 0.4238 23.555784809839107 21.150441304128744 24.642829007441637 0 -1 0
1507 503 1 -0.8476 25.860090173355836 20.904641387971047 26.632069517438342 1 1 2
533 178 2 0.4238 24.496075024212267 21.96025407396229 22.715509637698023 0 0 0
1732 578 1 -0.8476 19.50758798277078 27.36056895132693 20.742151018819325 1 -2 0
1397 466 2 0.4238 27.62445295491825 27.671484901850793 23.29190044995703 -2 -1 1
1172 391 2 0.4238 15.140563896956651 16.31416850882116 27.672685554988266 0 0 -1
1211 404 2 0.4238 1.929116142074097 25.98378306331305 26.401923121841293 1 1 -1
1687 563 1 -0.8476 6.639680806760021 21.534476209558644 20.748523775242603 -1 -1 0
1398 466 2 0.4238 27.80248171711042 26.115861782060065 22.82824890884211 -2 -1 1
1396 466 1 -0.8476 1.9610272924505825 26.947854589343955 23.09850636733534 -1 -1 1
1306 436 1 -0.8476 6.359831683097426 27.52075251827873 26.90805684821876 1 -2 -1
448 150 1 -0.8476 4.880419777389953 27.3050389242414 23.08067561973751 0 0 -1
450 150 2 0.4238 3.8861337822723847 27.405752321365952 23.04528172141932 0 0 -1
449 150 2 0.4238 5.130277408493581 26.738074288404604 23.86561045183952 0 0 -1
1488 496 2 0.4238 6.364517675836179 27.299823932121512 21.745031639116966 0 -2 1
1234 412 1 -0.8476 6.802421989004216 21.335525050677383 23.362803371966482 1 1 -1
1235 412 2 0.4238 6.727555491142198 21.456274487628043 22.372947476176787 1 1 -1
1212 404 2 0.4238 1.8611286942413554 25.518767465125297 24.8380286818246 1 1 -1
1095 365 2 0.4238 5.5753394514035 22.647049390447748 23.82942684460823 1 0 0
1093 365 1 -0.8476 4.695676824197948 23.11211262339365 23.928984114525587 1 0 0
1094 365 2 0.4238 3.968408791030957 22.43256113288868 24.025378246168803 1 0 0
1767 589 2 0.4238 6.863065556621835 25.207859688612466 24.82335014155596 2 0 0
1765 589 1 -0.8476 5.912474308422832 25.2646455838975 25.128557796883616 2 0 0
1766 589 2 0.4238 5.338829864999556 24.694994363333304 24.53997507521176 2 0 0
1236 412 2 0.4238 7.766822621187864 21.267107746494688 23.61824518557314 1 1 -1
1355 452 2 0.4238 3.304311900226621 22.451829880417524 20.775638439470473 1 -2 -1
1486 496 1 -0.8476 7.325770778893558 27.21285657322467 21.48344183129055 0 -2 1
320 107 2 0.4238 2.7109438733193603 21.516289431406655 22.847263120333107 0 1 0
319 107 1 -0.8476 2.3071095114199096 21.441035274320488 23.75899513636245 0 1 0
1307 436 2 0.4238 6.335367753562555 26.8266927465332 26.188555155190937 1 -2 -1
1487 496 2 0.4238 7.878573523645066 27.840056779988362 22.03210299862989 0 -2 1
1356 452 2 0.4238 2.019843295496111 23.388253674835276 21.149640622063078 1 -2 -1
1210 404 1 -0.8476 27.69142468712323 25.53833120460652 25.706319562880783 0 1 -1
1354 452 1 -0.8476 2.3446870900283905 22.447045281277376 21.05688261680322 1 -2 -1
353 118 2 0.4238 26.337841142165747 23.861920647924414 24.78453221216343 0 1 0
1518 506 2 0.4238 5.3461820267014994 24.178268129522582 26.980585972060233 0 0 1
732 244 2 0.4238 7.826335379653654 25.7351034840933 22.848791524970288 -1 -2 0
1295 432 2 0.4238 8.587944667935693 25.542769802986662 28.15595387089731 0 0 0
321 107 2 0.4238 27.81231628460221 22.010204151752674 23.808016335057566 -1 1 0
1108 370 1 -0.8476 12.09948792426496 21.562771260792168 28.073257167643344 1 1 -1
87 29 2 0.4238 10.7888056683489 21.887810182882085 26.98321861442596 1 -1 0
777 259 2 0.4238 10.790098593697358 23.104687447877083 22.043548291016997 1 0 -1
775 259 1 -0.8476 9.889577889766908 23.476713430087532 22.26862433500345 1 0 -1
695 232 2 0.4238 10.797450996096082 26.876322385166464 27.577152389264313 0 -1 -1
702 234 2 0.4238 22.436625942486888 27.422580234596392 17.64643348110758 -1 -1 0
1747 583 1 -0.8476 12.792297277954518 27.287501477102758 23.521596399151864 -1 1 -1
977 326 2 0.4238 13.464119251512264 22.13261020001796 22.757603091891458 1 0 0
385 129 1 -0.8476 12.907342353410447 24.198066962103745 27.141579095914974 0 1 -1
312 104 2 0.4238 10.537387340569724 26.47083378992497 22.08974126118399 -1 -1 -1
386 129 2 0.4238 13.704924465677978 24.27199238288596 27.74024298378695 0 1 -1
668 223 2 0.4238 12.590594056856917 25.505179754637947 24.030839978833924 2 0 -1
694 232 1 -0.8476 11.632138802195309 26.713135775100447 27.051160813800223 0 -1 -1
667 223 1 -0.8476 12.808455577492323 24.61175362506115 24.42368363538472 2 0 -1
669 223 2 0.4238 12.73585733369358 24.659029025391337 25.419923867579705 2 0 -1
696 232 2 0.4238 11.885909705971333 25.74828955545928 27.119520180416718 0 -1 -1
792 264 2 0.4238 9.600818148792905 21.912470129086035 24.930626169182556 -1 -2 -3
730 244 1 -0.8476 8.281424021518275 25.374642883779952 23.663017158998258 -1 -2 0
387 129 2 0.4238 12.550245908131659 23.264627283852796 27.175831933703094 0 1 -1
776 259 2 0.4238 9.412793021900617 22.847313445318566 22.882246419449235 1 0 -1
731 244 2 0.4238 8.923471366135578 24.656180315892005 23.395458131356037 -1 -2 0
506 169 2 0.4238 8.937902697132943 26.74313669470359 24.8416529730124 0 -2 0
978 326 2 0.4238 12.605779466466906 23.33796606831462 23.448252518712366 1 0 0
85 29 1 -0.8476 9.905075529557413 22.12022635276652 26.577011981766436 1 -1 0
976 326 1 -0.8476 12.594144240881107 22.62558232017011 22.746558768112227 1 0 0
51 17 2 0.4238 15.816565594868193 25.525984984714206 27.734212584268665 -1 1 -1
86 29 2 0.4238 9.473597533525592 22.847232524852824 27.11113632852793 1 -1 0
198 66 2 0.4238 15.858937064879107 25.66344278596142 21.96455362584745 1 0 -1
1294 432 1 -0.8476 8.769928479700592 26.484445281150407 27.872882767782773 0 0 0
1744 582 1 -0.8476 20.687707302355435 26.611207778544575 24.722643355318503 -1 -1 0
1107 369 2 0.4238 21.253105369366036 23.78693315927821 25.78193637522715 0 -1 0
613 205 1 -0.8476 13.01205945798703 18.156718723023467 15.32198437195751 0 0 0
1182 394 2 0.4238 17.081698411321153 24.51805574670814 20.143215643941357 1 0 0
196 66 1 -0.8476 16.745012826610644 25.604915404222755 21.504722731367718 1 0 -1
567 189 2 0.4238 17.864652270027147 15.884009365702136 22.189598894021554 0 2 0
626 209 2 0.4238 21.04064147127834 16.415897734816852 20.52974664938634 -1 0 -1
909 303 2 0.4238 14.465604784310337 23.81197528895508 24.603617750396985 0 1 0
1556 519 2 0.4238 16.440352132825634 22.00913127838761 21.987572780429282 1 0 0
1555 519 1 -0.8476 15.457729067511723 22.070833396569764 22.16262953076683 1 0 0
908 303 2 0.4238 15.465151994403625 22.96818229626236 23.62609775002178 0 1 0
914 305 2 0.4238 22.908861865677665 25.469982776342018 26.013808298142585 -1 0 0
907 303 1 -0.8476 15.350147530759198 23.34942019783249 24.543393611960465 0 1 0
649 217 1 -0.8476 25.166642465096356 23.82359345105 26.77053193426898 1 1 -1
1745 582 2 0.4238 21.17971939660867 26.857003281003017 25.55781331668687 -1 -1 0
1537 513 1 -0.8476 17.347322940214664 26.569271919861816 27.093120615565155 -3 -1 0
466 156 1 -0.8476 27.45799080231782 24.708500820962996 22.224873390255635 0 -1 -1
1539 513 2 0.4238 17.209314144640864 27.331766309601008 26.4610162538382 -3 -1 0
1756 586 1 -0.8476 18.55631809508115 22.082446607831113 27.3496859139249 0 -1 0
753 251 2 0.4238 16.534851672258863 23.919119160390828 25.47279692055647 -1 0 0
751 251 1 -0.8476 17.429226865262095 24.19936044554561 25.821448433889696 -1 0 0
752 251 2 0.4238 17.703260836158858 23.589264645274667 26.564878665625464 -1 0 0
895 299 1 -0.8476 18.457917005663262 25.244502419667494 23.556236497142972 -1 0 0
896 299 2 0.4238 19.057476876378743 25.858578485573844 24.06949922426374 -1 0 0
1538 513 2 0.4238 17.55746990309616 25.740384695984563 26.5746765153238 -3 -1 0
1049 350 2 0.4238 20.83917164302894 23.10970831487251 23.55734551416141 -1 -1 -1
897 299 2 0.4238 17.78078146425508 24.84586160642088 24.174761435753577 -1 0 0
1153 385 1 -0.8476 22.204043890069705 16.38500991810795 19.05699086605558 -2 1 0
1048 350 1 -0.8476 20.597041368386623 23.56007081628361 22.697958172070404 -1 -1 -1
1105 369 1 -0.8476 20.62440729512185 23.05660447146786 25.51480505654963 0 -1 0
1050 350 2 0.4238 19.783029144358043 24.1244658277276 22.835225910223674 -1 -1 -1
197 66 2 0.4238 17.469923689355873 25.516978136759228 22.18792943253057 1 0 -1
1106 369 2 0.4238 20.0134967939136 22.846880740217948 26.278221419082502 0 -1 0
282 94 2 0.4238 21.137701041484025 15.999457023137154 15.76164096370639 0 2 1
1292 431 2 0.4238 24.797125822678314 26.77004571418755 23.968228753103002 0 2 -1
352 118 1 -0.8476 26.429056447126253 23.100282566188373 24.142981047933326 0 1 0
354 118 2 0.4238 25.68540647762199 22.44843367075817 24.291571022241104 0 1 0
911 304 2 0.4238 10.814118250345782 16.83400267097577 26.048477865758603 2 -1 0
583 195 1 -0.8476 16.343018905933512 28.09134417609401 22.523673119256745 -1 -1 -1
826 276 1 -0.8476 2.9087873569588116 21.745390268846684 15.142486324247184 0 0 0
365 122 2 0.4238 24.644908840080614 25.447476977888023 22.102970941362337 -1 0 0
913 305 1 -0.8476 23.013829962391537 24.670980310845493 25.42171220690373 -1 0 0
1794 598 2 0.4238 21.491631487683772 22.704651874305718 21.530854388941364 0 -1 -1
467 156 2 0.4238 27.305745003193685 23.85254297700623 22.718996357458934 0 -1 -1
650 217 2 0.4238 24.362810918003362 24.01855903729925 26.208531002368883 1 1 -1
1748 583 2 0.4238 12.996711667593049 27.58082538778452 22.58769265603951 -1 1 -1
451 151 1 -0.8476 16.938583493141294 27.69018607086586 19.56744663829192 0 -1 -1
568 190 1 -0.8476 24.594898950517045 15.248440589213622 20.0071395271292 -2 0 0
707 236 2 0.4238 4.00227898371764 16.792905284600025 28.104581094592984 -2 0 0
403 135 1 -0.8476 23.040796023181773 21.195870620797074 27.559778497992795 -1 0 0
1203 401 2 0.4238 27.85522371154831 24.116139680541092 26.577263514484777 -1 0 0
1202 401 2 0.4238 27.90768555744159 23.147997493593074 27.891255950763565 -1 0 0
1560 520 2 0.4238 25.357625739485485 25.174897655802205 27.770637539853478 0 -1 -1
651 217 2 0.4238 25.14793381694515 22.866041598526213 27.05818565547401 1 1 -1
1296 432 2 0.4238 7.905339135594421 26.94528357599227 27.672599571770302 0 0 0
331 111 1 -0.8476 17.177941552017746 16.331897469591976 25.34876369539385 0 1 0
632 211 2 0.4238 3.1786352069330905 27.85403287357608 16.14529988452136 0 -1 1
1593 531 2 0.4238 27.43386837201105 18.37483823099462 27.939071640925903 -1 1 -1
349 117 1 -0.8476 22.655906827746637 15.847223096315414 28.158008463676946 0 2 -1
1473 491 2 0.4238 18.94160756990456 16.43793868383932 15.204701360626949 0 2 -1
636 212 2 0.4238 13.330744471035429 27.51956736062922 27.951289083806746 0 0 -1
1374 458 2 0.4238 13.11161316174737 16.336564291261116 15.144263285929371 0 -1 0
1100 367 2 0.4238 12.016542231947852 15.039497988013176 25.285572026278803 -1 1 0
585 195 2 0.4238 15.512032723959447 28.09351760315466 21.967383237253735 -1 -1 -1
84 28 2 0.4238 10.791476530394691 20.043776521322865 15.056791478206854 -1 -1 -1

Velocities

1496 -0.0025087672925127357 0.0035671022450154727 0.0006480110436632497
1495 0.002209806752003537 0.0028406048097226995 7.908892993730915e-06
1497 0.006283461521598209 0.004825115381814278 -0.012041113530793422
271 -0.0028720055970208624 -0.0018946820532694797 -0.0025832507850022325
860 0.012036535391059795 0.005434026997641359 0.0024644241073582085
859 0.0007971364711870634 -0.001075012871843083 0.0005345495378630915
861 0.008427711351131743 0.00337837078009979 0.00176376186808865
1031 0.0054092156162786 0.000372973923110727 -0.001453133941233649
1325 0.01241645873759438 0.01723767066264908 -0.016415564122520876
1030 -0.0007057878238430303 -0.002742740890243494 0.0012595435715998969
542 -0.010113833757535535 -0.02247768349430653 0.015521875154854443
1032 -0.0035507884437757133 -0.0032170418333571918 0.00027029785342292116
309 0.008581405524710043 -0.008674307004824855 -0.004896758854959598
308 -0.011101782241501417 0.008698138165907797 0.006786191139750316
307 0.0009013258152490989 0.0006977791044095901 0.0018712413408330597
415 -0.004825889597250072 7.54933548564798e-06 0.0038515189824354056
273 -0.000679130697075248 0.011519477472163796 0.017011061024164244
1480 -0.0008933345622436245 -0.004650715566870808 -0.00445043168909033
1329 -0.0013570838320537213 0.0028577940643739674 0.006443904829543834
272 0.005264051176177309 0.0028860872137062054 0.0032861510853459982
1482 -0.0016965489868850463 0.0005374779102996644 -0.006963122316443938
416 0.005799664849331682 -0.009850018870282081 0.013033484552849351
767 0.004339728078863117 0.004959125865232852 0.010351967696083111
768 0.0005959894733778203 -0.006972503159417451 0.003610418653031912
1481 -0.009841661887776413 -0.015616928041539621 0.0071487212331482804
1348 0.0004719578451622964 -0.003202999628990372 -0.003989293221772577
289 -0.0014244325433647525 0.0032329614411640206 0.004189250880802245
1137 0.025708854564584018 -0.0008498235436222559 -0.001513155653869132
1390 0.00466442753858718 0.0006222412293524453 0.004346173299891218
1135 0.0022782670846880656 0.0011998792774774877 -0.0015850184229653235
1391 0.0059385305941407895 -0.007937537864777446 -0.002510524471258523
376 0.0003826343069639213 -0.000856581262900986 -0.0003546458171528519
1349 0.0021724614790965603 -0.0046048163039214334 0.0031508112288933746
378 -0.004618928557102744 0.0012952513635454761 0.00034990288193726836
1136 0.016252284054070854 -0.008916239614749667 -0.00222453805333261
1405 0.005612708147201302 -0.0027979604280508777 -0.0029490076873518734
656 -0.0005742270047182531 0.0070965642908835 0.009699685682063692
657 -0.01181271125225777 -0.009582137096389318 0.004332420794956032
1406 0.0026752102641412596 -0.0005677290178003231 -6.437636264821317e-05
1407 0.0028124149652632518 -0.000320048192902681 0.0014723967042269911
590 0.0036370139296277608 -0.005037159078449053 -0.0023754408050637365
655 0.0006731070490117064 -0.007385121086689933 -0.0024052693975672884
1392 0.003994727185165473 -0.0062484114983881135 0.019447205481266362
442 -0.013256937583443216 0.0021213856812037145 0.0006374191097949047
444 0.0004216046731668303 -0.006173499382081182 -0.01661400870761402
591 0.004199007852847828 0.0013757718098869806 -0.015245602165213779
377 -0.005318852113786859 0.011984241036117078 -0.006081522539325589
512 -0.006477134271810405 0.003816408595685692 0.004015718339054494
1619 -0.009044249535952328 -0.017480049576988784 0.005446707288557784
1064 -0.009857986917384456 -0.01029571564643446 0.0014055008968562681
1548 0.016214851303265703 -0.0055080746676000325 0.0032240727662461214
1605 -0.013539107859069713 -0.004517370265075875 -0.000910946524416653
1603 0.0023302203840891347 -0.004758706009920353 -0.002179609442496789
818 -0.01523903142693723 -0.014777619176783208 -0.0034662847694312306
819 -0.004923668371341916 0.010927264126897446 0.008771115896366932
817 -0.00803069120557521 0.0032812882162641314 -0.00217922798793608
346 -0.00024070503698937347 -0.007740684476415989 0.0025641586909960538
348 0.005617132812055826 0.023390501960582663 0.001274934966975766
347 -0.02100846615580164 -0.06120994763701668 -0.0014968081190032717
1483 -0.0005526770723658006 0.003569696456112929 0.0048357681124013814
1197 0.011027679921257319 0.0035786412689098553 -0.0043388417236976985
1485 0.016306423279329046 0.0030940611843657153 0.014840655022072888
1706 -0.007139668535195008 0.02247808563249187 0.0024790142668047062
1305 0.007758092605193754 0.007087725714070521 0.010904893003181622
1303 -7.00296990532858e-05 -0.0022285654837774214 0.002913646429173564
1484 -0.015768329607872486 0.0022283394374508956 -0.007731520453709799
1705 -0.0006361703618373972 -0.00011385348910433801 -0.003921740193540982
1707 -0.006314897799859416 0.007874518716280013 -0.0035475628388231756
513 0.011234717832836078 0.006789423551965797 -0.009891784798430461
879 0.014458654205361807 0.001387185943811028 -0.0008102237025256967
511 -0.0024286996684092055 0.003303859222718364 -0.00042271895405309866
1604 0.005483130804999274 -0.01621547510992575 0.0010798149709608936
1763 -0.0007773055560809731 -0.0045826171099237105 -0.0048811882664397685
693 -0.008986605063248145 -0.013669838222499685 -0.0044714910596033875
1762 -0.0009657231184292489 -0.004764320275646967 0.004554074564050774
1634 0.00036654122121780716 0.014343445002587864 0.0027149495479406294
692 -0.0016722410359751314 0.015814469645960626 -1.0075602328335247e-05
691 -0.0002911749527858826 0.0005328527766284509 -0.0054709185610779965
1196 0.01920696203349973 0.000831128510148586 0.002437664440644057
1195 0.004014435770139281 0.008044786772828383 0.0013710999404927017
766 -0.000489305764525485 0.004207376166158659 0.008284586313550297
16 -0.0029901252680869226 0.002675247825853601 0.004807159922107602
539 -0.018714960174535965 -0.0011831340876453254 0.006718300659002926
550 0.00521137447216453 -0.0038026516722437028 -0.00017928256442713685
554 -0.006783514473005155 -0.017125036410397663 0.019940163739651535
17 0.0037684146732683238 -0.005513684982290574 0.00344303746660656
538 -0.002256504858750109 0.0059074128415917216 -0.00040612679686602687
1324 0.004633328081628382 0.0020295170811777947 -0.0036453721691558144
18 -0.0124579061544129 -0.023716218996310857 -0.0010061040986432508
575 -0.020219481210610818 0.009022621693188909 0.025205092594861433
1524 0.009985288251940784 -0.007931526794781667 0.0071284500066396556
1679 -0.0033586510210220893 -0.0069650682973490955 -0.003233927172515392
375 0.010184094293766762 0.0006034632462180916 -0.007770855808570893
102 -0.0052490215415387466 -0.008698632943147794 0.005141976423545438
1522 -0.0033494010668557853 -0.002185653982103278 0.00034015511261519053
574 -0.003342393130287939 0.002257387025866708 0.0035792414300101568
551 -0.004400888097927753 -0.00018452987786357137 -0.0053747373580622015
552 0.007064507297643204 0.005280690803548441 0.003966196950349156
1326 0.015322946062869049 -0.015841548554992715 -0.006169358393060812
1635 -8.863209574880952e-05 0.011231334112613787 0.0031669595935467105
1633 -0.0018355466035926305 0.002746226647222985 -0.00057668381525879
1678 -0.0016271912818771072 -0.004723368376639409 0.0022596199504062017
540 0.0026051622554413 0.0065505613019734435 -0.0019067230491018306
1680 -0.014570659681129538 -0.008179241223310551 -0.007880745064131774
164 0.015057498803391169 -0.0032545285779401194 0.019977561575130042
576 -0.016213856427581178 0.011964998841701092 -0.007098131257782643
370 0.0019407016413322481 0.000645874993969146 0.0014504419030369254
165 0.013439638208501576 -0.006143252954416557 0.025193644602000916
163 0.0058360341570320145 -0.00023696710762296158 0.007886746942482504
1599 -0.012021932041084702 0.020077631208220738 -0.003149193698167779
494 0.022788054101354104 0.007731319300940594 -0.0030992376176140505
1427 0.0015552783560756932 -0.014110020860563375 0.0021987983648954555
1327 -0.0011644668490036827 0.004288902201439291 0.0053535216737966825
1287 -0.002241891091391363 0.005165916489657368 0.00612123242948109
1775 0.009283910634131113 -0.02975666206721188 0.01268903329423561
1285 -0.0019641167079730106 0.004807144141669979 -0.0014316191636763135
1286 -0.003119686867425412 -0.00027030477100430117 0.001829136700087793
235 0.0014419963835785934 -0.0061320458669254325 0.0005902810549701794
1776 -0.014449843597192797 -0.00854726282869742 -0.01801982621057995
1774 0.0013468744894819201 -0.006699524303768452 -0.004949375062699327
634 -0.0023566931553192652 0.007225401923857488 -0.002534341805523459
232 -0.005309877708161736 0.00372602450889493 -0.0035886594773730305
234 0.003443105942430993 0.015496334002311396 -0.007597839292091551
987 0.010159703306430323 -0.004294991769481423 0.01019717132604103
1723 0.004589371766630913 0.002825048492975286 0.0014305584047657977
236 -0.010418764077915869 0.0018671624356137151 0.004137503958525113
237 -0.016622563791024093 0.015010986401349945 -0.003157882798162908
729 0.008548477150466348 0.005156736944830005 0.018584233754098047
372 0.01993051166230242 0.019477191847268285 0.015335989109446727
727 0.0018317554478136237 -0.0034981789409676994 0.002249372550022419
1036 -0.0028748855048607385 0.001928372413187513 0.0018023114869967077
1629 0.0026696782343268322 7.676666541663682e-05 -0.0092450505993523
621 0.007961748106727387 0.000509539948365708 0.020820629929658666
619 -0.0018340478713552804 -0.000307622901504287 0.000380589538671048
1038 0.001445509147817302 -5.351970645892946e-05 -0.007658075728421358
1037 0.0017772882152375625 0.0013840476223670128 -0.025094936818067685
1627 0.004044099764572133 0.0010756282309695446 -0.0013639751459572388
620 -0.00751279143270895 0.014622707270683277 0.0011969217552784239
11 0.006844872048546735 -0.004971721792777904 -0.008868049567172069
315 0.002880330969846393 -0.007833140478280438 0.006559908040633332
313 -0.0010984859696684147 -0.0036174083092978177 0.0008780103193579141
1669 2.986291545524637e-05 -0.005112303534825696 0.008460147607328385
1433 -0.005238233651553334 0.01814762178804758 0.015884996139122122
1612 0.0037686062577779664 0.0015735311856588737 0.00033756261555209196
440 -0.004596326826059991 0.0035513315681965116 -0.007667095595165018
486 -0.003556528231639651 -0.007047508483930864 -0.010434383752704347
1628 0.007306707519820183 0.0055467331801199735 0.012142786853241012
885 0.005060832886861132 0.005331055805967558 0.01176877616308036
883 0.006745715379587506 0.0005593844537750631 0.005325683596285242
1618 -0.001587487173239325 0.0016716202003193108 -0.00014560019280733335
1620 -0.016835373035536373 0.004737817396090825 -0.0025676046198605524
889 0.0024516422737351344 6.501090122554446e-05 0.000820612149848231
1519 0.006916902912908942 -0.0029376041305386852 0.0032539473098500736
233 0.005432557103178138 -0.00933208715854548 -0.0024209431317262376
890 0.01693357618712656 -0.014156239482992935 0.015327489490460405
1520 -0.002656651436472616 0.005142763334575728 0.009838344739686944
355 -0.0036787612040447178 -0.0019419822673375224 0.008648763876470423
485 0.005486228447732895 -0.002780291541128813 -0.014151646638499894
1521 -0.00034403549805866047 0.012571312581449943 -0.011423343872284891
1043 0.020616535293783104 -0.0011635922450850343 0.016491981482760515
1044 0.006785983930505026 -0.010256528601044701 0.010228942225188817
1042 0.0012097247059766345 -0.0018780520053112207 -6.63999050335775e-05
891 0.0023694439735356 -0.021193215149210073 0.0010400616958693163
1563 0.018369350474092473 0.009945302989463233 -0.013000787694120908
1613 0.008004185330926403 -0.0016749043515638963 -0.007992309999530626
132 0.024041236765925962 -0.0009664318187030608 -0.0020062162986559063
1614 0.0026700491346853955 0.0023051152034697523 -0.011433626120667466
1561 0.0021535115356808125 -0.004053739444920934 0.0046185825299704586
612 0.011656135708825116 -0.01534657008663864 -0.009294253970081623
484 0.001955290139456838 -0.0018282216494944013 -0.01106167453358312
1275 0.012685649771784336 -0.007300891414706724 0.004095092106556234
996 0.003352084698271238 -0.01557859445069804 0.006797747065609087
1301 -0.004602771420390354 0.0001255574075271673 0.007290167762340921
1300 -0.002797277765426884 0.00221245521478548 -0.0008965725482364018
1213 -0.009115048752454153 0.0023846930340195183 -0.0021345512759256605
1214 0.022251893737182414 0.020570904122096008 -0.01180125434270042
1695 -0.005466048706515312 -0.0014487525639777159 -0.005130458425359213
878 0.002758009183301576 0.00018203581201892588 0.01494374599306233
1543 0.0002433817036263788 -0.0010696865496527678 0.0014909451926789156
1545 -0.011777159945462006 -0.015916881384733357 -0.01422824971316974
1280 -0.019944475054435994 -0.000527617542926438 -0.004033024843900015
139 0.0007809803481054644 0.0033131317778847327 -0.0034664325666982207
1544 -0.005947762327349112 -0.0009543927628717987 0.0026971576442570335
1186 -0.0018038871866630764 -0.007389234909859183 0.0033391080281416413
1302 -0.0017729474037824833 0.004352366576256469 -0.007052204419974259
1188 0.012265155289698165 0.006687926432080633 -0.027513109912170725
1215 0.00036563882641357196 0.0029274582028280625 0.006071450248481406
141 0.021061519156175042 -0.01577118132070208 -0.006180607651049957
1694 -0.00020226459972079076 -0.003636780384916398 -0.006739235125311337
1187 -0.013829929818102018 -0.0006913409735849865 0.006895188855453578
877 0.005482592719355252 0.000847277325523842 -0.0017023734229994832
1693 -0.0010544998348884047 0.0051138098409926405 0.0002815207193643048
140 -0.01395568498548525 0.007687798009506773 0.001964614965315362
116 0.010488841627238404 0.011357737244873557 0.0036731316883821838
543 0.005517058138150313 0.0023223964510021232 -0.00037390648897401175
115 -0.007850593946309308 0.0017671669146696858 -0.002433419770055263
117 -0.005010099572883538 -0.018466703342201185 -0.0073501671889660836
90 0.0013466216407003672 0.018432793998410506 0.0015565879476360557
411 -0.0010763589772799587 0.015693261187441885 -0.009974293675799
437 -0.008696444221322881 -0.009086110816070024 0.007123514456340871
100 -0.0006723759420353245 -0.00321622889818904 -0.002256981410605518
226 0.007229381882833579 0.005442803955807206 0.0014670027361041293
648 -0.003083757558266219 0.00355519527337739 0.007179815234707825
1198 0.004324082673401057 -0.0027819573110680357 0.0022140914015775837
1279 0.0008720122755250176 -0.0033446582359438026 0.007269816496999006
555 0.008395818973327659 -0.016252753735811944 -0.013196852343826681
899 -0.004882626339958754 -0.001106521558380463 -0.0027010798931935724
1673 -0.00021636118849047844 0.023771041500714546 -0.0047633106816598585
374 -0.011232636689207317 -0.01973577146071306 0.002934601742744766
373 0.004703832534129995 -0.0031509643000745065 -0.0017395728112399222
1672 -0.0008247179882555897 -0.004662321937028344 -0.003925604610699313
1674 0.00429075471257712 -0.00916352629575738 -0.0034845054023116538
1328 -0.016450687817611314 -0.0038633336104673807 -0.005169165884365816
1281 -0.0020192682494194008 0.0023345659429609288 0.008113245506924304
898 -0.0036395160952490077 0.0009536680888305772 -0.004043906153403204
1124 0.011622410103010723 -0.0017450620618414288 -0.007687674934690082
1395 -0.0012120569871191555 0.0011166483350670887 -0.011750531900098568
1393 -0.0021406864280277046 0.005513255761745231 -0.0035683276329640124
1277 0.00309988775635057 -0.0011345289648535446 0.004907925981740713
717 0.0022834361654520303 -0.0017773441578090698 -0.004603565196700097
1221 0.004071924542874636 0.022291527432278205 -0.000763015822747841
1278 -0.0003774401992101777 -0.0015561214178186277 0.018073459504203727
227 -0.00930250320042843 -0.001015495635631666 -0.008683333746467323
715 -0.002534742404048847 0.00496500854952255 0.00016094669468970154
716 0.014477179309343245 -0.004936574321435414 -0.008012518283418651
1276 0.004279299052987343 -0.0009239911226329001 0.0019256795102768308
1283 -0.005534767239481535 0.0013176833291286927 -0.0004187753212695485
1394 0.001166838747314759 -0.001906328927116261 -0.023426040439985623
230 -0.004430686005726186 0.018361639359624947 -0.007559848367857784
438 -0.006242135285304862 -0.014568591239198243 0.010011905086229593
971 0.004778811157823458 -0.008625485089093412 0.0027779391714224905
240 -0.03377735402820491 -0.013448930030272727 -0.007801141743830501
491 0.006057562540306681 -0.006022388332163841 0.029855773630415434
238 -0.004643240799648485 -0.008136488762333118 0.00460415169793323
1498 0.0045450035956560745 -0.001429773673470401 0.003974379703659852
492 0.004911963728718131 -0.0053519210505623 -0.02866380514211467
490 -0.004064778417240304 0.005060415533474257 -0.0018880944786311606
1499 0.007852277304803755 0.0007308626956535686 -0.0033377502903076304
1500 0.008727002424642931 0.0031388442859189023 -0.009030551254858478
4 0.0024385415441788827 -0.002808135926769524 0.0018762172328729825
970 -0.003663428470532341 -0.002782899648260123 -0.0005078519787250082
5 0.005857491283901628 -0.009459374742733903 -0.002363454353605373
1651 -0.004344749362705348 0.0001314300616460291 0.0003801784892370781
417 0.0002638116340319359 -0.0004656671566970723 -0.012236302076779627
972 -0.02405067671539551 -0.008127241987274584 0.0059640477394342336
1653 0.009603848144851504 0.006976061377795588 0.0011328821307815392
1652 -0.010592788969432642 -0.02369093142134112 -0.007845098086748837
1787 0.021693229357734812 -0.008778253854318015 -0.01831813719886499
1788 0.01278392431998127 -0.011382351502600268 -0.0009232835786934943
104 0.0031580111947842795 -0.010445742927788862 0.02052037596411029
6 0.0041072096692229675 0.001708441426385712 -0.002095438231643228
409 -0.0008167213064541062 0.005757725471239992 0.004564369965921918
103 -0.0011684413103842575 0.00015763255984760987 0.0042164440770271925
611 -0.00481560835143477 0.0022667393105133713 0.004340717342858843
105 0.02015195140758368 0.005667855231427935 0.007921486251086143
610 0.001609115881853271 -0.007677051792603368 -0.004328240289793206
239 0.004853525448305966 -0.01564484255104647 -0.009001637376519609
1243 -0.002800202279370528 -0.0035501191837719365 -0.005832784900755805
1432 0.0059707192596405965 -0.0013225078013696843 0.00538888016973427
1350 0.026183785857887873 -0.011136574346277194 -0.017032362727028676
1097 0.012615770453715227 -0.03495471936282718 -0.008664934360187662
443 0.0003706197150422759 0.019284140648877734 0.00437229482892257
525 0.005095923627687473 0.016340459859316002 0.007776142100308273
523 -0.00042313473850071894 0.0014596498961110657 0.0014229500756350456
1562 0.021986762520834 -0.006412486164646453 0.020203958738493035
1786 0.0004739804334772471 0.0010910600365660586 0.0012491689781472261
524 -0.012966191876925675 0.0027454205140980963 -0.013167390083360236
1033 0.006334730846435717 -0.004943291300961278 -0.0010702022535763816
392 -0.004425592278523375 -0.01806746513614872 0.01825052293923212
1096 -0.004280264929685818 0.003742131343433205 0.0006888183699607147
1054 0.00018549674269120308 -0.0009559951349255876 0.0002422015273306829
339 -0.0125385654616666 -0.0019324797853188629 -0.020448732053560573
679 -0.006706577585338717 0.004631626060327482 0.006289131013304876
681 -0.011546996241999263 0.018670055699384083 0.018628816264182436
1056 0.00040191088351317663 0.028865274287617232 -0.003502701627177691
1611 0.01157625936351419 0.014727090960374294 0.017918565852359736
1055 -0.0008661534935391119 -0.002128062207637297 0.006229023253028785
1609 0.004234383425270511 -0.0002641621062205852 -0.004952527839263041
337 0.0035238422192049867 -0.0018734269953458314 0.0012841592371255052
680 -0.001173160229385595 -0.008166249904055385 -0.00029071251951052124
338 0.01879199261149619 0.00090507705896648 0.014964151016228536
1610 0.008994983217277552 0.005007470789302341 0.015409047715784724
1351 0.002755400769982552 0.0013806500280584503 -0.004298485548739687
884 -0.022129736822415823 0.01689995951176095 0.04194717948487107
1725 -0.007657198035586354 -0.00666720364201463 -0.0018043703382782785
1565 0.015648454026026735 0.004917957285741028 -0.0031167463236944745
1123 0.00536200715581338 -0.007443016144222722 -0.0025902499278355764
65 -0.013833497706691142 -0.022328861461564414 -0.0006053045269709653
1564 -0.0007702760354467 -0.0019953434666233677 -0.001714287858919238
1179 -0.01218726326443489 0.0074422591503254774 -0.0018465935383033356
1670 -0.014687997070330016 -0.004616090329887287 0.006816882276251615
1566 0.011796289119049971 0.0033022258614158776 -0.0013098451540476592
917 0.015710893997390393 0.020205993235639937 0.0014875922524102644
916 -0.004215557570564938 -0.006812845723154838 -0.001800233631077182
918 -0.005677859695874857 -0.010534980469943138 0.020579188114979028
1142 0.001274540753450495 0.0005857316164219427 -0.007215569212718461
1141 0.0013737239674698459 0.003834674766825117 -0.000807795849361591
1143 0.004216780234995155 0.02758151339076314 0.017309372461140917
185 0.0002734939015969362 0.013205704257871992 0.016507716106803533
549 -0.007024051704812894 0.003179528527564857 -0.01799359547454227
429 0.0015602367253836757 0.0023255342595121394 -0.006624344391177446
336 0.022607279605828805 0.012604374732155617 0.00826296118117729
1200 0.0031018963117843074 -0.000661267550216093 0.0014676495035230814
548 0.011970434235263831 -0.0058768636199872755 -0.009959144957369444
547 0.002324454977915256 0.0010056581842731857 -0.005648402779407034
1034 0.0024326412061713826 -0.023374801110405685 0.003686152220600794
1549 0.003836647480643292 0.0050592449263925435 0.0009992794955968082
665 0.0025767034936031966 0.003736715762501402 0.0015580607100124555
469 0.0037904029877115545 0.0028498781765412405 -0.003270595901921223
471 -0.002349467147270545 0.007685927859503 -0.0008720708412998047
184 0.0005279402623901606 -0.0011047177830973579 0.0010666409489440895
1426 0.00014857202646784736 0.0053515762816116 -0.003900335090364835
1764 0.006023190819798891 -0.0063979517713837085 0.020023128233966046
231 0.0003778887018357837 -0.015110122048551675 0.0065467220906792545
1341 0.005487085277759317 0.0017291315627081295 -0.0036039719013716263
479 0.013249559961727546 0.0036092674664637866 0.020445989036928517
64 -0.0033061792725312907 -0.007970991334713379 -0.005292463129667616
1125 0.0028507339985123902 -0.005600197587187469 -0.012616149364814462
1408 -0.0003164545830463642 0.003372669192347934 -0.005472841079374845
687 -0.001134481416816994 0.005641260620529445 -0.008100356608769451
382 0.001479265971878217 0.007025041421642883 0.0016901115316290932
470 0.002395780878621064 -0.00744801352020913 -0.0009094477276380436
686 -0.00086816033998905 -0.0009030612066638815 -0.005667400155950289
384 -0.008633582819729894 -0.0037923220983872704 0.0053749634649778106
383 -0.013265561875969962 -0.001384745335618995 0.007271941958840028
685 0.00040454033613255576 -0.002446189951686515 -0.005179712972181465
1059 0.012545871076987854 0.00039294664342891803 -0.02047172758327637
381 -0.00499436408025575 0.002792341481702586 0.010486949784335993
1057 0.0034035651565453226 0.0019010036958762267 -0.0004005143145223156
641 -0.00844254125000294 0.01164869418731685 0.002421183714159537
12 -0.0031311787242772025 0.02872353988069921 -0.010445428916377427
1446 -0.014087950721683703 0.0037150132904488257 0.005955519937188476
1444 0.0009188442107174893 0.0008959753251419923 -0.005696546153140352
728 -0.011071124470712505 -0.013517961624427942 0.006038763162928225
1445 0.011188105010740933 -0.004751690539070217 -0.005226369777494725
953 0.00015907738371359354 -0.011543453179686193 -0.0027614283773182125
952 0.006814323961789118 -0.002985588229515135 0.0018630161339967925
866 -0.013381444147706046 -0.00659271753641125 0.017077277624433472
954 0.019739526425543108 0.015139908152671841 0.0017142248459806671
35 -0.009292691729149942 -0.013565778914443192 0.004233931606990882
34 3.8984016793279906e-05 0.007328826649228991 0.0038584871771692986
1192 -0.00012690143344090232 0.0012328406843155537 0.007424451036291397
934 -0.005879907246523776 -1.268409148940157e-05 -0.0007162040211366992
985 0.0018070182832971365 -0.0016045089918263892 0.0016186879838880968
1193 0.012814095649807636 0.0158936705926089 0.019851446031936778
1796 0.0019211270912886961 -0.0027498061829828724 -0.004922737590210222
646 -0.004302716866365156 0.006445696553747638 0.0007472477754627555
10 -0.0033992644184082394 0.00514360299120079 0.0016578904580326443
647 0.008749446972210261 -0.018854315664223506 0.021178325990116813
36 0.014605205398267774 0.005867624405979488 -0.013912975935129671
865 0.004209490585980749 0.0002662105882233969 0.007012826846486947
867 0.036358710342755084 0.011408633812640134 -0.007980343754615727
1795 -0.004324123215667925 -0.0014005487984147023 -0.002052914552191733
1743 -0.004152609683625607 0.01272905218271005 0.014102247705998173
380 0.0014738258506746822 -0.014359165976189487 0.002723532584773448
640 0.0077505571430161535 0.01082369224761949 0.00019706241821416162
1425 0.003825536493745283 -0.010616510727816218 0.012752835171391018
1063 -0.003769525032862776 -0.004421189448513095 -0.004208600607000941
314 -0.0005675647585781982 -0.004718973169849254 -0.005275944486038582
398 0.013676795161813034 0.013881479044344025 -0.0035839731631268734
1035 0.006690331245783345 -0.0031890564880910554 -0.012165871743528114
1337 0.00017240941958047442 -0.007428218193065597 0.011563277258226742
1742 0.003621802274842197 -0.01145232653338136 0.0035167244312143916
986 0.013204778087695069 -0.018763722357891408 0.0006025718220850963
1741 0.0003742777039790861 0.0008868510348110472 -0.0010296270004195155
1554 -0.004108934616271245 0.00037493482112700536 0.0022306914071400803
483 -0.000453146387456788 -0.0032103089355145437 0.006484482516201338
481 -0.0010928102171921348 -0.0035677121310914205 0.0032938215126181542
1133 0.0008436523218824722 0.01572288427814884 -0.016436807225987338
15 0.00013250124270433686 0.013251264398983357 -0.00955053212355805
1553 0.020953391472234368 -0.019601945685604628 0.028618106784578132
428 -0.0010143480392213414 -0.0052016299931664026 -0.008394399676867781
246 -0.016938412166551387 -0.020574949321893753 0.0015402821770632506
1552 0.004142945813678366 0.000623202047801133 -0.0039528136270554305
482 -0.002457301470243852 -0.002337081721972946 0.015157075692714796
1289 -0.00737982877615631 0.00926783116127558 0.013704125536510103
1428 0.002823191524875282 0.01838263255834261 -0.0010726455224753621
1245 0.001486542413872091 -0.003718267976274545 0.0013006142367915567
1304 0.004130410915490018 -0.0172791530580286 0.009938554140660999
245 0.016609587864110074 -0.01347631102845888 -0.017734143014162398
244 -0.0037456490356062347 0.000370344701260228 -0.0021885355435522806
1290 -0.006723980435795261 0.009588366413801626 0.00450838803241925
1288 0.0024602344638108235 -0.0023695397943417373 0.004875210316737563
1132 -0.004333022336377617 0.0025622364964836756 0.004715191100712445
1134 0.01906268528714367 -0.004635260635640276 0.010318818196873773
876 -0.0029627410843928556 -0.006098162770932734 -0.015652480162878457
1721 0.0010645830807856907 -0.010793374673796746 -0.022662009857894908
1474 0.00116618696761433 -0.0013844560137026669 0.0033498499117937046
291 -0.019512281257701516 0.013539568785387875 -0.005700361838387991
1434 0.0259449136884317 -0.015546662477183367 0.015034894898601672
258 -0.008086558603391938 -0.002954154583500031 -0.005657097698462067
642 -0.007535737186876752 0.006926756298943205 0.011048998360918357
1547 0.011534077753302938 0.007555160657744131 0.0058842576070079
148 -0.01063021504393877 0.009378758299382114 -0.0011612337702925776
1661 -0.003151838954109647 -0.02379994142077498 -0.0067216826616897565
1660 -0.0016874604337138092 -0.005036552994163555 -0.001880765631723819
1662 -0.004365791457859044 0.006205792526357239 0.00971263088835651
480 -0.00464602804553873 -0.014125869052701072 -0.0021392377478446634
541 0.0010328393439523876 0.0015158464404394524 -0.005213240283307123
764 -0.01816342578138911 -0.003845549952130033 0.033126853678779065
1675 -0.001998947238851231 -0.003656872038190628 0.00048427270101897106
89 0.0027409555947377484 0.01665437674410464 0.0013980358317201378
1338 0.013538007542212576 -0.0008105484364066635 -0.015112913415306139
88 0.0041976638200075305 -0.0013578146997025543 -0.0008225454128885697
765 0.004698194520654239 0.01706284294111249 0.0025241654667147798
1336 -0.0008566794945557466 -0.0012612139606155493 0.007478981978906084
211 0.0022940170784200757 -0.0012467236455007261 -0.0033290323276496656
535 -0.00046658818371918763 -0.0037567837403589704 0.0033660265252449047
582 0.011087132622312592 0.01155909492520555 0.015426052483282144
580 0.0014194813144923599 -0.002182514434200089 -0.0009870763837429267
213 0.0027442889695564803 -0.0027012473871485415 -0.003426330534418383
1546 0.007377951238997595 0.008274281999479625 0.0021270728051633265
536 0.0009395785965723682 -0.004312855050843094 0.020094934539439894
1022 0.0007835983067706511 0.0012860636609108014 -0.01315139105399964
212 0.0054311278702815526 0.004123110179406173 -0.00643105377439086
763 0.0014927862573951168 -0.007165531025620316 0.004087090107402057
318 0.010562298972649159 0.004953378378593182 -0.005314563528259476
537 -0.042145755909965006 -0.01671996741173977 0.012083308727597613
420 0.0056453761177182845 0.006079131708796544 0.003460254934521848
1676 0.004995360758383232 0.01157441343661786 -0.029346113720253017
436 -0.002038473732033183 -0.0018307346229348386 -0.006196955323725232
874 0.0004331847694495134 0.0006231752964792902 -0.0013339380943556739
1595 0.013974194446408992 -0.013543963605630717 0.0008253144362943163
553 0.0021218258294671793 -0.00011441881298674115 0.0003730384838825777
1220 0.003772682852417779 -0.003847161675969151 -0.010152704362064974
1121 0.00024170369052942876 -0.002804664036639358 0.0004603989490903123
1596 0.008516826267312321 -0.006002312083028291 -0.012606908223448053
1120 0.005590546278872231 -0.0010568084199617917 -0.005557034417171929
1423 0.002383840226121053 -0.0024154809887829984 -0.002128190891837483
1797 -0.008931666730295912 -0.0018338219536695446 -0.001941581259347623
1219 -0.004126588865674709 0.005585818587027101 -0.0014749317454590648
1122 0.0023511764067057485 -0.002914159102762504 -0.010002525869826523
581 0.0031611648131757153 0.005655465043099977 0.004023559775381388
1023 -0.010930572908296998 0.017228065316507904 -0.00978902041732169
1021 0.002697785590776828 0.002250187254628701 -0.006196506556500341
1424 -0.0003903346360006907 -0.0023221335187028386 -0.01356419785684427
379 0.0038546995987149457 -0.0029345128329849807 0.003413980590211349
1594 0.005343378782050754 -0.008459260827953874 -0.0061709021731496325
1058 0.01189825331888094 0.0011680212730835514 0.013372368869452176
257 -0.007972617043756312 0.01216300938716353 -0.004481555915880876
256 -0.005066591332443837 0.00395479486802422 0.0002251760599115209
1410 -0.010119815412573672 0.014367527972485047 0.007113583803367235
229 -0.003929952078307509 -0.0031089148028900543 -0.0018110351811786443
1352 -0.005650913942018892 0.0076699907679556615 0.013893634069126137
427 -0.007112996813053224 -0.007434877462474372 -0.003758790890358577
1677 -0.001335892487686296 -0.025381112836755603 -0.006733761523205865
478 -0.005225439951188591 -0.003958582602035815 -0.004881947430180753
875 -0.015030253041254445 0.00250299132334481 0.03632002221569787
1353 0.00251707346606221 -0.00812303066594056 -0.005698684951460002
13 -0.0007459551289546319 -0.0038231398616474063 -0.011693377461951829
921 0.006284566841853212 -0.0017603407111209223 0.004073598494416333
1550 0.015269509942768076 0.0072804137992270885 -0.006553250423594515
14 -0.004468453981486266 0.007152636889751926 -0.015794308180431645
1622 -0.011502063102297844 0.00011720225043587186 -0.007603577878930145
1621 0.0004069020693704722 -0.0009853712898787428 -0.0037288487232607654
1623 0.008809507162985095 -0.0032305183673162815 -0.011328544470677023
920 -0.012257573692437141 0.01621641595530831 -0.010551082136810372
412 0.0023476984453601577 0.001261871986715711 -0.0011879030089916257
843 0.0012507710605420812 -0.00603991902004838 0.00467702136063432
841 -0.00023145593523103694 -0.0020319942105635697 0.0008750599397035938
853 0.004325174324723897 0.00031855040119765313 0.004809374833399953
842 0.0018036143505290743 -0.00039326513708623257 -0.0020649511085808043
414 0.017769005159120266 -0.004710223600072575 0.025227439291413307
465 0.01262649735038703 -0.01030965298023262 -0.0036132061119969177
855 -0.007439614015972465 -0.006979776099989431 0.0005458275712393031
1791 0.0038435215091215213 -0.008764808568779344 0.0112204930769876
413 0.003830581566356546 -0.012241155333937713 -0.014667747821069626
463 -0.00025691712566279994 0.005394270301889545 -0.0064795169783502735
919 -1.5872020375757647e-05 0.0025172341391389717 -0.00019174852823425044
501 -0.007866674815379362 -0.005682797863640958 0.0077706086047830926
500 -7.783970991674278e-05 0.006523294399871612 0.011413764287741759
499 0.0020840462454391005 -0.002195512175146733 0.0005264288773160698
1091 0.02709409242986708 -0.009661470187267396 -0.011691787915495985
60 -0.0015642807988068862 -0.022518412261736818 -0.011458514956664624
1760 0.008366595264809557 0.011089966144242873 0.0037529500881707326
397 0.003811360877110195 0.0033200598056471724 -0.0034957475760440033
926 -0.025409582469061373 0.009540219816155718 0.009884281341286058
59 0.02138546150485058 0.005066140869157511 0.005800490969254405
58 -0.0020921527615207144 -0.001394600486205237 -0.0023864724684540474
1769 0.004850793021981543 0.015642028907076527 -0.0064340354714249644
1759 0.0001900820575419353 0.005597283964731214 0.00425547905203854
38 -0.009196827376241326 -0.004618951733351874 -0.004611548260898841
1704 0.00521530209271744 0.016894982830044522 0.006778625763699347
1665 -0.011377706892640088 -0.01519187406307854 -0.003516924501582133
1478 -0.003931891058001115 0.0034583632001942122 -0.006656885942773421
846 0.01338975205649959 0.008611786094916994 -0.0014942228587535107
1703 -0.0020830173416431673 0.003004644985787501 0.019014071125321604
37 0.0039765202794475605 -0.0014674418706915131 -0.0032698739157185396
1768 0.0008885417258156606 -0.0016016245092576086 0.0015828898998772694
795 0.01712140958939108 -0.004934903355927619 -0.0118337205469808
1477 -0.0009112638801315768 -0.0009844010410654954 -0.0015187236867708132
793 -2.5500882254608318e-05 -0.0012173201639190123 0.000528183785964174
845 -0.0037375056703005394 0.0037624989037155564 -0.006074186972735107
794 0.020014352703312015 0.002565979833331245 0.018403016971127617
1580 0.0011513356415618768 0.005671075235792726 -0.013188557578320003
1579 -0.004528779021929477 -0.0013097420263295074 -0.0007185339680392917
1702 -0.005726096219799438 0.0018079450635556874 0.004725349122152126
1479 -0.003696436494026773 0.00429291306101061 -0.002228567943259514
129 -0.021426634228966644 0.0019157236710316647 -0.019036115789185133
1755 0.006740889071609181 -0.0032284737331837467 -0.0035721358515054427
127 0.00034629597801577133 0.00024319574879129663 0.00853104217692843
1770 -0.002460059882513052 -0.005614391631376007 0.007037599574060616
844 0.005082497118401157 0.0024313704037263726 0.0012083225195491647
1006 -0.006161725160781547 -0.00039363797887690186 -0.0017890143091423105
39 0.012425915478327715 0.0034855246586682352 -0.003780405904658247
563 -0.01818384545964935 0.010694482723160375 -0.015888161282609118
705 0.0027109712536536913 0.0022835571113939282 -0.0017073102047772512
1139 -0.002236587200976684 0.00021660885255234813 -0.014067362906285744
975 0.0021284774884907575 -0.014965779541996824 0.005264825249388316
259 0.0015690785097401947 -0.0055520353884906575 0.005238748863279545
97 0.004932503255284408 -0.0029927857411912763 0.012766635556497407
808 0.0021643199691415145 -0.003317932372510265 -0.004127956904415324
98 -0.006377412635330481 -0.0037645098218448605 0.0010840988034526771
809 0.013290920719330638 0.0017609457777347708 0.010965853437635337
260 -0.009359822247551976 -0.005526661927090101 -0.011234191456315155
973 -0.004302802652424018 -0.003207281005699105 0.0061044893399274935
810 0.0017657144224904795 -0.01655555872190681 0.021231494005060633
703 0.0005930446408472532 -0.00027592375750871577 0.003467911264659553
999 0.026383689272064505 -0.03181212122341609 -0.0004401911210472021
261 -0.005785780972637142 0.01685697681892404 -0.020992104285064966
99 0.010583899727997122 -0.001756787638534736 0.011956230876253958
974 -0.014750761388144896 -0.011880803017807114 -0.007678164574973338
796 0.001616832963003602 -0.0012385270174051775 0.00709137143514149
1597 0.00238443020882724 -0.0035289115320141524 -0.004259009817914533
1346 0.0024354883337150634 0.0017758089619818633 -0.007610282907804318
997 -0.0011218969508163157 -0.004609700893406673 -0.00033208904047767914
998 -0.012835429479292334 0.010331833576147663 0.010610637022638912
704 0.01691355643379101 0.0014839541433733837 0.00466851094538752
1140 -0.0071224036056943005 -0.004934036687093156 -0.01357921240484591
1138 0.0007530924280663282 -0.001916292797879819 0.0029425879584499986
712 0.0009714278960167972 -0.000923170039318411 -0.005624871872997327
798 0.006821330316810324 0.005492766976531331 0.012585933236679387
1581 -0.012975518935637776 0.011559649490362877 0.007619926426292109
797 0.004463767532615203 -0.012171987930432343 -0.001954180249471919
1573 0.00836430846285649 -0.004270237453441267 0.0032981749777888435
1570 -0.0007856424055844276 -0.0015630252854549793 0.0031811157934502087
1025 -0.00011773523807875083 0.0015556352927434053 -0.02066990215405229
1092 -0.02256655569757524 -0.025769097788816635 0.011212505991871595
1090 -0.0039128501889598875 -0.00013210545905888656 0.002077060960286195
834 0.018188982565983655 0.00998221164173864 0.024120948625790464
1046 -0.012754056313322484 -0.01505217988363927 0.00772965223783282
1047 -0.0019136872371281516 0.013506572232013556 -0.006721686401545255
1045 -0.006502986277038916 0.0019420012506815934 0.002902827760001996
1571 0.017335927788425055 0.002231846468471976 -1.1605991521896393e-05
833 -0.004807543862750328 -0.002974231281415132 0.024123242645336298
880 -0.00852330295437377 -0.0005290874576435199 0.0007210401573101247
1026 0.004085924543951669 0.003257583721016071 -0.0021312617107576977
881 -0.0021446898435664987 0.0026473316964762683 0.0013398351493080205
832 -0.005116443265992384 0.0013097443973374776 -0.000600396142015657
1024 0.0014528763374720137 0.0016709474025246572 -0.008864573371040555
882 -0.005674658490810212 -0.013026878697580761 0.022188971093302166
1118 0.0005010694921452928 -0.0009184730001004216 -0.002076270436089901
1462 -0.006589811687835926 0.0023916792543920355 -0.00044534314859822374
1730 0.0027068691405800318 -0.003153774043324526 -0.00018572170520245594
1501 -0.0019357107511559857 0.004156960067058326 0.0018635289174787706
472 -0.0017786464116589932 0.00024506958512079323 0.0017304692014987694
191 -0.00595834377242341 0.002003771698112586 0.006278315798444745
609 0.013765859873490197 0.0008310503780270689 -0.011076070316026955
1690 0.003929797154035282 0.0011061980053887954 0.001018743602719086
1551 0.02177300861224105 -0.00226145921038443 0.028829348215264297
942 0.0021041689138050854 0.001130119441507191 0.020062216342644802
941 -0.005012515655526939 -0.003459375230439289 0.013459537029282374
7 -0.006040515780499558 -0.006073509188389267 0.003846170029692121
9 0.011289294922589383 -0.0003581768371236218 -0.00874778507141914
1692 -0.018114412388016626 0.009380762072224135 0.004448923042458762
1691 0.0038640179613421547 -0.011767412039637647 -0.020066600669338325
940 -0.0005525458135671907 0.0016668751668396033 0.009701359140398028
1789 -0.008395236191711071 -0.0013261446817238486 0.001965393706941977
1790 0.005859272060051352 0.017875276134159283 -0.012313612693381026
8 0.0202959119812191 1.5696097532751014e-05 0.009618026795993601
1663 0.002548667807331046 0.004959435991053665 -0.004242091617040279
1163 0.001964113411055055 -0.00654066837751637 -0.005015289642682952
335 -0.013143006480676544 -0.014281713377006143 0.013980621223786675
1166 0.00943976303868192 -0.0022274623672073925 0.010897608788655519
1252 -0.0011663981151932453 0.00041188274276478796 -0.0008268982937255418
1753 -0.0016215384522928933 -0.006523947504563826 0.0026990559072389
1737 -0.0026519132530658032 0.015614691523627721 -0.010052970553141947
159 -0.0010928956821867166 0.006117247793996048 -0.0058302768494842205
1735 0.005078434180732647 0.000197335272432333 -0.0005975352626818198
1253 -0.0019425776089200097 -0.018174988378426727 0.01626386481429965
1736 0.008117093734884714 -0.013027668186765918 0.022446834989419448
46 0.0013089040076329722 -0.0004543281660002592 -0.0013398862681420528
157 0.00037098517338660634 0.0030613101052071492 -0.0012464648320525784
1254 -0.012467133462431279 0.02227453322718595 0.0035219768321563417
48 0.003871204974830557 -0.010056910546965848 0.003208078888074206
158 -0.004881558821289567 -0.00017656542289302504 0.0014267516396153244
47 0.0019865074254515032 0.00929607439045127 -0.0023317162888904772
1178 0.00423004614384592 0.0035547722508987266 0.0017618199483197716
718 0.004215910501940647 0.0025551944725961374 0.004902363851212077
128 -0.005044472523141824 -0.013187751180004861 0.024925547627499767
1388 -0.012925325004358591 0.012000787428488835 0.005260074691149415
1731 -0.004391673748320625 -0.004040289780460183 0.009136002992407438
254 -0.01979254558380178 0.006479510151489353 -0.006395559955936409
1167 0.003687343271493036 0.0035407803224993912 -0.00041903563652256946
360 0.01947292161049692 0.004885253492573504 -0.017372863140067942
66 0.007343408094061648 0.009847461713766225 -0.019260348884451117
1199 0.003083912739767875 0.03549460042704008 -0.0018421257082333962
1387 0.0030438294939996702 0.001331576710783707 -0.0005559630729158091
1389 -0.009076758473691923 -0.01901419702938274 0.004821232053585191
358 0.004478909778173314 -0.0006735940537096108 -0.004840035020538988
206 -0.0055769852243770434 0.0014984971012142396 0.0003492502409209551
1098 0.009493838237754819 -0.0022810195359329578 -0.01217738627239444
359 -0.008680809045373107 0.015288378495813366 0.0012200343830771024
126 0.014283563148261758 0.016230148351123515 0.004458897190228237
200 0.002217526912162544 -0.0047917373800887425 -0.004760370655984561
253 -0.00546196164095161 -0.00047968417599954303 0.0009831135384645389
205 -0.004551204999527577 -8.104671623696821e-05 -0.00022766027157760822
1073 0.0019830925307505734 -0.0006743449451584847 0.004706863303427395
203 -0.0076783841168929865 0.006737599005287564 0.012485770548327151
1008 -0.006699674491549443 -0.00031258971809173614 -0.0011859086255653116
255 0.00015331133011137218 -0.006715296128942089 -0.005112424661763793
1664 0.004519777725681888 0.013556194725489535 -0.012160092636795765
1772 -0.002061019275220172 0.027463969655939544 -0.01228613799190762
1771 0.0019671311595943226 -0.001722429465207054 -0.001962552703891678
1194 -0.02037004117895603 0.005976603582655909 0.012130029887721437
202 -0.006168691471716594 -0.0006269983124226286 0.001180187882369087
1784 -0.008414821006009262 -0.009400653838649124 0.00377571216560655
460 -0.004369390396883872 0.003261202099975337 -0.0016138583250564441
1347 0.002570139577008909 0.0015015199977347132 -0.009381993719915372
207 -0.023687418250771666 0.013258561220779529 0.003772836061965615
269 -0.008607046702843707 0.014057579134164073 -0.004659913264159881
270 0.0023339032606029034 0.008053077333719036 -0.008283419371983052
268 -0.00611134194736775 -0.0026127830289337196 -0.0011789900443263139
1437 0.006660321293897433 0.005290219241970394 0.01033271360455221
67 -0.00033804451980014007 -0.0017457155149372629 -0.0022057163996736795
1448 0.004960133861155197 0.004593340834045727 -0.0140048204755454
24 0.0021799795722360965 -0.004255269381718764 0.008036380457717837
109 0.0002161268256367548 -0.003179350758679917 -0.004180318160755042
110 -0.00764184953341258 -0.0008887417345527981 2.123321457187098e-05
111 -0.004792930580993029 -0.001787915644454191 -0.0019087606100158068
462 -0.006517483480817056 -0.002429027923124954 0.011960584693952503
1568 -0.0008522645116677309 -0.007074381518767356 0.006382241654567051
1345 -0.0012230864408195041 -0.0009462721576852787 -0.00826692759717687
44 -0.004961522742569507 -0.00654266971431832 -0.014597074400061435
736 -0.004150198745165628 0.00023009435885507006 -0.006729269376348372
531 -0.008135373909397857 0.016596099472561902 0.006170012911311907
1080 0.014291499638663229 0.003947460573073129 -0.007472902805575687
1085 -0.015160732954030299 -0.004096800448888626 0.014524021708495137
1464 -0.01375451675762906 0.008809084680052691 0.001063649075742998
28 0.0017829444463642499 -0.005023590584391122 -0.0031886896731111694
396 -0.011501920605633995 0.0014398447918521375 -0.0026840778831189274
1459 0.003030906597496198 -0.0007535317749249735 0.005492135238441196
330 -0.02014653771268409 -0.011962561814463217 0.013286722349992704
1572 -0.005357829847109834 -0.014432909281128692 -0.008023233082494597
306 -0.0017998274692030678 0.010638581634080775 0.0029417045702648413
150 -0.00132805977200009 -0.013239561796324947 -0.0024577968489053613
399 0.0023557294636093896 -0.0040512049832931475 0.003747444596073298
529 0.0031854477815948016 -0.003474057424637688 0.003536864416586766
394 0.001118783197495056 0.0006662603186175227 -0.0038621861400123213
304 -0.000361344367628184 0.0053598545014993185 0.0007474729548166266
395 0.0016652220032341665 0.006212093759275113 0.003653680026184145
329 0.009407409832956288 0.017479769097831232 -0.004677394064580982
305 -0.004713575524469101 0.007795300467955057 -0.0008598573601694278
328 -0.0025599309242013957 -0.0019768370424197985 0.0032169247852183815
1343 0.012912916536534917 0.004681064579741112 0.007412821174169508
779 -0.00019378342336746757 0.0031411527921423256 0.024867271829389043
995 0.017141738313427825 -0.01252181257397967 -0.0010706315182922822
1342 0.007338207136340599 0.0013471138849940462 0.004930983933878561
1344 0.012698546802641531 0.0027385204816287845 0.008515062637293942
994 -0.0010251667226417664 -0.005138944336773785 0.0033500914548076047
1053 0.0033837200233112416 0.02663599583586442 0.019634387899062786
30 0.00210515247942866 -0.006755335472118337 -0.005163781881069442
1051 0.0017706891931912774 -0.00203817844417336 -0.0019981142322429493
173 -0.001556293024752931 0.026035933419607513 -0.003905477052790273
1052 0.01353441808706399 0.015400238715673921 0.030887549538736132
1017 -0.008666497356956026 -0.009842722885996167 0.016386961652527992
1598 0.0015488785356430144 -0.0012985920302538833 0.005362826768113731
124 -0.00871586878184505 0.0014243654488583534 -0.001227824097318297
530 -0.002322408219367129 0.006783978187620406 -0.024205901906136848
709 -0.004049169421817484 0.002380549205416475 -0.0004104678444162729
710 0.005128325368319102 0.008724589227480064 0.010366023120202008
252 0.00038866719911312056 0.0021122336916865984 0.00252121214322956
1710 0.012090429344293812 -0.005716311827041935 -0.007389776776378049
187 0.0011391146166606996 0.0021495380066944517 0.0018757429777763361
1615 -0.003010229531500112 0.003062235957293277 -0.0014546402408458716
368 -0.005755084971513475 0.005464928600809779 -0.02917717015042421
1150 -0.0007467733380696872 0.007215511211084928 -0.003134606422366054
1152 0.0014926335870280789 -0.007046082507441189 -0.010336232233425006
1151 0.006278674700555587 0.02043206726261837 0.0047254963386694875
342 -0.0022828277411634595 0.013035042474488633 -0.002297936572832455
1617 0.0013681223787080689 0.002223498365753102 0.008339494258553454
340 0.0035077608830506044 -0.0018585601210578343 -0.002664577245706939
341 -0.013512122568750052 -0.00874543389513804 -0.008279045155739009
489 -0.019255845475316533 0.006461932427690774 0.005132847263468165
189 0.00889779912248656 -0.0012119705214151588 -0.0013033909803079479
188 0.015847290639841697 -0.0005113153671443772 0.01421394795013455
487 -0.006102479714583145 0.007364254701507285 -0.006805738415512824
932 -0.0007442989594281877 -0.0019955399389893973 0.011853593848730347
931 0.00021690879970670632 -0.0023664081152208753 0.0038390070205048684
933 0.008178051929289503 -0.000993501617936882 0.002366263065198682
464 -0.006023427697603366 0.0059398449737706575 0.011077823804309252
488 0.01030927670253258 0.013150787220023163 -0.014379429205303074
1616 -0.0034087213061442393 -0.014803557412748278 -0.006142506698649262
1708 0.006537280813761343 0.00012063436235476993 -0.009768258777755955
927 -0.0009039522222390015 0.014745750188770135 0.00753305161347783
835 -0.0008360806319754447 0.005580687241584959 -0.006863121923911377
672 -0.023542555116281783 -0.011740484384128733 0.00017537617503805557
837 0.015406817043678078 0.018306751420447957 0.000575063486859629
1007 0.0051837621746653375 -0.0054398909817094 -0.008248940831255614
1709 0.012347496608966474 -0.006344028417492818 -0.008286340535471339
1015 -0.005945847773520012 -0.004772202464244708 -0.006438503776760995
925 -0.00340791469874065 0.001091807158490623 0.003475305319432517
1716 0.015429440582900869 -0.010788308095646876 -0.003483236584704604
125 0.0017706598385783538 -0.010126594049842045 -0.0023290345061026847
1714 0.001656142796559997 0.0037154800923339605 0.005792082972219785
675 -0.010625403039649777 -0.011178861030418768 -0.01467481378455656
201 0.01776288957962267 -0.0022880422135588374 -0.02044909340064976
1162 -0.007069111961902906 -0.0011049414487851721 -0.00320510360644488
1717 -0.0024360758897323826 0.0005402723098801264 0.0028495978259828933
1503 -0.01433710104132197 -0.0077024801197529726 0.009845125875003241
75 0.006316020337931409 0.006553952792377666 0.004742708499181923
73 0.007009750178459318 -0.001144406253114193 0.003062398501307534
983 -0.002752868523976369 0.006082060639745892 0.00433525969623614
1164 -0.011067804050205167 0.004555187818347378 0.00889311557909915
1258 0.004556229520259234 -0.001302855487988146 0.00044488831063431943
984 0.0027838430631815913 0.006470602600380905 -0.007592815847085465
674 0.001883251204530261 -0.007533877259062525 -0.005960013271046475
1260 -0.015233113269446381 -0.010424569847459403 -0.0013183185995994334
74 -0.001738293387120156 -0.002131155792029091 -0.004441163046613916
1718 0.0004937854901836019 -0.008894067203069695 0.00713124564181237
673 0.003253610330092015 -0.0008005847364653263 -0.00018278244913330112
982 -0.003983807310065326 0.004907699527250335 -0.0028224990646301806
1715 -0.01871647857026156 -0.014677729340079397 0.009056486139011798
836 -0.01855660727346123 0.02202581983085136 -0.00857363249985779
666 -0.012559532969161421 0.010328949601467512 -0.017170574644462665
1259 -0.004004049016567938 -0.016796646581717915 -0.01797123476059767
172 0.001276160631918248 0.001374391249318417 0.00040169654780714833
1587 -0.01003682674112102 0.007745066339418932 0.019630539321502407
950 0.01164334960839376 -0.002146162154933582 -0.015423349116992752
951 0.008151415717861281 0.0031654432447642423 0.011855645954616556
29 -0.007068407080704006 0.00587808303371988 -0.016124651066244836
1463 0.005007794791594983 0.00983116465289286 0.005643661759126716
435 0.022967352479635817 0.00210551672359955 -0.0023161832301103642
1367 -0.0017810510696810147 0.001691198842695738 0.012096013150351059
1368 0.014907383968126436 -0.0052851524675571705 -0.00044665200941600033
1268 0.007090264005137514 -0.005047562983788184 0.005964410891454483
1267 0.0006708908399484857 0.003200377453570771 -0.0036012548659321592
42 0.010847619444546151 -0.0015345062375959223 0.0007680807362920812
1269 -0.013471685769020825 0.0044336993632282055 -0.00463951840444222
545 -0.001648319247751718 -0.020266443070800735 -0.004314695101605563
544 -0.00031994539540910696 -0.0021483025901111903 0.002293520802068583
546 -0.0022076589821194677 -0.011395556762604826 -0.0009359167046560516
23 0.003294432207418814 -0.003118796962866855 0.006182047256366191
22 0.003969744101242824 -0.002030018143922404 0.0008466139140186366
618 -0.017597141258816812 0.0018775335689356902 0.016274425121884283
461 0.01520243376252517 0.0065643323794447464 -0.008529324221029462
391 0.0036994094979729344 0.004961073379168953 0.007619418158565382
334 -0.0007942227352336293 0.0016671790979534422 -0.003636544802021844
949 -0.0034270636910467825 0.004607763368102227 -0.003330720782815329
713 0.004858847706245848 -0.0033900554407105196 -0.005407848444320604
714 0.010591505151514918 -0.00531827758730513 0.0022605775106137624
1224 0.009039749134143616 -7.249620899974038e-05 0.0030815444566498064
616 0.0022718851269288402 0.0014490283728391634 0.003189468055151341
617 -0.016721903537408652 0.009928176323576558 -0.010718627865023131
1223 0.004392032753585529 0.01954393221369141 -0.016201919053644993
1761 0.0016877923503993983 0.0002197766543145705 0.00854712611312571
174 0.0012827005452450662 0.0013911539890392975 0.0004024386064433771
1575 0.00640527254573228 0.007662851432427392 -0.0026085082558656232
711 0.000678571131624943 -0.009728894777030641 -0.0012580086323642147
661 -0.0003533734621423632 0.0005413133072164609 0.003998021025060095
1117 -0.003132863083759353 0.0011887358840083676 -0.0004813672430147202
1119 0.0028329380337142255 0.010772927368429898 -0.007712062728228923
663 0.007309700793727966 0.009484112278543653 -0.00806488544571966
1274 0.0009710548747654148 0.01579162846325774 0.009195217563673707
1436 0.004007846981545501 0.00800120997783703 0.011866911783070134
284 -0.015813024469410266 -0.0037697765806225664 -0.007712342325747339
285 -0.01556685754543475 -0.0065781660075281525 -0.008715469164248445
81 0.0052893823971845244 0.01926676336847462 -0.00167340540777858
389 0.0042194424839464085 -0.011395192405559031 0.00236189579019645
1273 0.006067779466979284 -0.0047886984451502405 0.000985705372663244
283 -0.0004893364367219518 -0.0022376592308772257 -0.002536810293418526
80 -0.0025355100756229406 -0.00945892603683832 0.00043049663624528887
1222 -0.0026986818273370375 -0.00045890433924446254 -0.0028688000293442726
79 -0.0015792729799574163 -0.005573464573223861 -0.0006823860861922214
1435 0.00540613953093387 0.0001768478707981956 0.0016889549642582012
199 -0.0010821192836919 -0.004075195650296871 0.004807603771425416
1729 0.0022281574830223753 0.005356828397774496 0.0029238093288727228
1113 0.01361342830269034 -0.012065272126930291 0.008684765730931349
1111 0.007033618559717921 -0.0005311683904094808 0.0026893456779659877
1112 0.017402551938987692 0.005786097844950248 -0.004383941699045777
1330 0.001883544079085555 0.006659009212243731 -0.0016481751446045206
251 -0.011686403301511524 0.007693627196913562 -0.00029571503662472777
367 -0.006561915706719666 -0.0014339905970186093 -0.003742055349179709
1165 -0.0013876607858910404 0.0020273661212484315 -0.003381666402103222
1461 0.02502179453032067 0.006339754741528585 -0.007763313380065729
250 -0.0007917253725515099 0.003210055466198643 0.005911725232860503
1331 -0.0010529915547649775 -0.00473655219473277 0.016671583890953
1413 0.01302816997598115 -1.5803253745265177e-05 0.003905182404437805
1782 -0.015111988664421773 -0.007402238451170521 0.012706992505458162
1781 0.021142025948864964 0.014333186924383996 0.021945364637083225
1160 0.0007540175785700215 0.002827818011086587 -0.006521875709507305
1411 0.0026604025287222132 -5.4853451300096086e-06 0.00036164984138421715
1159 0.006749548653437714 -0.00824917461271188 0.0022305226718267127
1161 -0.010881394058356487 0.006736397601829658 -0.009625989804736211
1086 0.01088103253763403 0.001850787200573218 -0.017147792029696924
1780 0.00365092365699055 0.003942118718875472 -0.0004442862010028491
1084 -0.002408493691084897 -0.0015229271567902853 -0.0015786332750412667
190 0.0005521917355263387 0.0014072047622542244 -0.004368602460897532
1261 -0.002536571638860747 -0.0031516551473014572 -0.006618169480560899
1412 0.002708436306506517 0.0067643929947912365 0.009886367620460797
1366 0.005965488019120306 0.0007607415862304672 0.0052707411407837915
456 0.0015234359304302394 -0.0052023307582825026 0.02032272770026683
455 0.004334540799109489 -0.0022146054198631583 -0.009564796725052529
454 0.002672161519890746 0.0029891411570482545 0.0031352489678163863
1262 0.0006064882148190258 6.246033952100328e-05 0.000670498229742459
1625 -0.0016005204694068095 -0.00040473295911029985 -0.003825094037866447
738 -0.0189900444115699 0.0008644446118132341 -0.0163546148702538
473 -0.007040777635497162 -0.005567819194556466 -0.005403198933570821
1332 -0.024593278014179997 0.0043764439052931155 -0.0126007812786365
192 0.0070702388416961455 0.0012981026167658528 -0.005940985342008102
1099 0.006514677253122893 -0.0029781020375624924 -0.0035512312341170267
1016 -0.010600228971210846 -0.003734881733526102 0.011940952343785774
1719 -0.011602865754106921 0.001808159146853275 -0.012567424879922011
216 -0.009988010299505167 0.0008427152898282161 -0.03281673435628189
214 -0.002008069660348707 -0.0034118513257788458 -0.003859252742974407
204 0.01919708973713194 0.008443655019712837 0.016809774721572475
1624 0.001512948384295158 0.0025604428841648477 0.0008007897390275958
1626 0.005162159172202484 0.0016792192484304342 0.00030136467456989895
248 0.004975702462857008 0.0022962102572586904 -0.019626088698792014
249 0.0006240721160237295 0.0104875915411043 0.01735059896559858
247 0.000907707517708786 0.0062314284032952165 -0.001658812163488376
1773 0.005745853838402466 -0.027296000666698572 0.007364602239504321
1513 0.0025573879856601416 0.0010952781925635873 0.001752889775381917
1101 -0.001987497728576302 0.000412627576480032 -0.015768696872912328
1515 -0.0024546547960755567 -0.008186400362805393 0.0017213784094807314
1514 0.020793585338787925 -0.00033905811531569123 0.002826515004232236
1785 -0.010276628863618244 -0.0012938972471739502 -0.007267413940295998
1783 -0.0009322109635216058 -0.002057389348880609 0.0026168276760392835
215 0.014236295100293435 -0.017091478324534327 0.0022350703288289567
1072 0.004094203270518692 0.003872470100175622 0.0030100002581938284
1074 0.003012584940467771 0.007002498514398822 0.0053482920251322515
518 0.0028239022118778335 0.004473010902840065 0.0035991586902630597
118 -0.0005413439515079389 0.0022306390606779154 -0.004182786412147201
519 0.010438545757827381 0.013197080059258381 0.006070706802818759
119 0.005307941386272456 0.0013828337193016586 0.031989642731211056
517 0.0030429798886571677 0.003342915420010992 0.002834945981023467
1402 0.0037975628122146 -0.0033842226351913055 0.0024301494928806767
1078 0.003945780864804938 -0.0002537258669761738 0.0012476639040030595
1460 0.022236213079410285 -0.00022923225057517796 -0.01028317755289482
737 0.01650253544171712 -0.0012869553248977875 0.0026137720185847126
43 0.006318548574845744 -0.0054917004764997385 0.0027854649710413342
1569 0.00433330210025157 -0.002260042760460041 0.0016117920527857423
433 0.006118630283008531 -0.0007651207045620104 -0.006804371057035592
1384 0.0013421151518120172 0.0044461316345761484 -0.0019861327079043712
1386 -0.0014317434139639283 0.01485448915484535 0.004544957494854793
1385 -0.0022459931735071283 -0.014095153155027549 0.0037510008374862986
434 -0.014267019784941985 -0.007586598535022265 -0.005107741932568831
45 -0.007087373101756386 -0.011707219522594845 0.014214643899333905
295 -0.0021050389374181505 -0.008162924794109981 0.003489117764701947
296 0.004693862310031363 -0.00835553345284088 -0.011039100378583343
297 0.004720862410110316 0.014179055046805349 -0.0035473593171260216
1589 0.003498381417473273 0.023198322032830645 0.009654060943961283
120 0.0005418087197303228 0.0031779562756884825 -0.0014562294780443177
31 -0.002526557543321558 0.0020521471002760507 0.008708830049540539
33 0.0037149187311288235 -0.021239771221362353 0.019512350773748285
32 -0.007850617159935812 -0.0057063845165380685 -0.024399346145874776
1588 -0.006352267980035864 0.002900479147322874 -0.0013508143769122446
1590 -0.011989088429355473 0.01125725070880918 -0.00447991384335414
903 0.01209685031634332 -0.0017003300375404461 0.010391720955088883
1404 -0.007283373487056709 -0.012389752581061201 -0.002313483991338522
902 0.002815921069128829 0.02294189595010858 0.0010098772617466005
901 -0.002400293114742304 -0.003153394255050494 0.0038799252974711447
1567 -0.0016338657424364445 -0.00211681965314599 0.0033520471880001354
1079 0.006902119693518624 0.0029262461993529946 0.00899599163772834
40 0.005511590001995355 0.002968375019712027 -0.001795053538804779
720 -0.010274493124462753 -0.004491412110157887 -0.015530278406744927
369 0.026494615894972706 -0.001530883917377133 0.06089860285007077
474 0.01998588369478902 -0.004051043152219028 0.018862926826630634
935 -0.0016204917458593022 -0.01945741117138153 0.006957707668549721
719 0.0008670488988073803 0.0008008164600772525 -0.0030658387762653844
664 -0.00042386808982625086 0.004175266601887346 -0.0013612778053604232
900 -0.0013325871559388852 -0.006170174897429793 0.0005144905201232957
1177 -0.0004045999069476574 -0.005830249863839915 -0.003500573555800481
1263 -0.011387330814994434 0.012326656441368487 -0.018555164119746604
1244 -0.008029779162795198 0.005046069531844398 -0.011581675956764478
1065 0.006223244540203621 0.008888586824867465 -0.013147337731752104
1754 -0.0054025259672642245 0.0028523501557873184 0.008730550459948977
589 0.0006536804265762068 7.781565527867912e-05 -0.008738460637695126
68 0.010197541215588727 0.009456190444423342 0.003077843907877632
1724 0.01588652285246402 0.01225854075599699 0.01734455974242076
388 0.0023649480795228774 -0.0030172129071518103 0.0065237938386293465
936 -0.0035993315283085053 -0.008559559987607716 -0.03473199935675517
101 0.006468595789127938 0.018590404078936543 0.006257617878496543
700 0.001693540831381211 0.0015649566498742776 -0.00347703800759986
1308 0.01579555330369752 0.0008427223899823774 -0.014486053593332576
393 -0.015121114886509524 0.004731478217996931 -0.010433416690265167
1403 0.011696108000238438 0.010521736549818436 -0.0032564421151052765
149 -0.005974724295979265 0.006493953635297076 0.025356022667446347
228 -0.003910517833392634 0.0023734502853751116 -0.0064896958152479015
1238 0.01018016170313494 -0.0023287667121420015 0.009478028301916306
606 0.0016407658818420533 -0.0008734622789757046 -0.006855871761346723
1372 -0.00673943664115135 0.0019703774345128182 0.0016823798524950502
946 0.0009191290286276618 -0.0006821625143518858 0.0021822759209903283
660 -0.000630579991594838 0.00807212097231084 0.005411200357708515
708 -0.0021783199144016266 0.012682773765834564 -0.004572493704106054
161 0.00612702604965363 0.013404514752625062 -0.00948635366327311
77 -0.0022759723196386764 -0.014063900713332496 -0.02717425863990549
948 0.0005006613185697284 -0.006397060508429621 0.007722289467500416
658 -0.005787547003577783 0.0002905708017466459 0.006388979909688536
1040 -0.00018796161113498867 0.0015082842681239479 -0.0021154920786721773
659 -0.01764548996208538 -0.0008946553204838935 0.003444370525026536
1237 -0.0026890665487492933 0.0017298283243801116 0.005725396463080576
830 -0.0026645807052501375 -0.005260929705981853 0.00037899517978822893
1685 -0.0022193330445264147 0.006332282511358949 -0.005473595586386457
677 -0.008126328920977682 0.01158931558887503 -0.025953932918789984
676 -0.003961954524455613 0.006576031706016116 0.0019607360581544372
947 -0.001715832209457824 -0.014406971937030907 0.006101338140459476
678 0.01864839981759301 0.008581117592324146 0.0014131240761749407
1380 0.019790099015228838 -0.0328570910379849 0.009946401747990897
604 -0.009938981789864942 0.0019141704500589803 -0.0019746151833737193
671 0.0033373244877930777 0.014579808257302287 -0.004912540687058486
639 -0.009172412384962093 -0.008394749567388955 -0.012664782662137256
1239 -0.017162930064770484 0.00749638296143348 0.00023754660744840488
26 0.009068302789005103 0.011913701612917866 0.004034583916143808
755 0.005714531397059324 0.004713202191135984 -0.004594320768983029
829 0.00426616700063589 0.0008699976047928847 0.0016139502567843326
831 0.0009649461905853719 -0.004252049481839136 0.007345635622328024
1752 0.0028636553246020385 -0.0032254577637441137 -0.0037000198877167267
350 -0.0033808948336236534 -0.002705519133850946 -0.01460644277294412
441 0.008800640132508239 0.008446523945314692 -0.023741008824572057
887 0.00010925741389015678 -0.006992833492721575 -0.0016830470641025187
1068 0.0051995979216559775 0.018494544327005112 0.0027595060547447197
1067 0.006463239009701797 -0.006444924129764225 -0.001433188573494294
218 -0.017346797577854928 -0.016168494170678553 0.008852894108502188
317 -0.0010641555159191496 0.014884672824159824 0.004433674224617339
219 0.02638315369746838 -0.014930524307257644 -0.03348045614221802
1066 -0.000742581998929597 -0.006082079396897325 0.0038431843077252822
217 -0.0030483612818713647 -0.004590235362512393 0.0005544754512047489
493 -0.00010927298466946864 0.0011498730422488514 -0.008153315691131655
424 -0.006061081652237109 -0.004089538821284961 -0.0015424523302147394
426 0.02684410812692673 -0.03804075245968143 -0.010505063385204197
1751 -0.010185562118272833 -0.012092329252751185 -0.005704387628503357
300 0.013580013670512075 -0.007658337770674591 -0.005038500056110763
425 -0.0035520480925249538 0.004677204228062431 0.03885309790806192
1525 -0.00184397352206077 -0.0029174355618828396 0.0021757256043115924
1526 -0.02081108897930398 0.013331029158076716 0.006957361678136214
1322 -0.008358942702038213 -0.004335941059393256 -0.0034731623938392612
1750 -0.0018734115734302774 -0.0024718302646757517 -0.0033572263407550883
1321 -0.00026761892457526304 -0.005209264155243469 -0.0030860686114770283
1586 0.00020343761212285332 -0.005887836471575826 0.00018940356037089207
276 0.01374630630880216 0.005595940518584859 -0.0030450318243640242
1264 0.0014887566242033868 -0.0010240967016265751 -0.0031392069679442684
316 0.0008896480330707171 0.00018037067751891042 -0.0052312918534696265
1206 -0.005893400168720456 0.012823608202908874 -0.00024635043226111703
601 0.0022600554956734267 0.0033266151800203925 -0.0015570929266803873
495 -0.014103096842442901 0.02103746840320941 -0.01000115025604555
241 -0.0003616996353702617 0.0056439490555369705 0.0060616325566426816
243 -0.0033796824807238793 -0.00038785845133509076 0.007917374813725566
1381 0.002806494050343023 -0.002049050496047451 -0.007950457426637381
592 -0.0004791516209811674 0.002560265093447091 0.002874962420405152
1382 0.0044578816524163374 0.015229390560754657 -0.007618606590952536
1171 -0.0026823848412099206 0.0036207787678557432 -0.006628206988794556
1639 -0.005813364529792201 0.004225620222041849 0.010528990079953216
1271 0.00947273210233484 0.001627703734244699 0.020175197176746474
1383 0.010700807052464376 0.004727114789819309 -0.0008065619663542979
1641 0.001112845801864543 -0.005197883362646349 -0.004481662186354691
1640 -0.02128678532761534 -0.02361896575956208 0.015925327313292343
1227 0.02910392687049189 0.0027992165546686177 0.008765244575093648
682 -0.000403675991783911 -0.0003083284098302391 0.01179191715329759
293 -0.027234312057265786 0.004483419713780137 -0.016487438213040533
734 0.01236991144117094 0.0007071835637563589 -0.0052941591956995855
1011 -0.01775974142997444 0.012629557333961613 0.015354489942170327
1225 0.0025811267926679105 -0.0015186076793360197 9.836646244378155e-05
1226 -0.007036944435851824 -0.012651743224752973 0.003713635010407945
1009 0.00028641873770419394 0.0026929522476170794 0.00034140493338606393
292 -0.0022766422786028276 0.002248036111225148 -0.006038336964744003
1270 -0.0007541941735767034 0.0042349399666717705 0.010772973291348827
1272 -0.017996666413448284 0.00943534669728832 -0.002053969502319464
1266 -0.004239545091537415 -0.0002624994320548513 -0.023763701052216174
812 0.005232371626244578 0.00027528479241412313 0.012001588873054006
813 0.013405573709079459 -0.0010378828635071958 0.006572173483643092
811 0.004665474377581082 -0.0035276691241628473 0.004297913155791099
684 -0.0016581761435881753 0.012486071150673565 0.0026290874960041744
242 -0.00027481864064599364 0.011588483029094506 0.005353518791339989
294 -0.007695111538332347 0.016992575392558575 0.002429233857484894
1010 -0.010140706533908124 -0.006117838757558538 -0.026006767620005408
603 -0.026342100590284145 0.004275767543790136 -0.010633249598054678
886 0.00020995004464996917 -0.001528494153202997 0.008175419545938355
967 0.0013615625894836403 -0.0012811628424439934 0.00028340128068624965
520 -0.004432720163098757 -0.006313745712696525 0.0022655920417233282
521 0.007491066362179932 0.005084990732955576 0.005039253233336713
522 -0.012919659443793736 -0.0052246422797711 0.014548300244229226
594 -0.03588058108123762 0.006788669449490396 -0.0189409346314193
1204 0.0005548466759604718 -0.0003174452173325326 0.004170878860696475
1170 0.0031969867989029297 0.006770386730526798 -0.011248813361635244
1466 0.007075962746671624 0.002074542043542162 0.008526835959107033
892 -0.0030197754952420064 -0.0018408900904925722 0.00044661210707307836
1169 -0.008573947798336238 0.00997172342082572 -0.0038976170126297
76 0.0008225689197324063 -0.002594095481779367 -0.005723892444262683
1205 0.017402175785625563 -0.00879256648023774 -0.0090123350056732
78 -0.009678775713638175 0.01120107316593737 -0.00045019853746267925
418 0.00047249255624941017 -0.00222348274466027 -0.0008511700490644367
1168 0.003655482410264578 0.0039008736160682056 -0.0038317862284057446
221 0.022630235808407166 -0.023542148570862557 -0.021938748913905827
893 0.01572830269101198 0.0032873897080301943 0.00046225032243194626
1465 -0.0011091582002502216 -0.0048603402473032225 -0.0008340930495419923
1467 -0.003629370873090495 -0.008087468811539147 -0.002774423158804924
1240 0.0006395880326668624 0.0008813692557408372 -0.0037476162810554684
208 0.004393259895613782 -0.002593270136143554 -0.0009395612520888245
1241 -0.013453906504255988 0.004607462008985479 -0.009386769221482408
1242 0.007864457572784093 -0.006698770425538737 -0.002953567891736994
210 0.002266703939774534 -0.00026324023429081844 -0.003010954192308016
498 0.0031922447322125795 -0.007860417909524771 -0.003665995108038038
894 -0.013193679032108553 0.021081351100451964 -0.0005405517963300581
220 -0.00036341866410729694 -0.0006895810792357122 0.00015430917775629372
1416 0.03175684877329267 0.02204046237909614 0.0028527295144165775
630 -0.010744600761799694 -0.011781214585978368 -0.0056062464119827895
762 0.004820520788303331 0.01877752492926971 0.00034857220554099135
62 0.006445894984904312 0.001725799125529713 0.006274863692015769
181 0.0009939070224026182 0.003909889890907427 -0.004531297647713311
1075 -0.00010857127478177313 -0.004975291831250324 0.0030309373937526703
145 -0.0002922188425381256 0.002063301727337827 -0.0016698723548996305
1506 -0.003809852685854768 0.006891189894856813 0.002822947859335133
146 -0.007458196552127591 0.006420761462156848 0.0013756373285094036
1378 0.0006103499400204299 0.0006910852070658139 -0.004521546947369809
170 0.0005628869214813459 0.00542009255231214 -0.0019764761161783
147 0.02044379312017384 -0.008742382482023869 -0.006001571476532441
1684 0.0035629100018065036 0.0009540552398614689 0.0028077646719661294
706 0.0003824134336010701 0.004418371853495773 -7.095794352549925e-05
1686 0.01921036568669227 0.019094975472464262 -0.01427382058619667
1339 0.00046707054670206143 0.002079603057772167 -0.00488168645363449
1379 0.0020622403795044555 -0.005034049491133045 -0.017336495446988762
94 -0.0034489977282173147 0.001209876196643226 0.0011076311336060227
990 -0.019199472494216635 -0.025977655278733778 0.008478999761373403
1559 0.0003938600697232612 -0.0013955674956911259 -0.008454549222200482
969 -0.0002915677357519003 -0.004315828681950741 0.000612383886621574
182 -0.00788797793860335 0.01662117748581929 -0.012536840571478797
923 -0.02285453178324629 -0.007796700069392195 -0.003708398246010736
61 0.003725676672222038 0.002881110020243043 -0.006075670564483072
527 -0.0033872222498142956 0.0007636585805353888 -0.00989819398109803
526 0.003371069853869474 0.002604374379961644 -0.0035683073122864044
528 0.0027539570272047194 0.0005341997005207311 -0.005492685167972645
186 0.026353269937509978 -0.006889402713372818 -0.01449354831150637
357 -0.008063313265488625 -0.00857404135414298 0.009187716826602244
96 -0.00265780724982069 0.004341563474790191 -0.01176067945795014
1076 -0.015625048181746037 0.002656275389912772 -0.006493299663869826
629 0.01406374358515418 0.002462541502257052 0.001259210139671859
1077 0.007796617125384716 0.024396375046566266 0.0058639694267273255
838 0.0021185007311347805 0.0031147418845497874 -0.001247221712578563
750 0.00812542494976041 -0.014485178621332516 -0.01088764692906882
1323 -0.005193670337490741 -0.004329413681989166 -0.0033960152998868997
95 -0.005398263193937303 0.017548778698868003 -0.004700623507257829
183 0.003774856846452797 -0.021105737986916236 -0.004002377325576118
1576 0.006603302260027014 -0.0026551386115013435 0.0030498443852471336
1578 0.015104430035325226 0.0007819713429341565 0.008686081035677737
1577 -0.005689303908613009 0.0004138640705729274 -0.010203410271083048
1456 -0.006309089800307555 -0.005417665725409195 -0.00034453488805949315
1069 0.007943072041114068 -0.0030138835686036587 -0.0024944064606919883
1070 -0.004190995397960278 -0.019673035645406487 -0.0020859330281420185
194 0.003169540625180901 -0.01522612434090595 0.01691952287691467
1584 0.009374516353913091 -0.007590549831423402 -0.013590978028266415
262 -0.0013918585627095352 -0.0008671567178112327 -0.010331119448135296
263 0.0028473317916793786 0.01755321876898155 0.000981749926416066
298 0.0017014832446954964 -9.974802308801927e-05 0.001578755345442239
195 0.009548361784161529 0.012458405568960731 -0.007317458545712963
1582 -0.001663510969715925 0.009372150178481508 0.004820735293793964
1458 0.00735703371302195 0.013085015825484015 -0.010467418624454232
1457 0.001262001353581474 -0.008510990360219775 -0.002786758679735439
635 0.004903132623801406 0.016850870513397138 -0.0011762298331055112
193 -0.006412753716229262 0.002121361910206568 0.003933284227842432
299 -0.008686830741671354 -0.010417924935283302 0.022816927362581695
1071 -0.006465184725463152 0.01721808702094767 -0.0137733816805533
439 0.0036133850345533808 0.003999929206505389 0.0032025692429235577
131 -0.0010939235657263392 0.01270345872725188 0.004838535736698792
50 0.011628472512002693 0.01759517720952576 -0.010353428568284521
1505 -0.0033415188342488748 -0.009620054469412137 -0.007860575003529126
1671 -0.03236568516933595 0.009302939426930404 -0.01880325249082142
733 0.007479547427625867 -0.0008909327753861372 0.0003231433292174973
968 0.0031252908954503946 0.000410269001931722 0.0011125411828198752
1126 -0.0012418933782027937 -0.0008771146611677979 -0.002300315464264032
1722 -0.0023287436294353813 -0.012087338962131435 0.008742493849016968
1583 0.006676681760741119 -0.0014667545707108829 -0.00317166872809879
1109 0.013623645575472064 0.005422332312992941 0.0022052700094871633
1683 -0.0010153387385412307 -0.01051408977925022 0.004021942266217468
1682 0.004675018758146201 -0.008683997523367066 0.0003056225697489453
1681 -0.0002181589477597643 -0.011811118524410361 0.0002268626099116872
1128 0.0013451318399663116 0.01063654597639662 -0.0031983323045714903
1127 0.01865655469286254 0.011845690098825664 -0.010058232127971916
944 -0.01171061767858532 0.009365062605921666 -0.017918631957283326
735 0.009717879709847312 -0.0007089323224760954 -0.006044704001664516
945 -0.004476621420731731 -0.016319163645393455 -0.0023003947755577342
943 -0.0010293926036467065 0.0018627968783720074 -0.004273101831377918
754 6.864160801477395e-05 0.006097542444612036 0.002933131882096213
683 -0.005799528062292441 0.016682810994568677 -0.010019557422074202
756 -1.2023363617542333e-05 0.01592888538693837 0.009860648498262745
1531 0.0008754474216436631 0.002943532698501388 -0.0017961846325729
1533 -0.002931618710067819 -0.016241549481713278 0.006044108683484793
266 -0.018277448815504443 0.021163464137776793 0.022294386736321982
1638 0.0019648508340115102 0.0021268624971970043 0.007584378255193634
1358 0.006533750665775768 0.005864396064656565 0.009197847704171265
556 0.002931019986208673 -0.0019616139064988175 -0.003736010251028147
991 0.005520721461398256 0.0014852932351216957 -0.0018863615544224893
1130 0.0009650312380781393 -0.007996476096188634 0.0013041225776539303
1359 -0.012710850984742863 0.0011074264878257454 0.004516248703379391
225 -0.007492107483718538 -0.002524379606572739 -0.02873570611324077
171 -0.0054293074079802646 -0.007715437777758582 -0.006636182128219105
1230 -0.019580194924826873 -0.015154186394108373 0.00503973853467664
1471 0.006661501302576694 0.00371682295205445 0.0006722829429886431
1233 -0.008498370526382089 0.018530321493686903 0.0012904447886903775
1558 -0.0005619955777998978 0.0005355296613174204 -0.009234017659032406
1231 0.001954723107450925 0.005431846470489052 0.002875503632418629
1062 -0.004747061880771619 -0.020166223491685932 -0.002597048469124844
224 0.0005089031026910135 -0.004359882138645092 0.0004933437437445096
223 0.002734954356518701 -0.00017282632000599024 0.001699116250061444
1228 -0.004469903508865846 -0.002961896683989625 -0.001871695134553644
1229 -0.0015640405095401501 0.0036137980600817548 -0.009124813902777886
1232 0.010601343023511687 0.013679924667237059 -0.015463578389884469
1061 -0.008917080549065856 -0.011951047769159328 0.005004459281241296
1799 0.0010849222387527724 0.01545846082946359 0.004408108245332835
82 -0.0010289756840867249 0.0006115044196483013 -0.001664214362085056
1798 0.0026336187880036475 0.009576082016789876 0.0028620663276519185
1060 -0.0015941675318302782 -0.005070760360424783 -0.0014549480872692306
870 0.006999774966629373 0.012924717047164361 0.012933971064457851
868 0.0003799134198464138 0.0016648589314131024 0.00471616885248117
1607 -0.014285059827240201 -0.001250645650603473 0.009025154311528748
405 0.015653661886620946 -0.015395056268847154 0.00835667103426251
869 -0.0012879422360181185 -0.011861539939549965 0.003037607455266821
1800 -0.00766938751656446 -0.008994107776211653 -0.011473111421915011
761 0.020091815163412595 -0.04075944828241305 -0.013005428516207796
264 0.019974483049996876 -0.011869288558652418 -0.01197125518267221
905 -0.0010643515465453555 -0.016921864811242485 -0.000602333491432967
965 0.007132547222694636 -0.005561539837682315 0.002911143555574909
1216 -0.0016509623038344706 0.00286661971327481 -0.0022337854179264884
25 0.00800972300163067 -0.0011714412758722455 -0.0023492000516643547
643 0.00048809910756907596 0.006171107241367469 -0.0064900829352026075
290 -0.006477018262181628 0.0041474697113522765 0.01338375465815626
602 0.021071800354629862 0.01738680674805364 -0.00594989855766338
1081 0.001133443063232495 -0.0045070185975096475 0.0004419217436715274
644 0.006281294072732939 -2.5001547085013634e-05 -0.014498155799904511
904 -0.006607582773538301 -0.00404481658022917 0.004655261362728337
1630 -0.0003184348681138092 -4.62841367457093e-06 0.0013630016427816508
1631 0.006499194890304785 0.005545576722467213 -0.01163070921119149
1632 0.009906411694520594 -0.006789669399230294 -0.017988299023083125
1083 -0.0008541964215042509 0.00027476206329931296 -0.003067707524741467
1668 -0.0006943731347224192 0.004438741724867875 0.0009610026259184932
605 0.0013601950335457391 -0.016400686429247194 -0.008211213231647235
966 -0.004598559692344389 0.00614481697898818 0.011629155929244048
1082 -0.008307751343143403 -0.003001905400772212 -0.008967785042747797
806 0.029517730143287183 0.005621720952696744 -0.0006333293715688925
964 -0.0010084154271582766 -0.001451507761177502 0.0012705802682676794
645 0.006205561815867113 0.017195309089208653 -0.003820362684505006
807 0.010192289558680654 0.0035132105491719142 0.0011033911616182034
1218 -0.002169870478208638 -0.030577053558376702 -0.018733391661901147
805 0.0010703959107478769 -0.006994783176508422 -8.762813445183902e-05
1666 0.004969228172312068 0.0008613202487388538 0.0032318322753107755
1174 -0.002779956712700645 0.002508144133910437 0.001722260014555704
1217 -0.015150370295880884 0.0003379775766558235 -0.021031233985562486
27 -0.0032934976478521593 -0.008787037852034331 -0.02039388056868187
1472 -0.010997199769069906 0.011837321875546737 0.00448030783018252
1041 0.004044365250018936 0.0037799836038387713 -0.0028612673802754945
274 0.005559779145673389 -0.0002858165748292972 -0.0021507475963417014
275 -0.01716693253317021 -0.030081269210803514 0.009250353042848401
1542 -0.002467454353916741 0.0053542723386959135 -0.010316084982582354
1667 -0.0025251842202243277 -0.001582779539635463 0.018105394351625302
422 -0.013992627269546549 0.014113764318918809 0.0003264706093878953
1540 0.00038694405012730813 -0.0017069051112065783 0.0009580116392610024
267 -0.007960324412670715 0.0018862059808138242 0.0012283069992590138
421 -0.002364174782074187 0.0052880176841150145 0.00043609608975185083
1541 0.005373664862009342 0.011030144278547102 -0.01411475487627461
423 -0.0005200008782068309 -0.0013147654302341882 -0.015381982842259587
992 0.019064149306203444 0.006237222281102825 0.0017437248305357815
509 -0.006478882241486755 -0.02342315413994835 -0.003941758528238768
508 -0.0043872392086511955 -0.005708544407093894 0.00023503246635495317
510 0.0039995294768671455 0.003986835581503601 0.014734996761256879
1357 -0.0017939059426696083 -0.0011290916987946775 0.0009887587512104157
432 -0.01911686816010361 0.006941935051318327 0.009330330495397113
1454 -0.03149625715474322 0.005487305230186955 -0.015913169996165537
1018 0.0016529780159843814 -0.005549486797260274 0.0014110670166663374
1019 -0.0072425522246632665 -0.0037902318239634828 -0.008417469685662947
1020 0.013927333692838672 0.00736554112746379 0.015185432102824508
653 0.007456230527821094 -0.004508557026481898 0.014903465282195601
1452 -0.005927888818386862 -0.029901543527591494 -0.02541115888548413
153 -0.010571558346269517 -0.0035104934907835847 -0.0029506654437837206
1000 -0.0007781153571483813 0.0037153707676023918 0.0029373272169670064
430 -0.009069792043891281 0.0018510932140025627 0.0022484217389608105
593 0.0053990518840125075 -0.019799966733490732 -0.010826806524393589
1173 -0.012495461866414833 0.0014593535540261965 0.01018900709987253
1700 -0.019087297006110386 -0.027263404648183814 0.011666468392754762
1523 -7.51777010991012e-06 -0.00449993817496343 0.005146034479735172
1027 -9.534443947342715e-05 -0.0011711459612427498 0.000723287516047232
1512 -0.0007237656874500741 0.0055216382583597266 -0.002866663511442818
1414 -0.002220747493786465 -0.0017244545884566541 0.003994135108963385
1451 0.00015886177436599466 0.020065509485806782 0.00793662612973518
1648 -0.0009729116268756043 -0.002036614800286535 -0.00026550573573328725
1088 -0.008529873622876596 -0.008735193159479461 -0.0007582832879167743
1087 -0.00321976075984194 -0.001197808188192713 -0.0014787514412934757
410 -0.01716381254517941 0.01716457341548776 -0.002683466815060046
1658 -0.00766981275739171 -0.008282995379687 0.011940875848972361
1657 0.00036282969455202094 -0.006372706742248805 0.003161964582507406
722 -0.01144020434360152 0.006156835010759162 0.00044273043515682964
1659 -0.004106312372022367 -0.007707919494328425 0.007663862860436839
690 -0.029881983518828644 0.0032486406385683424 0.012529819744793733
1649 -0.0032248669953983547 0.006822862204896791 -0.008964285820862483
1089 0.008692780187318075 -0.002721667887034614 -0.006284422329325995
1415 -0.015251059317695458 0.008031089429808349 0.0072581681748246875
1450 -0.002765932477050636 -0.0004201887103574112 -0.003845319774029954
1146 0.0019733424828673437 -0.010229238739996744 0.019819985970681703
1144 0.005507248284847016 0.005647563611504427 0.00025378953316175187
1184 0.007462070245192979 0.01299451672326824 0.001392940381242273
1145 0.006967321051789716 0.008199178591679372 -0.00456423891480089
1650 -0.006186159463729604 -0.0021048726387421623 0.0107418781629296
740 -0.013361055047086038 -0.0038196026665554285 -0.005829354508412117
496 -0.003877139961378636 0.0014995241262692948 -0.010981733474137488
721 -0.0015493868525299412 -0.0042633669208704105 0.0027614641093272165
741 0.0031247998867124523 0.0025329894104737776 0.008212405138609182
739 -0.002483956832083743 0.0008886288082086666 0.00225442275392773
497 -0.013254180607345283 0.012713774196272997 -0.013601063287523002
1185 0.01686930190440871 0.023836213584376834 -0.0019172145641144715
1029 -0.0029344454635239882 -0.013387450328196503 0.014071816722718728
169 0.0005721965016912363 -0.0037570089203950194 0.0003497558206280164
209 -0.025370017121194393 0.01018799749037712 -0.0014182082399058235
1115 -0.0019528845701250925 0.007324441469612192 -0.014376931961814292
938 -0.010409112310243962 -0.0036313963768557717 -0.004524304731896085
1114 -0.00530404944855913 0.0038480925348616827 -0.00598376361032582
856 0.00467434668032295 0.0004975045980456048 -0.0027275094450843187
1701 0.018917286844387933 0.033647407999001545 -0.008531674526265121
135 -0.012987843233781143 0.013237117470757375 -0.007373946228552512
1608 -0.015523455930630205 0.0019074081907527569 0.00971003200456476
1004 0.004332270189043052 -0.02491602312261542 0.015714263515183638
1606 -0.00538872938926969 0.003309122177245943 0.0007803988509874378
160 -0.004412149654705215 0.006833644867636572 0.0029463476583660407
637 0.0033211302952475923 0.00046600350947377967 0.006084919234680486
162 -0.0082800320051133 0.018169432988469705 0.014726787176951127
723 0.0027952203188903483 -0.018253441872551776 -0.02472213561929978
638 0.022223263173654653 0.01269910212001555 -0.0034608908535991648
937 0.0021398721275591626 -0.000556184365465955 0.003877261019257114
939 -0.0009411032860613314 -0.0012092190648982175 0.0029203479538969256
788 -0.003145435664495952 -0.012370356975520937 0.006453683186435935
134 0.007762028943965284 -0.014485411114067577 -0.0021995321755184953
133 0.002622810531697997 0.0018384204910919066 -0.008129436093711693
789 0.00032496084041143376 0.019826129388901787 0.0004884686280462148
787 0.00039848435769340354 0.00044667887251754817 0.0033605034256983194
265 -0.0018837245049705144 0.0026818353609349217 0.0007311323263251518
760 0.0055294577071404154 0.0009117184549772952 0.00017655487248698283
130 0.01060467444149757 0.0015909243068086196 -0.0028054335416968046
371 0.017039914749896107 -0.010993923439214204 -0.022464154106004948
1699 -0.0045285362337891275 0.002329960678794558 0.0014276247015152157
277 -0.004047012413856874 0.002599970515788888 0.003768343496836475
654 -0.004327818295081744 -0.020895266742194635 0.005436134465222889
356 -0.020412302248639484 0.0019494683038298317 0.007022621682108802
52 0.003005169517555022 -0.0029573089424358816 -0.005159241497540468
54 -0.0025665227523472517 -0.0008547698339435567 -0.015075735606133853
1335 -0.018811193610060856 -0.031094788534003198 0.011284426184947247
63 0.0013810718877056895 0.002476012044894803 -0.014438018438440305
457 -0.007272485758276803 -0.0021817424343888742 0.0013097843271867447
1333 -0.005096970450598355 -0.0019552691671047514 -0.0026030815613147145
92 -0.002889074739163681 0.016401590810466132 0.023825955768618245
91 0.0036324185231460028 0.004509454101095986 -0.0020849958962930837
852 -0.0008119034265271633 0.013930906168084225 0.01314703880049079
1334 -0.007025891329933266 -0.006190853386397009 -0.0005988360205487739
850 -0.0035404915350404015 -0.0032165677756432038 5.825126190583496e-05
93 0.005068480797846485 0.005681070336065405 -0.016869576892118675
459 -0.002369787611392907 0.005788587536493979 0.010963257893225775
406 0.0003821320744495583 0.0022670634325453287 0.009252548079264372
1536 0.003357073040073322 0.010755092466431655 0.0005131315250995979
1535 -0.006233611976071409 -0.008870195850839617 0.0074577955912883695
1534 0.003478035238746404 0.0039630662907627 -0.00559767782267068
458 -0.013834119074585044 -0.00498490991384285 -0.008971076064468871
53 0.015837884724507048 -0.010771230022355305 0.002556080495640207
922 -0.0034831143253833 -0.002469141194507987 0.0014995679536075391
408 0.0134841599674349 -0.011370049563459593 0.026998436899807812
924 -0.00016444878170965353 -0.014208605097827362 0.011010732111191296
628 0.0008504727474603762 -0.004114704660060523 -0.0016518490190867733
652 0.003768761854060197 -0.010157193406870152 0.0030361522441128054
1360 -0.0053293172649727175 0.0022494564281843325 0.00022619777544514796
1129 0.004134036146068245 -0.0015818301075613066 0.00012306114569116683
1265 0.006946358815100515 -0.010318846630515077 0.0043571406855267706
857 -0.004470802455832824 -0.0033892943535552634 0.008854566207543286
1103 -0.0024480503361821214 0.004195134895262147 0.002952441876161813
1282 -0.0043874773924201214 0.0024200615049696423 0.0009225563935784062
725 0.013539458730345684 -0.01044292181647562 -0.013157295866632052
724 -0.0028669415807044884 -0.001103294993294768 -0.0013170162972223568
1469 0.0036881022609988063 0.0026198948470927737 -0.005990008246481044
557 0.018637301226953694 0.004209812201182067 0.002355010890284589
1470 0.01779758716677661 0.02410567337599899 0.008317330347269681
1431 -0.008995133714008242 0.005426369546733326 -0.008658095501008408
1361 -0.00404140638787071 0.02192099242665918 0.0018713949458982698
1429 -0.004148429382216477 0.0016024666354192043 -0.0022609706411796378
1455 0.006354042371846946 0.0165330054588611 0.010386366117740022
1430 0.011793201051945526 0.011606744093838219 -0.007210047022724988
1417 -0.002303867484160525 3.5846771367513546e-05 -0.0007852902363631437
1468 -0.0019421016632291766 0.0006797452866780232 0.0071557460546757285
431 0.0010527477467804853 0.005003203429802398 0.0009384092827565545
1419 -0.013507987938824987 0.004531238429446925 -0.008522339239162671
1418 -0.01029811211140353 0.001379999947496122 -0.005099399577897336
1453 0.0024140437538838913 -0.00026318096690674934 0.004024727931687125
1585 0.0014950149449344432 -0.005807106019580934 0.004853437046846108
726 -0.0031610796150142117 0.0045790134234231245 0.01282163339298212
749 0.01039682062016694 0.014121916979123298 -0.007609922365172952
1532 0.014123500994053156 0.016625922729832893 0.031726555244298
1421 -0.01143603002000932 -0.004821376653393755 0.01558608508653758
167 0.003735816420060515 -0.0023537972305925415 -0.0003962311823066998
851 0.0018156156032125162 0.009440773193794659 -0.02008535675117772
1311 -0.0020627729380240396 -0.017952317370155197 0.0019168796951985305
1309 0.0014999133724603224 0.0022248783651205137 -0.00019331142513782254
1362 -0.005116057243010973 0.005564811020658767 -0.0038571288231547918
1104 -0.009660177634943128 -0.007674868840129652 -0.012561163455064093
180 0.002938226596107456 -0.0006597478235989725 -0.01827822446011724
178 0.0016696613689335068 -0.0038953047029087902 0.00262165392317266
989 -0.007747357432429744 0.015563302526519187 0.013522597936608463
1504 0.0025074951845265297 0.002387898534958363 -0.0074347340104977434
988 6.325248949917927e-06 -0.00123034501849386 -0.0016455125108359957
1249 0.0064524967556077685 -0.0036131052049318004 0.0027559394995199803
1251 -0.01605624915916072 -0.015760067810906758 -0.001199985643159395
743 0.000588980150110865 0.003399087068614649 -0.02870747785081827
1102 -0.005571354116067394 -0.006019533710382356 0.007300162207222345
1116 0.008330044386510024 -0.006234192764867214 -0.0037367066698609265
1183 -0.0015176251122551042 0.0031303556061177845 0.00444831366555039
742 -0.005343114604905266 -0.003939378739782398 -0.0015329682280793258
179 -0.02425035175814144 -0.0013402575332607067 0.00860676458521012
1250 0.0026835595538367628 0.0046203071460468184 0.011199126352450642
1310 0.013294596373652457 0.007227606690436895 -0.0033807730981653254
166 0.0071477344227059295 -0.0016758296090640557 0.0023280118380237624
168 0.006215038657394192 -0.003587322589907508 0.0051560898958460995
1637 0.006510424483811608 -0.008432449729139275 -0.004287860876060677
839 0.006219930335946903 0.011407634034925273 0.0154244106002498
1420 0.00011946556047775126 -7.617155445367144e-05 -0.001226680635222198
1636 -0.004985386657273241 -0.0017035456760176293 0.005488813065155876
744 -0.0007472206408173911 -0.010089268082664865 0.01577785828352927
1422 -0.0015701454895924933 0.01194026729401578 0.016673008924331604
906 -0.0065586430357933035 4.353314518825241e-06 0.005816514904952701
558 -0.012033338554960072 0.001069951797428259 -0.013840762571355438
407 0.001356422559281989 -0.013215855382886285 -0.007271016628727299
419 0.0026085543273614282 0.012606549485320799 0.020097502051588174
1176 0.0380296122165262 0.014854666660608938 0.003847444559545372
1175 -0.021594318334815937 0.017264906033161845 -0.012982261188512345
278 0.004336533132068839 0.019958773602899424 -0.0031559186056750576
688 0.002533344643026837 0.0019011916392465554 -0.005356250152112255
1039 0.0027023190282610492 0.0013066975799562103 -0.0027020411596028267
1001 0.014028207026490503 -0.007849840463752845 0.004728303536317457
279 -0.014670631068702152 0.01535673802792779 -0.005035453670259178
1476 -0.01516042357264947 0.017556033050007535 -0.013152342705834888
689 0.006839113831425804 0.03725632909919411 -0.022404189952017598
993 0.014272544812100448 -0.0012347695754227732 -0.0014591169458692958
49 -0.00547957624197435 0.0056322490794925234 0.000490938699349998
1720 -0.0030419935574778454 -0.005896447332445357 0.00863939562441592
858 -0.000760384385493794 -0.002009734226818154 0.005882299878675619
176 -0.004202826041644558 0.00692420734440115 0.009518068239009617
888 -0.006451432708421064 -0.004082465242623306 0.0026891398221949507
1340 -0.0015754950907693852 -0.001221472861939979 -0.0019683456947942593
1510 -0.0012235426133430658 -0.0029207268960999553 0.002867668507684307
123 0.007980929763740102 -0.008430530328614688 -0.003951236714911479
1475 0.005762831179879749 -0.008650790923365992 0.004778334641153527
302 -0.00988496969066207 0.009086666665975004 -0.00825371835237674
1409 0.0016750535401521298 0.006411309057694188 0.01104749340397452
1373 0.0012880287520095409 0.015926609396401455 -0.009992126074090231
222 0.010512322455683124 0.0012061891786059136 -0.001631368368380251
1527 0.008584952033336781 -0.004801734221981417 0.004827128455562774
70 -0.004744658911582947 -0.0006425917523938463 0.0034589313783000273
71 0.025899425667662842 -0.003060062752516971 -0.017227336369644408
72 0.012504018908238585 -0.008634985369983823 -0.009500315145896127
785 0.021570667512152353 0.019134215905380336 -0.007286316042230386
1642 -0.003688525161090569 -0.004146084893249287 -0.0008782768261136988
1643 0.0014617304602718385 0.008560268692335376 0.0024104119346566684
1148 -0.0007553951637936852 -0.0033513230418323017 0.008710324604584551
1696 -0.0029941907143096005 0.0002703499050487411 -0.003496270328334767
1644 -0.020814913075983776 -0.007544687137716559 -0.00778600060847815
1147 -0.0035566399334065004 0.00021634214346122536 0.0008002413410112069
784 0.0019439208357236893 0.007642884496164373 -0.00010421753707953756
786 0.013684798107505641 -0.007747855794234075 -0.0012525726907359803
1697 0.024812873928135876 0.01213307393995666 0.020652079336471178
584 0.00036756421055356077 -0.0149928570360252 0.016748352930631906
55 0.005337912522151944 -0.006594396048896337 0.00011939317923963117
175 0.0026381173310043586 0.0003440673959075197 0.0064255848647778975
177 0.01308299718850365 -0.002455197477348509 -0.001453662654456373
57 -0.015131549997169851 0.0010934530483749838 0.001983449506813584
1734 0.025057376133001946 -0.0022234494726285367 0.007685266203181945
363 -0.011090971583530642 0.018409981241514755 -0.014924863757216869
614 0.0035781476055746623 -0.02115396401478135 0.019686460974804035
1149 -0.01645680324219969 -0.0019011946494308216 -0.009632307822322729
827 0.021266028822037056 0.014208187100377762 0.016067419007212144
56 -0.01970737275497237 0.012231135129184414 0.008831364262694803
1698 0.007421521851328213 0.001540757112807758 -0.03686269323662737
588 -0.002598203695339445 -0.0009870015772551785 -0.007109841081835549
862 -0.0017109266850951097 0.0024522764976338076 0.0038714730608479576
1491 -0.009750606321988216 -0.01184029169430367 0.002523079811703359
1316 -0.003803363258688513 -0.005234075274724526 0.00378730417420885
1727 0.0038286969644288583 0.00023530693625773132 -0.009978353026997767
1489 -0.002251677666419667 -0.0051010243537282654 0.004605539606948682
562 -0.0017912352313410296 -0.0022751439018759327 -0.011767561541088593
1726 -0.0009380578470599278 0.004252983072092654 0.0025329230693106057
816 0.00931637566579215 -0.0025959968158610724 -0.021194985395404146
802 -0.0025076667110279526 0.0060106573297831044 0.0008777105985735181
1728 0.003319563690659738 0.004089189655621544 0.020913633147958546
570 -0.023378956221661522 -0.008554292969113352 0.0024803222161195603
1490 -0.008294165060550734 0.006190504080004661 0.008101736581578606
803 -0.017528239378847725 0.008988763272763267 0.007121976093450922
804 0.00838154990176741 0.012510023211531086 0.004361608988725555
475 -0.0006906714873132744 -0.004057682673742971 -0.0025537342495128663
476 0.018287124644392947 0.0027660795302521597 0.004111939466285533
477 -0.007741569758262761 -0.0007077917335081897 0.010319262108253789
1601 -0.009256315681168723 0.005448747492706384 0.006806085818448423
151 0.00015251549684404923 0.004231744651630087 -0.003903569673327533
83 -0.012017804918929169 -0.0022677868893440025 -0.012462834775267845
507 -0.021068536377237632 -0.020220602557939723 0.0014397702558671711
303 0.0032604550122424377 0.0069061956515514365 -0.013597210327027735
607 0.00871651466143915 0.0009588814400766464 -0.0007647805912868878
281 0.0026827467401586485 -0.0004270118282337102 0.004504217713072236
280 -0.0004245953932956825 -0.0019926539268826605 -0.002989477337840374
1155 -0.014151792150456354 0.011580635575130591 0.004304410163914765
1509 0.021851070183872886 -0.004615782790948263 -0.04219928077387357
152 0.005226192587541473 -0.017557185900039053 -0.01005292095301512
1600 -0.008931627038085442 -0.0031380644024558905 0.0001624444012844442
815 -0.008148390030762943 0.029406852502208997 -0.0001541575062362632
571 -0.0002911317938097628 0.004289139591130922 -0.0028976582089679497
573 -0.008468917088526986 0.014005043525446879 0.008459463184340373
572 -0.0148223030229937 -0.02111243334490554 -0.01668517580118167
699 -0.011101995147226379 -0.018231496101891044 -0.0026484335952592446
1371 -0.005100664888961865 -0.0035248936903935894 -0.005144012163517775
445 -0.005029444930742188 0.010406303612806311 0.002595927507802148
446 -0.013048725152701324 -0.0026382279706353247 -0.001436820184906997
447 -0.007394925116487028 0.0021792228163481885 -0.01168538392537324
598 -9.870127004376665e-05 -0.003135610974852681 0.0031537588614206366
1369 -0.001314441766796523 -0.001679259250439157 0.0006942590792115268
600 0.001655605746529867 -0.019920806032831535 -0.0036666445793473485
599 -0.009141968659051338 0.007506116849734061 -0.009682209640192603
1443 0.009435129300852942 0.014092703240715794 -0.012894726294311112
1442 0.013732964943500512 0.011565435969663184 0.030967972859928847
1370 -0.003898554282501996 -0.0030994534252347444 -0.0034017367872515485
1 -0.0023395423166877385 -0.0036958456244272305 -0.0004994426212529708
915 0.009801611456983803 0.008651136303327115 -0.0009937861708119637
453 0.005629010875310236 -0.012051157700451431 -0.003859392847489588
1749 0.011807467163693925 -0.006889469462824477 0.009493203131037882
854 0.006397085211641407 -0.004919107237404228 0.0025099702890132303
515 0.009196766307539348 0.0065027763103865845 0.005445668580038716
1647 0.020264693213260253 -0.011348346613231246 0.02035300298233687
154 0.004639004243324988 -0.0037730990887078976 0.006357412777266265
1028 -0.00843933087706043 0.018560493728401836 -0.01339963322788338
1777 0.0020147072999200937 0.004413300912021986 -0.0014450502977041853
1257 -0.011568005273976346 0.020316323396255616 0.003135369342027689
1779 0.008068946005641777 0.003253279507097116 -0.0044579906245372294
1778 -0.013617196397824063 0.010219642131825423 0.013271429633961445
622 -0.0006890122721989215 0.004484894828692803 0.0024659363463559254
623 0.00020832883619847093 0.010093069106687159 0.0045792903061026005
1654 -0.009454786483161455 0.004070566794005082 0.005854409909685476
1154 -0.024503415332814964 0.004036863718890458 0.01553243298844277
1655 -0.006925276779484886 0.00397668024145613 0.0010618387095014045
1656 -0.0050757897521270835 0.0024538939797771487 -0.0035390152349618516
362 0.006964300469747972 0.005068489222231439 0.005599294648534425
361 0.0005149397628154528 0.008244052693655315 -0.0007074016997933774
1645 -0.00014807176924734854 0.002111390797218407 -0.002573166858880082
1646 -0.000998079030463042 0.002313188321644429 -0.005324342865121686
956 -0.007755775337763763 -0.009319194181594955 0.012403834996706699
1014 0.0034278050841735678 0.01658877650113346 -0.004178137902105211
1002 -0.014576426365644119 -0.008115944598163992 0.0007458866542398623
781 0.0007274550857484979 0.00011484763939380646 -0.0002781329988775154
955 0.00868464190367985 0.001686607436344221 0.007270915105708928
957 0.00039400374600036524 0.00449225555310869 0.01392319035702815
156 0.00536312982529749 -0.01362929833804103 0.010461183944289737
783 0.011084246252721216 0.014154504847793917 -0.0009060168941896323
1255 -0.003689079032328248 0.003340998594662169 -0.0025533587054147587
624 0.00012453654838375896 0.004883368448059674 0.00674427625373272
155 -0.0073529813045743915 0.003146274110774276 0.012548644158313802
534 0.014655201943008993 0.008350903566335246 -0.0011491932736892613
962 0.007267128480839985 0.0041493989234692484 -0.00562198972233839
1156 -0.0018250010975423322 -0.0012018908279919562 -0.0024854276369842797
468 -0.0026381754287139363 -0.013105619239153887 -0.01259264132350985
400 -0.004553250473602375 -0.0009449435001026217 0.0018427702862038224
401 0.01296612479713644 -0.0016354298306512666 0.01947009532907847
325 0.002519947257248919 0.0009376643771091562 0.003240523565004812
670 -0.001249686233909437 -0.0026499198979113505 0.005943522351856573
326 -0.007403528008304973 -0.0022034834368437894 0.006198031851480977
327 0.003927815738911297 -0.009661642715823985 -0.0020278639292907346
402 0.004589116239087753 -0.013198423036805854 -0.022380194975075915
701 0.008762736462646992 0.010097639952544509 -0.004821349917887732
961 -0.0007101261727282017 0.0029058815750137223 -0.0012058897786753461
20 -0.018852754353633788 0.03262189384180747 -0.0021131937874954154
586 -0.001338152958741376 -0.002721230693153923 -0.005874467443588976
343 -0.0038892756586031535 -0.0034443355247862676 -0.002427106459593026
344 -0.020062717983630622 -0.019182954708445006 -0.01564434489782326
345 -0.00013610447628459408 1.9231826561105252e-05 0.00046790448376483787
587 0.005868388343554703 -0.001073467086579741 -0.008989909950835116
1157 -0.0008243217387582891 0.0004692571160208302 -0.004760701291388327
633 -0.003837121506886396 -0.006287421302228416 -0.02035486969429661
631 -0.0004991017418279084 0.0015504611121978716 -0.008185752831793727
963 -0.015799285545172258 0.0033600800532234327 -0.005631844997715564
1158 0.027286667515481616 -0.008965847357934115 0.0008362454032761122
1516 0.003161007431462991 0.0027961700093956307 0.004417603324837869
1689 0.007616347377836228 0.0055694063560151556 0.009701895006198606
1688 0.0009659197517365371 -0.00043571712506644176 0.00015162610648884614
1315 -0.0036643334505221032 -0.0046715622055616135 0.0007212185610694986
778 0.00357930368553552 0.003340274741852915 -0.006787797802649334
1317 -0.00404244557537278 -0.006133036727776928 0.008749769479109357
311 0.005107082017936704 -0.033530853246576 -0.0016109041634832096
138 0.011402791137196062 -0.015596477420929443 0.016827038870269578
142 0.0018974700929575187 -0.0034861838066629408 -0.00133620102018878
821 -0.01761452121753452 0.001057178780226101 -0.01743062798064183
697 0.0008400554894005624 0.0006067746868651044 -0.00020477942392165953
136 0.0018597671076508908 0.005558136728032309 -0.007916610927934373
144 -0.01640593700381232 0.008538651622455252 -0.013901296026358166
828 0.005784809649937117 -0.013431749429527368 0.0002579762166569394
21 0.0002523502836821162 -0.0029793213945760737 -0.003473381902006767
41 0.0013944577223953586 -0.0016729335803014013 -0.005736247901962446
698 0.012946605214762475 0.01040287879703131 -0.0013291018902790404
143 0.00979253174610429 -0.012461392829192557 0.008332000397278508
19 -0.008970362523501621 0.007061804673259138 -0.0025874022326698456
958 -0.0018610167703694582 0.0015866327323722366 0.0003784294478576733
137 -0.02858843259975174 -0.020612401827244997 0.010016578260337331
822 0.005965875161961645 0.005205752070103134 0.01666711481758213
820 -0.002841247921775208 0.0038498706562825366 0.00452108954554933
662 -0.013516249814471542 0.009816239066892229 0.009485279532132383
323 0.003196636302544801 0.002646841882447585 0.009073922104810794
864 -0.0028213994783627076 0.019617075099313493 0.003047521439364119
69 -0.009468540140913074 -0.014764210521076147 -0.0046908271319043085
748 0.005368471965079497 0.007219721479222711 -0.002403325887831669
310 0.0037971225425932537 0.005603538072892567 0.004573739543833025
1449 -6.067561167199227e-05 -0.006611821502838816 0.010652429679452822
1003 -0.006428037842211925 -0.007429430374246725 0.0004722724289835571
840 0.000608105864472676 -0.013185761205532675 -0.007969841115319369
3 -0.010055533308990686 0.005591661461653861 -0.009852857095076798
959 -0.023816742866509005 -0.006813860329927944 -0.020439773335575544
1293 0.013567762390121202 0.013652768908727053 -0.00042768199369295964
516 -0.002437564354463723 0.011854745862338817 -0.015585210718555316
848 0.000473362205769555 0.018001517769608382 -0.0001501897405295161
1439 0.0002522266126398168 0.004041532469539193 0.001423448384152964
1438 0.008558441045477806 0.005137636561347818 0.0010002226381697636
1440 -0.00831467401194013 0.0027049021776468798 0.0020122271285938627
452 0.009924622535029569 -0.000994294612561664 -7.2039193236351e-05
1180 0.0036280827655155922 0.0038640419120631016 -0.013368258295342843
1181 0.02449891031829787 0.029023342935061425 -0.002314373404475873
2 0.01523235263023166 0.0058581300656950375 0.011409570625008983
1246 -0.0036599769810892638 -0.0027231740084078483 0.005085378497916806
1248 -0.0026093802505440396 0.0013482746380979968 -0.00137447954334989
1247 0.017075960228477648 0.008786360585043394 0.0023484305743887005
322 -0.0004754931341543428 0.001702010801811701 0.0034315951320448216
625 -0.0009442463308346274 0.004413043020312104 0.00218905499109819
333 0.0035119459785287036 -0.016337301722838808 0.011414351214525945
1013 -0.014673129125697763 -0.021030387475161037 0.000631381598266939
288 0.016518301442024944 0.0020578049619608724 -0.010752460966503553
1284 0.002099968741682265 0.007269783622279688 0.004537485801602601
324 -0.009454104983036993 0.00015114955133518811 -0.01541305123310046
514 0.0020656195715749726 -0.001352663455403163 0.0003370506363700288
1574 -0.004495754945724464 -0.013495128528367682 0.00014225293480226535
615 -0.004129978276917965 -0.006394763502022275 0.003947758418825518
801 -0.0006615712387016617 0.001097131840469784 -0.003926574420444033
799 -0.005886865027296964 -0.0022527283269435116 0.005500403344252038
1557 0.005762548566360503 0.028408797166289936 0.0018860087915459627
780 0.0018171653854306693 -0.004415549007448234 0.0043716060769065
366 0.01102618287479725 -0.007601874303047968 0.015925610955000145
1517 0.0007022638373163543 0.026986068339422728 0.018938212523321646
505 0.0011613645514364221 -0.00248213943946826 0.0029259181040990597
825 0.0025329995536170994 0.01755124888352747 0.015251651925365544
1297 0.002891317986755985 -0.002170609878709907 -0.0013220716238456281
1299 0.01501627392379063 -0.0018464516142676429 0.02520966155225023
782 0.006341630115609254 0.00199718069485117 0.008917170524304676
1493 -0.01195463061339895 0.011193352316428536 0.014347035422847937
1494 -0.015556892749492955 -0.010885106826504272 -0.02263456084586208
364 0.0007358652607900997 -0.0025758025524488903 -0.0048415467238601744
824 -0.03492217724101531 0.009451748964111592 -0.0028743421198260634
800 -0.006537432188383854 -0.0130028878968679 -0.0002345686703531187
1792 0.0013010194691959439 0.003479491739492202 -0.004757008441893591
823 0.0005928310315072815 -0.008486210490098097 0.001322616005203404
1298 0.024945925993362355 -0.004950385748312289 -0.019334385239062613
1208 0.0011128498313610067 -0.007782798718551178 -0.008940465765934364
1207 -0.00250172690665226 0.00842346240106016 -0.0022288593742575097
1733 -0.005449383192569399 -0.028920152902588005 0.0010389344475091025
287 0.007024009518214204 0.002268822223703138 -0.00408535627492543
1209 -0.0019918997020884456 -0.01578883130040809 -0.013048592990795662
286 0.009793767834799428 -0.0008996341044302252 -0.0027559259283532734
1492 -0.0023275615677085405 0.0038449135434429084 0.0018012213805957055
301 -0.0012312100226939114 0.008274602630431008 -0.006370190367935606
1793 0.006344057806795652 7.128288001398381e-06 -0.023309674082695308
578 -0.004336097851416771 -0.0038453005398152297 0.005242288012310699
774 -0.01411074367076757 0.025922683881747826 0.00811746265076112
1447 0.0005958197704564898 0.0010924986080348945 0.0015882746385403317
1320 -0.001192179707823053 -0.025500342585065828 -0.008838990439771793
1318 -0.004070993756574547 -0.0018336025242295523 -3.856484907119321e-05
1313 0.011887393961431063 0.005625096909237414 -0.003124727762397187
1319 -0.012019244305921483 -0.007639324311036938 0.00023608569769375097
1312 -0.0004977153291704245 0.0023762900541600593 -0.0009113130885516643
863 -0.0025721433568490983 0.007000896646420225 3.4679703617367825e-05
1131 0.018711154514518064 0.02047206696746296 -0.024273879104048882
577 -0.001877231246561968 -0.0032830047653509406 -0.0017103139717676078
1364 0.0027824161543619002 -0.032731723758818804 -0.005407950300618214
1363 0.0019932017103044884 -0.006538757228981669 -0.0026083448628740125
772 -0.0020523191952357012 -0.0062048387498523285 -0.002022059140489257
106 -0.002377299726429707 -0.003921838862193019 0.0009948983501403231
107 0.007678008977685016 0.002836977648698319 0.004928010490201057
108 -0.00761651541810444 -0.02282426211654494 -0.007641697356960695
1314 -0.0016722678351174555 0.011536711442003716 0.007443542012354152
1365 0.005739932693201555 -0.004981677408814617 0.005132444409076972
847 0.0015061841209373544 -0.003015920664781092 0.0012816376626221505
504 0.012741389111238899 0.018490724627533744 -0.006236697005960807
502 -0.0028528651026988967 -0.0025938897533692423 0.005285789344319374
503 0.011117867819209972 -0.015885014879267925 0.004068184409540143
608 0.00502871065432515 -0.01022051390178863 0.0029052830339098205
579 -0.0035619094192696522 -0.004561073945553424 0.016932356398413374
561 -0.006796340613842051 0.0035085779107369404 0.0052206150848664165
390 0.0008435399132450385 0.0002982485629327168 0.008331201553290316
960 0.0019271574941010004 0.005919863694495759 0.003043713927600071
559 -0.00015594092866798255 -0.0026675212455738663 -0.007352825585964794
560 0.004609420171807351 -0.008176808049854436 -0.008571341711416661
814 -0.002597304931294908 0.0009693726288186905 0.0034057193411573304
979 0.001649984949771836 -0.0016456685367492378 0.0012437653875198842
981 0.0013395424169789678 -0.0003144364923031733 -0.00845000506877062
1190 -0.004580306858334194 0.001518620255052512 -0.008885491636221017
122 -0.003073229901614732 -0.012972738286764578 -0.005068334718609703
873 0.009186395420798011 0.021026309105597534 -0.003776859246772774
872 -0.01690336977031167 -0.012898211357787806 0.020794997764263176
980 -0.0013228994157897674 -0.011642702783345926 0.0011494282291772623
871 -0.000977134524526444 0.0044694557430294555 0.002834182060553923
758 0.005377430044855421 0.007506775307948936 -0.019895045092345787
910 0.0034661616399571807 0.007772354780472249 -0.0016058067173055266
759 -0.005489209460499628 -0.019556982138602557 -0.002231126252104388
912 0.0141844695258884 0.01746562926068199 -0.014861873422476093
757 -0.0028417717388053375 -0.00794116699623396 -0.0010992790197186695
1602 -0.02330350857768041 -0.0030027148921574873 -2.030275483041121e-05
121 -0.003504879532401562 -0.003884671541437647 -0.0017849362426207028
791 -0.006188824658832383 0.011012963903694448 -0.008528304731636458
564 -0.015815946886607857 0.013601354976676168 0.00637022821561111
1189 0.0028281210714367587 -0.005163229022863852 -0.005555809153025884
1191 0.004434637375263952 0.0066604262378425864 -0.01712912687536989
1110 0.008809304841651778 0.016866986475072187 -0.011526481214488063
627 0.015937661644962683 0.02517702707384098 0.000922044092320189
112 -0.006816451967090248 -0.0016629822511725315 0.002469273113133622
114 -0.02784945662324702 -0.011786771000088769 0.004097741690117352
113 0.014635373146254524 -0.010785569129833602 -0.00399379118939937
790 -0.008689644598012478 0.006800388606506244 -0.005186179514117554
1005 0.022137063519832884 0.002442239469434886 0.005393758878585388
746 -0.00016401466844934444 0.017373178175044465 0.008817908243387273
1441 0.004518305542994451 0.0005775159869805686 0.0015088538172404512
1529 0.02701077553935382 0.00012021206222177616 -0.004766081429275223
1401 -0.00998524678618445 -0.0058356238096450765 -0.01066681608681613
1400 -0.0068463841028121525 -0.005906354164073399 0.003697697835359403
532 0.0032489318133768637 -0.003371020938338879 -0.006099986270531874
569 -0.005761841234113358 -0.006965180176009644 -0.010409430087523671
332 0.007436419281072619 0.012403515859489478 0.005434380110863458
404 0.0029252567369520005 0.002850098784240163 -0.013333697741225652
1746 0.0018253226762432592 -0.008892600298907077 -0.005989995038827605
745 0.003153836219605579 0.007666977907281263 0.003239521868426324
566 0.0020623031992852247 0.010587479531393329 -0.00985997766895416
1399 -0.0006854620613876717 -0.005812137547100702 9.490202370659906e-05
565 -0.0049196137865113706 0.0019302433691792186 -0.0001294414524282591
1711 0.0070539700544566385 -0.003199626659252061 0.0052865763560426575
1712 -0.01052312031838569 -0.020140679897624112 0.003839337878125982
1713 0.011202063707073055 0.006304930801405574 0.005085142392106731
1758 -0.0034605373499975024 0.0003893832766961052 -0.0013335617480936496
747 -0.005995864501284333 0.011413706524779504 -0.005068996298754846
1757 0.005683683755481425 0.0013008548563152576 0.0048120358007815766
773 -0.008944606105519289 -0.0050278179073864416 -0.0005823311076050023
1511 -0.006683519401144938 0.013619910317939056 0.0008490729232711495
1528 0.004218855608643009 -0.0048142018004963295 0.003683499025116224
595 -0.00502498883566776 0.0004402829524252871 -0.0037256509116678294
596 -0.0034848692361275154 0.013138875357650324 -0.007868943260041663
1530 -0.0048518832887727075 -0.007884946831269739 -0.0017454804166488654
1291 -0.0033719385032997553 0.0009032244904365814 0.0010144045949935455
849 -0.0024926525376821845 -0.04516237663716144 0.017521462616967232
1502 0.00041315292574809983 -0.00029165724555639425 0.005309913239331318
351 -0.001297078077492029 0.005818215824121289 0.003583038446104795
770 0.001381945241691127 0.0031800743837504166 -0.0017333120319939748
769 0.0048014394500746896 0.003936459926032494 0.0012712392014954516
1377 0.009334238911400502 0.0035873687638143244 -0.02627481556865921
1740 -0.022199391743487114 -0.006868176776839299 0.027190269694349737
1376 -0.00844557106977589 -0.004261355309408993 0.01309208900659228
1012 -0.0017177085746359526 0.002479964312379959 -0.0018628969531679313
1739 -0.0008497830150747905 0.0018027236152915445 0.0027273378114964753
1201 0.001482549751726049 -0.004235696852504201 0.0016896550194893964
1738 3.912216178085391e-05 0.000837207625211203 0.0008823960078001605
1375 -0.0023116998702355906 -0.001089356105271288 0.006362411141833279
771 -0.005600074898070492 -0.019897387087177944 0.01357368184386156
1591 -0.005881034627599362 -0.003084054108340348 -0.005860812606047889
1592 -0.006001849474508862 0.009375066590158162 -0.0025791026071857715
1256 -0.0006275450000893677 -0.01654507348644703 0.014752928825842875
928 0.0008335939466162362 5.287006212595088e-05 -0.006258396518509056
597 0.0012820986238098477 -0.0006150190209407685 0.0076489637297147
1508 0.013339752501615624 -0.0018957969416818557 -0.01258413987569966
930 -0.0031695409186540176 -0.0010006771798205466 -0.004061460416514084
929 -0.0009521488128892486 -0.011140289398200448 -0.015378945015872681
1507 0.0035054377441685884 -0.0005780369819416696 0.00018694845168527532
533 0.007712930231383091 0.003310073935181278 -0.004035256793939748
1732 0.004013070296267282 -0.005594067928141652 -0.0006902152824159411
1397 0.011980095833877241 0.00096272021465642 0.024577951717422147
1172 0.016303246267110237 0.0015922109717908094 -0.0045645873449580415
1211 0.017073670274538585 -0.03770323257389413 0.015021492445461486
1687 0.0034347163818545267 0.00822326788874944 0.0031904279674759752
1398 -0.020084036950060374 0.0027882470470051083 0.00607938502166278
1396 -0.0020485637991533067 -0.003459273663007746 -0.006967997247706537
1306 0.0032972051509660297 0.002555711921722739 -0.010142709296464067
448 -0.001800473171560687 -7.031433230227531e-05 -0.0044849838601148445
450 -0.0029250808280968468 -0.013583231340708064 -0.010656887787786033
449 -0.00010445711572208043 -0.01184346194491518 -0.013524255967695588
1488 -0.004795027531714463 -0.009376788498138645 0.010373285842835022
1234 0.0023146855422557966 -0.0004138062151991748 -0.001410561064890242
1235 -0.006256147586638445 0.018248920308802742 0.0014972540035319288
1212 -0.008537700186919654 0.023368935187507423 -0.002055672815721878
1095 0.014929637534407804 0.020791526379570092 0.023048095356289957
1093 -0.0006946492377632515 -0.002563482885818487 -0.005405280727824355
1094 0.013292154931772377 -0.02200484285513856 -0.03650752460349439
1767 -0.0014337424453387886 -0.013817126772236782 0.012527550575474488
1765 -0.0054943176106118765 -0.003433541095663616 -0.002029874879914114
1766 -0.0033942468595188065 0.006239725192373126 -0.013488338634952846
1236 0.004734694027956054 1.9535132958776454e-05 -0.010433096656121101
1355 0.004666631216022667 0.006699882576394302 0.030195502533983554
1486 -0.0066017186379065985 0.002977180355561377 -0.0003398367923357642
320 0.005128784790570442 -0.015365483263149191 0.0005193369880483773
319 -0.00046538565030523725 -0.0010350160455477563 -0.0007626606490010798
1307 0.027497449384639848 -0.0004035595368522588 -0.008152955068242814
1487 -0.00900950518538559 0.01264501693265572 -0.00898806887014657
1356 -0.007799722254353382 -0.0038325895757377955 0.013811677633127595
1210 -0.001976462586293343 0.006479576666074508 0.002051726919788602
1354 -0.0038524897045341946 -0.001214787577510189 0.0011238024716231656
353 -0.011926621535057596 0.0028554130585243045 -0.0077284779390625466
1518 -0.005530863008216065 0.025260145322337176 0.0006386712096886983
732 -0.007420752959092787 0.018009338745945885 0.005078082473845694
1295 0.003242920880270264 -0.0037762803361209647 -0.00871865269332288
321 0.0011906484846636264 0.002496293283914254 -0.013640565993789546
1108 -0.0034825289167615407 0.0020652102951242337 -0.002362665512065325
87 0.00015513841480480043 -0.013634060862289122 -0.006506634213507271
777 -0.0009680102280789022 -0.010083268168063354 -0.003774718961754719
775 0.004128248286036258 0.00019718681338857415 -0.00024856815140274116
695 -0.010447349432175334 0.029937327359521183 -0.02794957970304081
702 -0.03349788894332769 -0.006982124717793191 -0.016567808067712398
1747 0.003644682275372206 -0.0032201188141306038 0.0015160559606614823
977 0.00665388691700698 -0.0027795355370735264 0.011611716074780285
385 0.005340655904028978 -0.0031583721798536506 0.0015337576312811781
312 0.012310723886422603 -0.008048931687970154 0.000825779245570841
386 0.014007285767928925 0.004316416297406151 -0.010947539021187882
668 -0.0009634204120232858 0.003149456234778566 0.003829129887413772
694 0.0020447003596161984 0.0028625487252893402 0.00033677536197921937
667 0.002113752942423796 0.002919930617505988 0.0016087871708724529
669 -0.014506415206588495 -0.004224757344452596 0.000735517325086206
696 -0.02596755351542766 -0.003320763177227138 0.01716891870369075
792 -0.01284653804132484 -0.001545209304925163 -0.0008748069345432595
730 -0.0027753812184031887 -0.0013335969093296472 -0.006094358548489902
387 0.008312487095488917 -0.0037781500317137584 0.015212882681292046
776 -0.013078434191143636 -0.009458978009808635 -0.023499449376843257
731 0.005415037806733869 0.014226687023044611 -0.02818903934001037
506 0.022307403778254527 0.0077982287558234055 -0.009710194051864084
978 0.0126381624210555 0.012145992824884419 -0.007031707415923318
85 -0.0011267490011541855 -0.0019890292646012214 0.0029349353121112076
976 0.006731715704967833 -0.0027211429050634584 0.008178596559823713
51 -0.006744504123576806 -0.013244837897788641 -0.0096614606063088
86 0.012729213559634349 0.0014979813392940677 0.00939777636444937
198 0.0026290399558316336 -0.024000697827105923 0.00494987238797765
1294 0.0005223013382155644 0.0018411092614745688 0.008282467108390349
1744 0.0014189349283972572 -0.00044839727202094685 -0.001635720526335487
1107 -0.00232862729431369 -0.007809864991734745 0.0036377292033119594
613 -0.006725172287492851 -0.0034110307469875046 -8.310401108849921e-05
1182 0.004998973021552424 -0.006614905446380112 -0.0033397026081668723
196 0.001856712963917445 0.007145012610160674 -0.0004915751258658536
567 0.004945076761950541 0.017415699673306632 -0.006009084212259907
626 -0.01320962453629005 0.006368126315127051 -0.010991467197934306
909 -0.0019894942617552916 -0.0009941438616098879 0.012077326180870433
1556 -0.005650448531829603 -0.02594299432038083 0.0050611483018581085
1555 -0.00482801149788627 -0.0009279154747695723 0.000782232552317622
908 0.003957806502054306 0.01739396496223495 0.002259855814313368
914 0.009694812105527311 -0.01718571136890342 0.007420100172043275
907 0.0007852801005784209 0.004959880441200794 0.007041549185780867
649 0.0049978994212324 0.0011793942667601453 -0.005655595545528688
1745 -0.003954574354488613 0.015327168798913065 -0.0031109460843610237
1537 -0.0003558610329407779 0.004790882303759443 0.0007537707059206153
466 -0.0019221734171250278 0.006603562242536143 -0.0029619326044457344
1539 -0.006612666679500135 -0.0016008901833300133 -0.005588731805410975
1756 -0.004860511618733057 0.0011609996124127343 -0.002292580913392242
753 -0.002578097023215639 -0.004851806392387605 -0.003770437136314259
751 -0.0017356416619919402 -0.007531225984999753 -0.0037675492556755457
752 -0.002706432851286113 -0.009515545469167963 -0.005042395701990005
895 -0.0018759659540201453 -0.0023018600173715462 0.0023901092930572847
896 0.015286610954510041 -0.01302508295364776 -0.004898431368432801
1538 -0.011055265206678792 -0.0016895591900214135 0.006781959700292581
1049 0.008211395444200308 0.007234962059227642 0.0027224748079373133
897 -0.009993806838771057 0.0201961740641164 0.008050685249408157
1153 0.0009588426586982792 -0.0038988793030934068 -0.00017843109730123318
1048 -0.0016939865088944916 0.002643156530911685 0.003112220016436072
1105 -0.0028032287164199443 -0.003955894848253065 -0.005787570438165386
1050 0.0031918043860332296 0.007800882658806122 0.01085784192635818
197 0.005140043243458119 -0.014283208051297078 -0.006763073735374536
1106 -0.007614684445192664 -0.008502403170551124 -0.010886206041399478
282 -0.0022094352344652676 -0.011270073547932597 0.0011009571879342127
1292 0.0036881345122109473 -0.01568498695749109 0.00566590829738275
352 -0.0030208143353702465 -0.0004348186224563098 -0.002568661525916443
354 0.009174971622609036 -0.012106894862879478 0.00721872335395419
911 -0.00896914143277854 0.012112115408766696 -0.006672668655923704
583 -0.0020235401074050053 -0.006515482392878588 0.0018456441055134498
826 0.0078840770851942 -0.006854246639218278 0.0018881033606153199
365 -0.007051023152637435 0.012687083023485656 -0.016997712532497464
913 0.0019439350482501239 -0.007988785223809523 -0.006363289996551441
1794 0.013026493878679598 0.005414303940316063 0.004488478454189882
467 0.014172471354776481 1.090120981770983e-05 -0.009387634456653492
650 0.008834076335703529 0.009390430964825718 -0.008293497733748954
1748 0.009926483638137631 0.004215880309119145 0.005238709115662325
451 0.002826774330266834 -0.00469159525965363 0.004899947274291596
568 -0.0005542484609303308 0.006271269063608355 0.0011386007331126216
707 -0.002219708848378114 -0.010853651079865282 0.005188039977763566
403 0.00627041408716289 0.0002441247523527715 -0.002825429753444798
1203 0.008379709465824626 -0.0027603639604446054 -0.0036460236065750267
1202 0.004783872168089608 0.013446256526688398 0.008441432482425001
1560 -0.0008525302821528622 -0.0041077083103841835 0.0002966651567714554
651 0.0024871744623543323 -0.0027462636724553628 -0.018901571768434947
1296 -0.0006702559644016434 0.0022944608368638407 0.014481299449325084
331 0.005943140759496768 0.0014857969602312829 0.007966933667328835
632 0.01750706257909456 0.0020873044940518557 0.004266927455955314
1593 -0.004872660409821147 0.010677865243864612 -0.0016136129154143424
349 0.0009595298777249977 0.0024720016141303014 -0.0007929176252542453
1473 -0.0030207563037431768 -0.025120968269237192 -0.011641220864021591
636 -0.011272937326563499 0.004218889913375305 0.014145642420269852
1374 -0.0028323769712322454 0.002152318982209046 0.00898513082838282
1100 0.01478412634329734 -0.0010538411117992144 -0.0028709409399694384
585 0.008261026084385703 -0.0003956348012470628 -0.013474262925957332
84 -0.007997897687089714 -0.013776375578337248 0.016229266107477575

Bonds

1 1 1495 1496
2 1 1495 1497
3 1 271 272
4 1 271 273
5 1 859 860
6 1 859 861
7 1 1030 1031
8 1 1030 1032
9 1 307 308
10 1 307 309
11 1 415 416
12 1 415 417
13 1 1480 1481
14 1 1480 1482
15 1 1348 1349
16 1 1348 1350
17 1 289 290
18 1 289 291
19 1 1390 1391
20 1 1390 1392
21 1 1135 1136
22 1 1135 1137
23 1 376 377
24 1 376 378
25 1 1405 1406
26 1 1405 1407
27 1 655 656
28 1 655 657
29 1 442 443
30 1 442 444
31 1 1603 1604
32 1 1603 1605
33 1 817 818
34 1 817 819
35 1 346 347
36 1 346 348
37 1 1483 1484
38 1 1483 1485
39 1 1303 1304
40 1 1303 1305
41 1 1705 1706
42 1 1705 1707
43 1 511 512
44 1 511 513
45 1 1762 1763
46 1 1762 1764
47 1 691 692
48 1 691 693
49 1 1195 1196
50 1 1195 1197
51 1 766 767
52 1 766 768
53 1 16 17
54 1 16 18
55 1 550 551
56 1 550 552
57 1 538 539
58 1 538 540
59 1 1324 1325
60 1 1324 1326
61 1 1522 1523
62 1 1522 1524
63 1 574 575
64 1 574 576
65 1 1633 1634
66 1 1633 1635
67 1 1678 1679
68 1 1678 1680
69 1 370 371
70 1 370 372
71 1 163 164
72 1 163 165
73 1 1327 1328
74 1 1327 1329
75 1 1285 1286
76 1 1285 1287
77 1 235 236
78 1 235 237
79 1 1774 1775
80 1 1774 1776
81 1 634 635
82 1 634 636
83 1 232 233
84 1 232 234
85 1 1723 1724
86 1 1723 1725
87 1 727 728
88 1 727 729
89 1 1036 1037
90 1 1036 1038
91 1 619 620
92 1 619 621
93 1 1627 1628
94 1 1627 1629
95 1 313 314
96 1 313 315
97 1 1669 1670
98 1 1669 1671
99 1 1612 1613
100 1 1612 1614
101 1 883 884
102 1 883 885
103 1 1618 1619
104 1 1618 1620
105 1 889 890
106 1 889 891
107 1 1519 1520
108 1 1519 1521
109 1 355 356
110 1 355 357
111 1 1042 1043
112 1 1042 1044
113 1 1561 1562
114 1 1561 1563
115 1 484 485
116 1 484 486
117 1 1300 1301
118 1 1300 1302
119 1 1213 1214
120 1 1213 1215
121 1 1543 1544
122 1 1543 1545
123 1 139 140
124 1 139 141
125 1 1186 1187
126 1 1186 1188
127 1 877 878
128 1 877 879
129 1 1693 1694
130 1 1693 1695
131 1 115 116
132 1 115 117
133 1 100 101
134 1 100 102
135 1 226 227
136 1 226 228
137 1 1198 1199
138 1 1198 1200
139 1 1279 1280
140 1 1279 1281
141 1 373 374
142 1 373 375
143 1 1672 1673
144 1 1672 1674
145 1 898 899
146 1 898 900
147 1 1393 1394
148 1 1393 1395
149 1 715 716
150 1 715 717
151 1 1276 1277
152 1 1276 1278
153 1 238 239
154 1 238 240
155 1 1498 1499
156 1 1498 1500
157 1 490 491
158 1 490 492
159 1 4 5
160 1 4 6
161 1 970 971
162 1 970 972
163 1 1651 1652
164 1 1651 1653
165 1 409 410
166 1 409 411
167 1 103 104
168 1 103 105
169 1 610 611
170 1 610 612
171 1 1243 1244
172 1 1243 1245
173 1 1432 1433
174 1 1432 1434
175 1 523 524
176 1 523 525
177 1 1786 1787
178 1 1786 1788
179 1 1033 1034
180 1 1033 1035
181 1 1096 1097
182 1 1096 1098
183 1 1054 1055
184 1 1054 1056
185 1 679 680
186 1 679 681
187 1 1609 1610
188 1 1609 1611
189 1 337 338
190 1 337 339
191 1 1351 1352
192 1 1351 1353
193 1 1123 1124
194 1 1123 1125
195 1 1564 1565
196 1 1564 1566
197 1 916 917
198 1 916 918
199 1 1141 1142
200 1 1141 1143
201 1 547 548
202 1 547 549
203 1 1549 1550
204 1 1549 1551
205 1 469 470
206 1 469 471
207 1 184 185
208 1 184 186
209 1 1426 1427
210 1 1426 1428
211 1 64 65
212 1 64 66
213 1 1408 1409
214 1 1408 1410
215 1 382 383
216 1 382 384
217 1 685 686
218 1 685 687
219 1 1057 1058
220 1 1057 1059
221 1 1444 1445
222 1 1444 1446
223 1 952 953
224 1 952 954
225 1 34 35
226 1 34 36
227 1 1192 1193
228 1 1192 1194
229 1 934 935
230 1 934 936
231 1 985 986
232 1 985 987
233 1 646 647
234 1 646 648
235 1 10 11
236 1 10 12
237 1 865 866
238 1 865 867
239 1 1795 1796
240 1 1795 1797
241 1 640 641
242 1 640 642
243 1 1063 1064
244 1 1063 1065
245 1 1741 1742
246 1 1741 1743
247 1 481 482
248 1 481 483
249 1 1552 1553
250 1 1552 1554
251 1 244 245
252 1 244 246
253 1 1288 1289
254 1 1288 1290
255 1 1132 1133
256 1 1132 1134
257 1 1474 1475
258 1 1474 1476
259 1 148 149
260 1 148 150
261 1 1660 1661
262 1 1660 1662
263 1 541 542
264 1 541 543
265 1 1675 1676
266 1 1675 1677
267 1 88 89
268 1 88 90
269 1 1336 1337
270 1 1336 1338
271 1 211 212
272 1 211 213
273 1 535 536
274 1 535 537
275 1 580 581
276 1 580 582
277 1 1546 1547
278 1 1546 1548
279 1 763 764
280 1 763 765
281 1 436 437
282 1 436 438
283 1 874 875
284 1 874 876
285 1 553 554
286 1 553 555
287 1 1120 1121
288 1 1120 1122
289 1 1423 1424
290 1 1423 1425
291 1 1219 1220
292 1 1219 1221
293 1 1021 1022
294 1 1021 1023
295 1 379 380
296 1 379 381
297 1 1594 1595
298 1 1594 1596
299 1 256 257
300 1 256 258
301 1 229 230
302 1 229 231
303 1 427 428
304 1 427 429
305 1 478 479
306 1 478 480
307 1 13 14
308 1 13 15
309 1 1621 1622
310 1 1621 1623
311 1 412 413
312 1 412 414
313 1 841 842
314 1 841 843
315 1 853 854
316 1 853 855
317 1 463 464
318 1 463 465
319 1 919 920
320 1 919 921
321 1 499 500
322 1 499 501
323 1 397 398
324 1 397 399
325 1 58 59
326 1 58 60
327 1 1759 1760
328 1 1759 1761
329 1 37 38
330 1 37 39
331 1 1768 1769
332 1 1768 1770
333 1 1477 1478
334 1 1477 1479
335 1 793 794
336 1 793 795
337 1 1579 1580
338 1 1579 1581
339 1 1702 1703
340 1 1702 1704
341 1 127 128
342 1 127 129
343 1 844 845
344 1 844 846
345 1 1006 1007
346 1 1006 1008
347 1 259 260
348 1 259 261
349 1 97 98
350 1 97 99
351 1 808 809
352 1 808 810
353 1 973 974
354 1 973 975
355 1 703 704
356 1 703 705
357 1 796 797
358 1 796 798
359 1 1597 1598
360 1 1597 1599
361 1 997 998
362 1 997 999
363 1 1138 1139
364 1 1138 1140
365 1 712 713
366 1 712 714
367 1 1573 1574
368 1 1573 1575
369 1 1570 1571
370 1 1570 1572
371 1 1090 1091
372 1 1090 1092
373 1 1045 1046
374 1 1045 1047
375 1 880 881
376 1 880 882
377 1 832 833
378 1 832 834
379 1 1024 1025
380 1 1024 1026
381 1 1462 1463
382 1 1462 1464
383 1 1501 1502
384 1 1501 1503
385 1 472 473
386 1 472 474
387 1 1690 1691
388 1 1690 1692
389 1 7 8
390 1 7 9
391 1 940 941
392 1 940 942
393 1 1789 1790
394 1 1789 1791
395 1 1663 1664
396 1 1663 1665
397 1 1252 1253
398 1 1252 1254
399 1 1753 1754
400 1 1753 1755
401 1 1735 1736
402 1 1735 1737
403 1 46 47
404 1 46 48
405 1 157 158
406 1 157 159
407 1 718 719
408 1 718 720
409 1 1387 1388
410 1 1387 1389
411 1 358 359
412 1 358 360
413 1 253 254
414 1 253 255
415 1 205 206
416 1 205 207
417 1 1771 1772
418 1 1771 1773
419 1 202 203
420 1 202 204
421 1 460 461
422 1 460 462
423 1 268 269
424 1 268 270
425 1 67 68
426 1 67 69
427 1 109 110
428 1 109 111
429 1 1345 1346
430 1 1345 1347
431 1 736 737
432 1 736 738
433 1 28 29
434 1 28 30
435 1 1459 1460
436 1 1459 1461
437 1 529 530
438 1 529 531
439 1 394 395
440 1 394 396
441 1 304 305
442 1 304 306
443 1 328 329
444 1 328 330
445 1 1342 1343
446 1 1342 1344
447 1 994 995
448 1 994 996
449 1 1051 1052
450 1 1051 1053
451 1 124 125
452 1 124 126
453 1 709 710
454 1 709 711
455 1 187 188
456 1 187 189
457 1 1615 1616
458 1 1615 1617
459 1 1150 1151
460 1 1150 1152
461 1 340 341
462 1 340 342
463 1 487 488
464 1 487 489
465 1 931 932
466 1 931 933
467 1 1708 1709
468 1 1708 1710
469 1 835 836
470 1 835 837
471 1 1015 1016
472 1 1015 1017
473 1 925 926
474 1 925 927
475 1 1714 1715
476 1 1714 1716
477 1 1162 1163
478 1 1162 1164
479 1 1717 1718
480 1 1717 1719
481 1 73 74
482 1 73 75
483 1 1258 1259
484 1 1258 1260
485 1 673 674
486 1 673 675
487 1 982 983
488 1 982 984
489 1 172 173
490 1 172 174
491 1 1267 1268
492 1 1267 1269
493 1 544 545
494 1 544 546
495 1 22 23
496 1 22 24
497 1 391 392
498 1 391 393
499 1 334 335
500 1 334 336
501 1 949 950
502 1 949 951
503 1 616 617
504 1 616 618
505 1 661 662
506 1 661 663
507 1 1117 1118
508 1 1117 1119
509 1 1273 1274
510 1 1273 1275
511 1 283 284
512 1 283 285
513 1 1222 1223
514 1 1222 1224
515 1 79 80
516 1 79 81
517 1 1435 1436
518 1 1435 1437
519 1 199 200
520 1 199 201
521 1 1729 1730
522 1 1729 1731
523 1 1111 1112
524 1 1111 1113
525 1 1330 1331
526 1 1330 1332
527 1 367 368
528 1 367 369
529 1 1165 1166
530 1 1165 1167
531 1 250 251
532 1 250 252
533 1 1411 1412
534 1 1411 1413
535 1 1159 1160
536 1 1159 1161
537 1 1780 1781
538 1 1780 1782
539 1 1084 1085
540 1 1084 1086
541 1 190 191
542 1 190 192
543 1 1261 1262
544 1 1261 1263
545 1 1366 1367
546 1 1366 1368
547 1 454 455
548 1 454 456
549 1 1099 1100
550 1 1099 1101
551 1 214 215
552 1 214 216
553 1 1624 1625
554 1 1624 1626
555 1 247 248
556 1 247 249
557 1 1513 1514
558 1 1513 1515
559 1 1783 1784
560 1 1783 1785
561 1 1072 1073
562 1 1072 1074
563 1 118 119
564 1 118 120
565 1 517 518
566 1 517 519
567 1 1402 1403
568 1 1402 1404
569 1 1078 1079
570 1 1078 1080
571 1 43 44
572 1 43 45
573 1 433 434
574 1 433 435
575 1 1384 1385
576 1 1384 1386
577 1 295 296
578 1 295 297
579 1 31 32
580 1 31 33
581 1 1588 1589
582 1 1588 1590
583 1 901 902
584 1 901 903
585 1 1567 1568
586 1 1567 1569
587 1 40 41
588 1 40 42
589 1 664 665
590 1 664 666
591 1 1177 1178
592 1 1177 1179
593 1 589 590
594 1 589 591
595 1 388 389
596 1 388 390
597 1 700 701
598 1 700 702
599 1 1372 1373
600 1 1372 1374
601 1 946 947
602 1 946 948
603 1 658 659
604 1 658 660
605 1 1237 1238
606 1 1237 1239
607 1 676 677
608 1 676 678
609 1 604 605
610 1 604 606
611 1 829 830
612 1 829 831
613 1 1066 1067
614 1 1066 1068
615 1 217 218
616 1 217 219
617 1 493 494
618 1 493 495
619 1 424 425
620 1 424 426
621 1 1525 1526
622 1 1525 1527
623 1 1750 1751
624 1 1750 1752
625 1 1321 1322
626 1 1321 1323
627 1 1264 1265
628 1 1264 1266
629 1 316 317
630 1 316 318
631 1 601 602
632 1 601 603
633 1 241 242
634 1 241 243
635 1 1381 1382
636 1 1381 1383
637 1 592 593
638 1 592 594
639 1 1171 1172
640 1 1171 1173
641 1 1639 1640
642 1 1639 1641
643 1 682 683
644 1 682 684
645 1 1225 1226
646 1 1225 1227
647 1 1009 1010
648 1 1009 1011
649 1 292 293
650 1 292 294
651 1 1270 1271
652 1 1270 1272
653 1 811 812
654 1 811 813
655 1 886 887
656 1 886 888
657 1 967 968
658 1 967 969
659 1 520 521
660 1 520 522
661 1 1204 1205
662 1 1204 1206
663 1 892 893
664 1 892 894
665 1 76 77
666 1 76 78
667 1 418 419
668 1 418 420
669 1 1168 1169
670 1 1168 1170
671 1 1465 1466
672 1 1465 1467
673 1 1240 1241
674 1 1240 1242
675 1 208 209
676 1 208 210
677 1 220 221
678 1 220 222
679 1 181 182
680 1 181 183
681 1 1075 1076
682 1 1075 1077
683 1 145 146
684 1 145 147
685 1 1378 1379
686 1 1378 1380
687 1 1684 1685
688 1 1684 1686
689 1 706 707
690 1 706 708
691 1 1339 1340
692 1 1339 1341
693 1 94 95
694 1 94 96
695 1 61 62
696 1 61 63
697 1 526 527
698 1 526 528
699 1 838 839
700 1 838 840
701 1 1576 1577
702 1 1576 1578
703 1 1456 1457
704 1 1456 1458
705 1 1069 1070
706 1 1069 1071
707 1 262 263
708 1 262 264
709 1 298 299
710 1 298 300
711 1 1582 1583
712 1 1582 1584
713 1 193 194
714 1 193 195
715 1 439 440
716 1 439 441
717 1 733 734
718 1 733 735
719 1 1126 1127
720 1 1126 1128
721 1 1681 1682
722 1 1681 1683
723 1 943 944
724 1 943 945
725 1 754 755
726 1 754 756
727 1 1531 1532
728 1 1531 1533
729 1 556 557
730 1 556 558
731 1 991 992
732 1 991 993
733 1 1471 1472
734 1 1471 1473
735 1 1558 1559
736 1 1558 1560
737 1 1231 1232
738 1 1231 1233
739 1 223 224
740 1 223 225
741 1 1228 1229
742 1 1228 1230
743 1 82 83
744 1 82 84
745 1 1798 1799
746 1 1798 1800
747 1 1060 1061
748 1 1060 1062
749 1 868 869
750 1 868 870
751 1 1216 1217
752 1 1216 1218
753 1 25 26
754 1 25 27
755 1 643 644
756 1 643 645
757 1 1081 1082
758 1 1081 1083
759 1 904 905
760 1 904 906
761 1 1630 1631
762 1 1630 1632
763 1 964 965
764 1 964 966
765 1 805 806
766 1 805 807
767 1 1666 1667
768 1 1666 1668
769 1 1174 1175
770 1 1174 1176
771 1 274 275
772 1 274 276
773 1 1540 1541
774 1 1540 1542
775 1 421 422
776 1 421 423
777 1 508 509
778 1 508 510
779 1 1357 1358
780 1 1357 1359
781 1 1018 1019
782 1 1018 1020
783 1 1000 1001
784 1 1000 1002
785 1 430 431
786 1 430 432
787 1 1027 1028
788 1 1027 1029
789 1 1414 1415
790 1 1414 1416
791 1 1648 1649
792 1 1648 1650
793 1 1087 1088
794 1 1087 1089
795 1 1657 1658
796 1 1657 1659
797 1 1450 1451
798 1 1450 1452
799 1 1144 1145
800 1 1144 1146
801 1 496 497
802 1 496 498
803 1 721 722
804 1 721 723
805 1 739 740
806 1 739 741
807 1 169 170
808 1 169 171
809 1 1114 1115
810 1 1114 1116
811 1 856 857
812 1 856 858
813 1 1606 1607
814 1 1606 1608
815 1 160 161
816 1 160 162
817 1 637 638
818 1 637 639
819 1 937 938
820 1 937 939
821 1 133 134
822 1 133 135
823 1 787 788
824 1 787 789
825 1 265 266
826 1 265 267
827 1 760 761
828 1 760 762
829 1 130 131
830 1 130 132
831 1 1699 1700
832 1 1699 1701
833 1 277 278
834 1 277 279
835 1 52 53
836 1 52 54
837 1 457 458
838 1 457 459
839 1 1333 1334
840 1 1333 1335
841 1 91 92
842 1 91 93
843 1 850 851
844 1 850 852
845 1 406 407
846 1 406 408
847 1 1534 1535
848 1 1534 1536
849 1 922 923
850 1 922 924
851 1 628 629
852 1 628 630
853 1 652 653
854 1 652 654
855 1 1360 1361
856 1 1360 1362
857 1 1129 1130
858 1 1129 1131
859 1 1282 1283
860 1 1282 1284
861 1 724 725
862 1 724 726
863 1 1429 1430
864 1 1429 1431
865 1 1417 1418
866 1 1417 1419
867 1 1468 1469
868 1 1468 1470
869 1 1453 1454
870 1 1453 1455
871 1 1585 1586
872 1 1585 1587
873 1 1309 1310
874 1 1309 1311
875 1 178 179
876 1 178 180
877 1 1504 1505
878 1 1504 1506
879 1 988 989
880 1 988 990
881 1 1249 1250
882 1 1249 1251
883 1 1102 1103
884 1 1102 1104
885 1 1183 1184
886 1 1183 1185
887 1 742 743
888 1 742 744
889 1 166 167
890 1 166 168
891 1 1420 1421
892 1 1420 1422
893 1 1636 1637
894 1 1636 1638
895 1 688 689
896 1 688 690
897 1 1039 1040
898 1 1039 1041
899 1 49 50
900 1 49 51
901 1 1720 1721
902 1 1720 1722
903 1 1510 1511
904 1 1510 1512
905 1 70 71
906 1 70 72
907 1 1642 1643
908 1 1642 1644
909 1 1696 1697
910 1 1696 1698
911 1 1147 1148
912 1 1147 1149
913 1 784 785
914 1 784 786
915 1 55 56
916 1 55 57
917 1 175 176
918 1 175 177
919 1 862 863
920 1 862 864
921 1 1489 1490
922 1 1489 1491
923 1 562 563
924 1 562 564
925 1 1726 1727
926 1 1726 1728
927 1 802 803
928 1 802 804
929 1 475 476
930 1 475 477
931 1 151 152
932 1 151 153
933 1 607 608
934 1 607 609
935 1 280 281
936 1 280 282
937 1 1600 1601
938 1 1600 1602
939 1 571 572
940 1 571 573
941 1 445 446
942 1 445 447
943 1 598 599
944 1 598 600
945 1 1369 1370
946 1 1369 1371
947 1 1 2
948 1 1 3
949 1 154 155
950 1 154 156
951 1 1777 1778
952 1 1777 1779
953 1 622 623
954 1 622 624
955 1 1654 1655
956 1 1654 1656
957 1 361 362
958 1 361 363
959 1 1645 1646
960 1 1645 1647
961 1 781 782
962 1 781 783
963 1 955 956
964 1 955 957
965 1 1255 1256
966 1 1255 1257
967 1 1156 1157
968 1 1156 1158
969 1 400 401
970 1 400 402
971 1 325 326
972 1 325 327
973 1 670 671
974 1 670 672
975 1 961 962
976 1 961 963
977 1 586 587
978 1 586 588
979 1 343 344
980 1 343 345
981 1 631 632
982 1 631 633
983 1 1516 1517
984 1 1516 1518
985 1 1315 1316
986 1 1315 1317
987 1 778 779
988 1 778 780
989 1 142 143
990 1 142 144
991 1 697 698
992 1 697 699
993 1 136 137
994 1 136 138
995 1 19 20
996 1 19 21
997 1 958 959
998 1 958 960
999 1 820 821
1000 1 820 822
1001 1 748 749
1002 1 748 750
1003 1 310 311
1004 1 310 312
1005 1 1003 1004
1006 1 1003 1005
1007 1 1438 1439
1008 1 1438 1440
1009 1 1180 1181
1010 1 1180 1182
1011 1 1246 1247
1012 1 1246 1248
1013 1 322 323
1014 1 322 324
1015 1 625 626
1016 1 625 627
1017 1 514 515
1018 1 514 516
1019 1 799 800
1020 1 799 801
1021 1 505 506
1022 1 505 507
1023 1 1297 1298
1024 1 1297 1299
1025 1 364 365
1026 1 364 366
1027 1 1792 1793
1028 1 1792 1794
1029 1 823 824
1030 1 823 825
1031 1 1207 1208
1032 1 1207 1209
1033 1 286 287
1034 1 286 288
1035 1 1492 1493
1036 1 1492 1494
1037 1 301 302
1038 1 301 303
1039 1 1447 1448
1040 1 1447 1449
1041 1 1318 1319
1042 1 1318 1320
1043 1 1312 1313
1044 1 1312 1314
1045 1 577 578
1046 1 577 579
1047 1 1363 1364
1048 1 1363 1365
1049 1 772 773
1050 1 772 774
1051 1 106 107
1052 1 106 108
1053 1 847 848
1054 1 847 849
1055 1 502 503
1056 1 502 504
1057 1 559 560
1058 1 559 561
1059 1 814 815
1060 1 814 816
1061 1 979 980
1062 1 979 981
1063 1 871 872
1064 1 871 873
1065 1 910 911
1066 1 910 912
1067 1 757 758
1068 1 757 759
1069 1 121 122
1070 1 121 123
1071 1 1189 1190
1072 1 1189 1191
1073 1 112 113
1074 1 112 114
1075 1 790 791
1076 1 790 792
1077 1 1441 1442
1078 1 1441 1443
1079 1 532 533
1080 1 532 534
1081 1 745 746
1082 1 745 747
1083 1 1399 1400
1084 1 1399 1401
1085 1 565 566
1086 1 565 567
1087 1 1711 1712
1088 1 1711 1713
1089 1 1528 1529
1090 1 1528 1530
1091 1 595 596
1092 1 595 597
1093 1 1291 1292
1094 1 1291 1293
1095 1 769 770
1096 1 769 771
1097 1 1012 1013
1098 1 1012 1014
1099 1 1201 1202
1100 1 1201 1203
1101 1 1738 1739
1102 1 1738 1740
1103 1 1375 1376
1104 1 1375 1377
1105 1 1591 1592
1106 1 1591 1593
1107 1 928 929
1108 1 928 930
1109 1 1507 1508
1110 1 1507 1509
1111 1 1732 1733
1112 1 1732 1734
1113 1 1687 1688
1114 1 1687 1689
1115 1 1396 1397
1116 1 1396 1398
1117 1 1306 1307
1118 1 1306 1308
1119 1 448 449
1120 1 448 450
1121 1 1234 1235
1122 1 1234 1236
1123 1 1093 1094
1124 1 1093 1095
1125 1 1765 1766
1126 1 1765 1767
1127 1 1486 1487
1128 1 1486 1488
1129 1 319 320
1130 1 319 321
1131 1 1210 1211
1132 1 1210 1212
1133 1 1354 1355
1134 1 1354 1356
1135 1 1108 1109
1136 1 1108 1110
1137 1 775 776
1138 1 775 777
1139 1 1747 1748
1140 1 1747 1749
1141 1 385 386
1142 1 385 387
1143 1 694 695
1144 1 694 696
1145 1 667 668
1146 1 667 669
1147 1 730 731
1148 1 730 732
1149 1 85 86
1150 1 85 87
1151 1 976 977
1152 1 976 978
1153 1 1294 1295
1154 1 1294 1296
1155 1 1744 1745
1156 1 1744 1746
1157 1 613 614
1158 1 613 615
1159 1 196 197
1160 1 196 198
1161 1 1555 1556
1162 1 1555 1557
1163 1 907 908
1164 1 907 909
1165 1 649 650
1166 1 649 651
1167 1 1537 1538
1168 1 1537 1539
1169 1 466 467
1170 1 466 468
1171 1 1756 1757
1172 1 1756 1758
1173 1 751 752
1174 1 751 753
1175 1 895 896
1176 1 895 897
1177 1 1153 1154
1178 1 1153 1155
1179 1 1048 1049
1180 1 1048 1050
1181 1 1105 1106
1182 1 1105 1107
1183 1 352 353
1184 1 352 354
1185 1 583 584
1186 1 583 585
1187 1 826 827
1188 1 826 828
1189 1 913 914
1190 1 913 915
1191 1 451 452
1192 1 451 453
1193 1 568 569
1194 1 568 570
1195 1 403 404
1196 1 403 405
1197 1 331 332
1198 1 331 333
1199 1 349 350
1200 1 349 351

Angles

1 1 1496 1495 1497
2 1 272 271 273
3 1 860 859 861
4 1 1031 1030 1032
5 1 308 307 309
6 1 416 415 417
7 1 1481 1480 1482
8 1 1349 1348 1350
9 1 290 289 291
10 1 1391 1390 1392
11 1 1136 1135 1137
12 1 377 376 378
13 1 1406 1405 1407
14 1 656 655 657
15 1 443 442 444
16 1 1604 1603 1605
17 1 818 817 819
18 1 347 346 348
19 1 1484 1483 1485
20 1 1304 1303 1305
21 1 1706 1705 1707
22 1 512 511 513
23 1 1763 1762 1764
24 1 692 691 693
25 1 1196 1195 1197
26 1 767 766 768
27 1 17 16 18
28 1 551 550 552
29 1 539 538 540
30 1 1325 1324 1326
31 1 1523 1522 1524
32 1 575 574 576
33 1 1634 1633 1635
34 1 1679 1678 1680
35 1 371 370 372
36 1 164 163 165
37 1 1328 1327 1329
38 1 1286 1285 1287
39 1 236 235 237
40 1 1775 1774 1776
41 1 635 634 636
42 1 233 232 234
43 1 1724 1723 1725
44 1 728 727 729
45 1 1037 1036 1038
46 1 620 619 621
47 1 1628 1627 1629
48 1 314 313 315
49 1 1670 1669 1671
50 1 1613 1612 1614
51 1 884 883 885
52 1 1619 1618 1620
53 1 890 889 891
54 1 1520 1519 1521
55 1 356 355 357
56 1 1043 1042 1044
57 1 1562 1561 1563
58 1 485 484 486
59 1 1301 1300 1302
60 1 1214 1213 1215
61 1 1544 1543 1545
62 1 140 139 141
63 1 1187 1186 1188
64 1 878 877 879
65 1 1694 1693 1695
66 1 116 115 117
67 1 101 100 102
68 1 227 226 228
69 1 1199 1198 1200
70 1 1280 1279 1281
71 1 374 373 375
72 1 1673 1672 1674
73 1 899 898 900
74 1 1394 1393 1395
75 1 716 715 717
76 1 1277 1276 1278
77 1 239 238 240
78 1 1499 1498 1500
79 1 491 490 492
80 1 5 4 6
81 1 971 970 972
82 1 1652 1651 1653
83 1 410 409 411
84 1 104 103 105
85 1 611 610 612
86 1 1244 1243 1245
87 1 1433 1432 1434
88 1 524 523 525
89 1 1787 1786 1788
90 1 1034 1033 1035
91 1 1097 1096 1098
92 1 1055 1054 1056
93 1 680 679 681
94 1 1610 1609 1611
95 1 338 337 339
96 1 1352 1351 1353
97 1 1124 1123 1125
98 1 1565 1564 1566
99 1 917 916 918
100 1 1142 1141 1143
101 1 548 547 549
102 1 1550 1549 1551
103 1 470 469 471
104 1 185 184 186
105 1 1427 1426 1428
106 1 65 64 66
107 1 1409 1408 1410
108 1 383 382 384
109 1 686 685 687
110 1 1058 1057 1059
111 1 1445 1444 1446
112 1 953 952 954
113 1 35 34 36
114 1 1193 1192 1194
115 1 935 934 936
116 1 986 985 987
117 1 647 646 648
118 1 11 10 12
119 1 866 865 867
120 1 1796 1795 1797
121 1 641 640 642
122 1 1064 1063 1065
123 1 1742 1741 1743
124 1 482 481 483
125 1 1553 1552 1554
126 1 245 244 246
127 1 1289 1288 1290
128 1 1133 1132 1134
129 1 1475 1474 1476
130 1 149 148 150
131 1 1661 1660 1662
132 1 542 541 543
133 1 1676 1675 1677
134 1 89 88 90
135 1 1337 1336 1338
136 1 212 211 213
137 1 536 535 537
138 1 581 580 582
139 1 1547 1546 1548
140 1 764 763 765
141 1 437 436 438
142 1 875 874 876
143 1 554 553 555
144 1 1121 1120 1122
145 1 1424 1423 1425
146 1 1220 1219 1221
147 1 1022 1021 1023
148 1 380 379 381
149 1 1595 1594 1596
150 1 257 256 258
151 1 230 229 231
152 1 428 427 429
153 1 479 478 480
154 1 14 13 15
155 1 1622 1621 1623
156 1 413 412 414
157 1 842 841 843
158 1 854 853 855
159 1 464 463 465
160 1 920 919 921
161 1 500 499 501
162 1 398 397 399
163 1 59 58 60
164 1 1760 1759 1761
165 1 38 37 39
166 1 1769 1768 1770
167 1 1478 1477 1479
168 1 794 793 795
169 1 1580 1579 1581
170 1 1703 1702 1704
171 1 128 127 129
172 1 845 844 846
173 1 1007 1006 1008
174 1 260 259 261
175 1 98 97 99
176 1 809 808 810
177 1 974 973 975
178 1 704 703 705
179 1 797 796 798
180 1 1598 1597 1599
181 1 998 997 999
182 1 1139 1138 1140
183 1 713 712 714
184 1 1574 1573 1575
185 1 1571 1570 1572
186 1 1091 1090 1092
187 1 1046 1045 1047
188 1 881 880 882
189 1 833 832 834
190 1 1025 1024 1026
191 1 1463 1462 1464
192 1 1502 1501 1503
193 1 473 472 474
194 1 1691 1690 1692
195 1 8 7 9
196 1 941 940 942
197 1 1790 1789 1791
198 1 1664 1663 1665
199 1 1253 1252 1254
200 1 1754 1753 1755
201 1 1736 1735 1737
202 1 47 46 48
203 1 158 157 159
204 1 719 718 720
205 1 1388 1387 1389
206 1 359 358 360
207 1 254 253 255
208 1 206 205 207
209 1 1772 1771 1773
210 1 203 202 204
211 1 461 460 462
212 1 269 268 270
213 1 68 67 69
214 1 110 109 111
215 1 1346 1345 1347
216 1 737 736 738
217 1 29 28 30
218 1 1460 1459 1461
219 1 530 529 531
220 1 395 394 396
221 1 305 304 306
222 1 329 328 330
223 1 1343 1342 1344
224 1 995 994 996
225 1 1052 1051 1053
226 1 125 124 126
227 1 710 709 711
228 1 188 187 189
229 1 1616 1615 1617
230 1 1151 1150 1152
231 1 341 340 342
232 1 488 487 489
233 1 932 931 933
234 1 1709 1708 1710
235 1 836 835 837
236 1 1016 1015 1017
237 1 926 925 927
238 1 1715 1714 1716
239 1 1163 1162 1164
240 1 1718 1717 1719
241 1 74 73 75
242 1 1259 1258 1260
243 1 674 673 675
244 1 983 982 984
245 1 173 172 174
246 1 1268 1267 1269
247 1 545 544 546
248 1 23 22 24
249 1 392 391 393
250 1 335 334 336
251 1 950 949 951
252 1 617 616 618
253 1 662 661 663
254 1 1118 1117 1119
255 1 1274 1273 1275
256 1 284 283 285
257 1 1223 1222 1224
258 1 80 79 81
259 1 1436 1435 1437
260 1 200 199 201
261 1 1730 1729 1731
262 1 1112 1111 1113
263 1 1331 1330 1332
264 1 368 367 369
265 1 1166 1165 1167
266 1 251 250 252
267 1 1412 1411 1413
268 1 1160 1159 1161
269 1 1781 1780 1782
270 1 1085 1084 1086
271 1 191 190 192
272 1 1262 1261 1263
273 1 1367 1366 1368
274 1 455 454 456
275 1 1100 1099 1101
276 1 215 214 216
277 1 1625 1624 1626
278 1 248 247 249
279 1 1514 1513 1515
280 1 1784 1783 1785
281 1 1073 1072 1074
282 1 119 118 120
283 1 518 517 519
284 1 1403 1402 1404
285 1 1079 1078 1080
286 1 44 43 45
287 1 434 433 435
288 1 1385 1384 1386
289 1 296 295 297
290 1 32 31 33
291 1 1589 1588 1590
292 1 902 901 903
293 1 1568 1567 1569
294 1 41 40 42
295 1 665 664 666
296 1 1178 1177 1179
297 1 590 589 591
298 1 389 388 390
299 1 701 700 702
300 1 1373 1372 1374
301 1 947 946 948
302 1 659 658 660
303 1 1238 1237 1239
304 1 677 676 678
305 1 605 604 606
306 1 830 829 831
307 1 1067 1066 1068
308 1 218 217 219
309 1 494 493 495
310 1 425 424 426
311 1 1526 1525 1527
312 1 1751 1750 1752
313 1 1322 1321 1323
314 1 1265 1264 1266
315 1 317 316 318
316 1 602 601 603
317 1 242 241 243
318 1 1382 1381 1383
319 1 593 592 594
320 1 1172 1171 1173
321 1 1640 1639 1641
322 1 683 682 684
323 1 1226 1225 1227
324 1 1010 1009 1011
325 1 293 292 294
326 1 1271 1270 1272
327 1 812 811 813
328 1 887 886 888
329 1 968 967 969
330 1 521 520 522
331 1 1205 1204 1206
332 1 893 892 894
333 1 77 76 78
334 1 419 418 420
335 1 1169 1168 1170
336 1 1466 1465 1467
337 1 1241 1240 1242
338 1 209 208 210
339 1 221 220 222
340 1 182 181 183
341 1 1076 1075 1077
342 1 146 145 147
343 1 1379 1378 1380
344 1 1685 1684 1686
345 1 707 706 708
346 1 1340 1339 1341
347 1 95 94 96
348 1 62 61 63
349 1 527 526 528
350 1 839 838 840
351 1 1577 1576 1578
352 1 1457 1456 1458
353 1 1070 1069 1071
354 1 263 262 264
355 1 299 298 300
356 1 1583 1582 1584
357 1 194 193 195
358 1 440 439 441
359 1 734 733 735
360 1 1127 1126 1128
361 1 1682 1681 1683
362 1 944 943 945
363 1 755 754 756
364 1 1532 1531 1533
365 1 557 556 558
366 1 992 991 993
367 1 1472 1471 1473
368 1 1559 1558 1560
369 1 1232 1231 1233
370 1 224 223 225
371 1 1229 1228 1230
372 1 83 82 84
373 1 1799 1798 1800
374 1 1061 1060 1062
375 1 869 868 870
376 1 1217 1216 1218
377 1 26 25 27
378 1 644 643 645
379 1 1082 1081 1083
380 1 905 904 906
381 1 1631 1630 1632
382 1 965 964 966
383 1 806 805 807
384 1 1667 1666 1668
385 1 1175 1174 1176
386 1 275 274 276
387 1 1541 1540 1542
388 1 422 421 423
389 1 509 508 510
390 1 1358 1357 1359
391 1 1019 1018 1020
392 1 1001 1000 1002
393 1 431 430 432
394 1 1028 1027 1029
395 1 1415 1414 1416
396 1 1649 1648 1650
397 1 1088 1087 1089
398 1 1658 1657 1659
399 1 1451 1450 1452
400 1 1145 1144 1146
401 1 497 496 498
402 1 722 721 723
403 1 740 739 741
404 1 170 169 171
405 1 1115 1114 1116
406 1 857 856 858
407 1 1607 1606 1608
408 1 161 160 162
409 1 638 637 639
410 1 938 937 939
411 1 134 133 135
412 1 788 787 789
413 1 266 265 267
414 1 761 760 762
415 1 131 130 132
416 1 1700 1699 1701
417 1 278 277 279
418 1 53 52 54
419 1 458 457 459
420 1 1334 1333 1335
421 1 92 91 93
422 1 851 850 852
423 1 407 406 408
424 1 1535 1534 1536
425 1 923 922 924
426 1 629 628 630
427 1 653 652 654
428 1 1361 1360 1362
429 1 1130 1129 1131
430 1 1283 1282 1284
431 1 725 724 726
432 1 1430 1429 1431
433 1 1418 1417 1419
434 1 1469 1468 1470
435 1 1454 1453 1455
436 1 1586 1585 1587
437 1 1310 1309 1311
438 1 179 178 180
439 1 1505 1504 1506
440 1 989 988 990
441 1 1250 1249 1251
442 1 1103 1102 1104
443 1 1184 1183 1185
444 1 743 742 744
445 1 167 166 168
446 1 1421 1420 1422
447 1 1637 1636 1638
448 1 689 688 690
449 1 1040 1039 1041
450 1 50 49 51
451 1 1721 1720 1722
452 1 1511 1510 1512
453 1 71 70 72
454 1 1643 1642 1644
455 1 1697 1696 1698
456 1 1148 1147 1149
457 1 785 784 786
458 1 56 55 57
459 1 176 175 177
460 1 863 862 864
461 1 1490 1489 1491
462 1 563 562 564
463 1 1727 1726 1728
464 1 803 802 804
465 1 476 475 477
466 1 152 151 153
467 1 608 607 609
468 1 281 280 282
469 1 1601 1600 1602
470 1 572 571 573
471 1 446 445 447
472 1 599 598 600
473 1 1370 1369 1371
474 1 2 1 3
475 1 155 154 156
476 1 1778 1777 1779
477 1 623 622 624
478 1 1655 1654 1656
479 1 362 361 363
480 1 1646 1645 1647
481 1 782 781 783
482 1 956 955 957
483 1 1256 1255 1257
484 1 1157 1156 1158
485 1 401 400 402
486 1 326 325 327
487 1 671 670 672
488 1 962 961 963
489 1 587 586 588
490 1 344 343 345
491 1 632 631 633
492 1 1517 1516 1518
493 1 1316 1315 1317
494 1 779 778 780
495 1 143 142 144
496 1 698 697 699
497 1 137 136 138
498 1 20 19 21
499 1 959 958 960
500 1 821 820 822
501 1 749 748 750
502 1 311 310 312
503 1 1004 1003 1005
504 1 1439 1438 1440
505 1 1181 1180 1182
506 1 1247 1246 1248
507 1 323 322 324
508 1 626 625 627
509 1 515 514 516
510 1 800 799 801
511 1 506 505 507
512 1 1298 1297 1299
513 1 365 364 366
514 1 1793 1792 1794
515 1 824 823 825
516 1 1208 1207 1209
517 1 287 286 288
518 1 1493 1492 1494
519 1 302 301 303
520 1 1448 1447 1449
521 1 1319 1318 1320
522 1 1313 1312 1314
523 1 578 577 579
524 1 1364 1363 1365
525 1 773 772 774
526 1 107 106 108
527 1 848 847 849
528 1 503 502 504
529 1 560 559 561
530 1 815 814 816
531 1 980 979 981
532 1 872 871 873
533 1 911 910 912
534 1 758 757 759
535 1 122 121 123
536 1 1190 1189 1191
537 1 113 112 114
538 1 791 790 792
539 1 1442 1441 1443
540 1 533 532 534
541 1 746 745 747
542 1 1400 1399 1401
543 1 566 565 567
544 1 1712 1711 1713
545 1 1529 1528 1530
546 1 596 595 597
547 1 1292 1291 1293
548 1 770 769 771
549 1 1013 1012 1014
550 1 1202 1201 1203
551 1 1739 1738 1740
552 1 1376 1375 1377
553 1 1592 1591 1593
554 1 929 928 930
555 1 1508 1507 1509
556 1 1733 1732 1734
557 1 1688 1687 1689
558 1 1397 1396 1398
559 1 1307 1306 1308
560 1 449 448 450
561 1 1235 1234 1236
562 1 1094 1093 1095
563 1 1766 1765 1767
564 1 1487 1486 1488
565 1 320 319 321
566 1 1211 1210 1212
567 1 1355 1354 1356
568 1 1109 1108 1110
569 1 776 775 777
570 1 1748 1747 1749
571 1 386 385 387
572 1 695 694 696
573 1 668 667 669
574 1 731 730 732
575 1 86 85 87
576 1 977 976 978
577 1 1295 1294 1296
578 1 1745 1744 1746
579 1 614 613 615
580 1 197 196 198
581 1 1556 1555 1557
582 1 908 907 909
583 1 650 649 651
584 1 1538 1537 1539
585 1 467 466 468
586 1 1757 1756 1758
587 1 752 751 753
588 1 896 895 897
589 1 1154 1153 1155
590 1 1049 1048 1050
591 1 1106 1105 1107
592 1 353 352 354
593 1 584 583 585
594 1 827 826 828
595 1 914 913 915
596 1 452 451 453
597 1 569 568 570
598 1 404 403 405
599 1 332 331 333
600 1 350 349 351
