LAMMPS (7 Feb 2024 - Update 1)
  using 1 OpenMP thread(s) per MPI task
echo both

# Define temperature parameters
variable	temperature equal 300.0 # Simulation temperature in Kelvin
variable	tempDamp equal 100.0 # Relaxation time of themostat - 0.1 ps

# Define pressure parameters
variable	pressure equal 1.0 # Pressure in bars
variable	pressureDamp equal 500.0 # Relaxation time of the barostat 0.5 ps

# Define random seed
variable	seed equal 98475

# Simulation setup
units		real
atom_style	full
variable	out_freq equal 1000 # Thermo output frequency
variable	out_freq2 equal 10 # Dump output frequency
neigh_modify    delay 10 every 1 # Neighbor list setup

### TIP4P/Ew and NaCl Potential Parameters ###
pair_style      hybrid lj/cut/coul/long 5.0 buck/coul/long 5.0 # This cutoff is too short for a real calculation
# Load configuration
read_data       data.nacl
Reading data file ...
  orthogonal box = (0 0 0) to (15.5 15.5 15.5)
  2 by 2 by 3 MPI processor grid
  reading atoms ...
  320 atoms
  scanning bonds ...
  2 = max bonds/atom
  scanning angles ...
  1 = max angles/atom
  reading bonds ...
  212 bonds
  reading angles ...
  106 angles
Finding 1-2 1-3 1-4 neighbors ...
  special bond factors lj:    0        0        0       
  special bond factors coul:  0        0        0       
     2 = max # of 1-2 neighbors
     1 = max # of 1-3 neighbors
     1 = max # of 1-4 neighbors
     2 = max # of special neighbors
  special bonds CPU = 0.001 seconds
  read_data CPU = 0.039 seconds

# create groups ###

group hy type 1
212 atoms in group hy
group ox type 2
106 atoms in group ox
group na type 3
1 atoms in group na
group cl type 4
1 atoms in group cl

## set charges - beside manually ###
set group ox charge -0.830
Setting atom values ...
  106 settings made for charge
set group hy charge 0.415
Setting atom values ...
  212 settings made for charge
set group na charge 1.0
Setting atom values ...
  1 settings made for charge
set group cl charge -1.0
Setting atom values ...
  1 settings made for charge

# Water TIP3P
pair_coeff      1 1 lj/cut/coul/long 0.0 0.0
pair_coeff      2 2 lj/cut/coul/long 0.102 3.188
pair_coeff      1 2 lj/cut/coul/long 0.0 0.0
# Mixed from Pettitt 86
pair_coeff      2 3 lj/cut/coul/long 0.1338549 2.72
pair_coeff      1 3 lj/cut/coul/long 0.1338549 1.31
pair_coeff      2 4 lj/cut/coul/long 0.359825 3.55
pair_coeff      1 4 lj/cut/coul/long 0.359825 2.14
# NaCl from Pettitt 86
pair_coeff      3 4 buck/coul/long 28929.93 0.317 161.2016
pair_coeff      3 3 buck/coul/long 9772.847 0.317 24.18024 # This is not used
pair_coeff      4 4 buck/coul/long 80312.94 0.317 1683.981 # This is not used
bond_style      harmonic
bond_coeff      1 450 0.9572
angle_style     harmonic
angle_coeff     1 55 104.52
kspace_style    pppm 1e-2 # This value is too large for a real calculation

timestep	2.0 # Timestep 2 fs
thermo          ${out_freq}
thermo          1000
thermo_style 	custom step temp pe ke etotal press lx ly lz xy xz yz
restart 	${out_freq} restart restart2
restart 	1000 restart restart2

velocity        all create ${temperature} ${seed} dist gaussian
velocity        all create 300 ${seed} dist gaussian
velocity        all create 300 98475 dist gaussian
# Perform minimization
minimize 1.0e-2 1.0e-3 100 1000
Switching to 'neigh_modify every 1 delay 0 check yes' setting during minimization
PPPM initialization ...
  using 12-bit tables for long-range coulomb (src/lammps-7Feb2024/src/kspace.cpp:342)
  G vector (1/distance) = 0.40023582
  grid = 8 8 8
  stencil order = 5
  estimated absolute RMS force accuracy = 0.7823365
  estimated relative force accuracy = 0.0023559831
  using double precision MKL FFT
  3d grid and FFT values/proc = 1089 48
Generated 0 of 6 mixed pair_coeff terms from geometric mixing rule
Neighbor list info ...
  update: every = 1 steps, delay = 0 steps, check = yes
  max neighbors/atom: 2000, page size: 100000
  master list distance cutoff = 7
  ghost atom cutoff = 7
  binsize = 3.5, bins = 5 5 5
  3 neighbor lists, perpetual/occasional/extra = 3 0 0
  (1) pair lj/cut/coul/long, perpetual, skip from (3)
      attributes: half, newton on
      pair build: skip
      stencil: none
      bin: none
  (2) pair buck/coul/long, perpetual, skip from (3)
      attributes: half, newton on
      pair build: skip
      stencil: none
      bin: none
  (3) neighbor class addition, perpetual
      attributes: half, newton on
      pair build: half/bin/newton
      stencil: half/bin/3d
      bin: standard
Per MPI rank memory allocation (min/avg/max) = 9.416 | 9.418 | 9.42 Mbytes
   Step          Temp          PotEng         KinEng         TotEng         Press            Lx             Ly             Lz             Xy             Xz             Yz      
         0   300            92556250       285.26352      92556536       6.8175783e+09  15.5           15.5           15.5           0              0              0            
        27   300           -1095.9406      285.26352     -810.67712     -2918.7587      15.5           15.5           15.5           0              0              0            
Loop time of 0.0245425 on 12 procs for 27 steps with 320 atoms

87.2% CPU use with 12 MPI tasks x 1 OpenMP threads

Minimization stats:
  Stopping criterion = energy tolerance
  Energy initial, next-to-last, final = 
       92556250.257805     -1089.35799481  -1095.94064566941
  Force two-norm initial, final = 1.8953089e+09 108.40957
  Force max component initial, final = 1.2163668e+09 24.333575
  Final line search alpha, max atom move = 0.0033714434 0.08203927
  Iterations, force evaluations = 27 35

MPI task timing breakdown:
Section |  min time  |  avg time  |  max time  |%varavg| %total
---------------------------------------------------------------
Pair    | 0.00049153 | 0.00070262 | 0.00092188 |   0.0 |  2.86
Bond    | 1.8033e-05 | 2.6453e-05 | 3.4076e-05 |   0.0 |  0.11
Kspace  | 0.0037834  | 0.0039957  | 0.004239   |   0.2 | 16.28
Neigh   | 0.00018428 | 0.00019525 | 0.00020429 |   0.0 |  0.80
Comm    | 0.0010281  | 0.0010941  | 0.0011576  |   0.1 |  4.46
Output  | 0          | 0          | 0          |   0.0 |  0.00
Modify  | 0          | 0          | 0          |   0.0 |  0.00
Other   |            | 0.01853    |            |       | 75.50

Nlocal:        26.6667 ave          32 max          19 min
Histogram: 1 0 2 1 0 1 1 2 2 2
Nghost:        766.167 ave         805 max         727 min
Histogram: 2 0 0 2 3 1 1 1 1 1
Neighs:              0 ave           0 max           0 min
Histogram: 12 0 0 0 0 0 0 0 0 0

Total # of neighbors = 0
Ave neighs/atom = 0
Ave special neighs/atom = 1.9875
Neighbor list builds = 3
Dangerous builds = 0

# Write trajectory to file
dump           	myDump all dcd ${out_freq2} out.dcd
dump           	myDump all dcd 10 out.dcd
#dump_modify    	myDump unwrap yes

# Start simulation

reset_timestep 	0


fix umb all plumed plumedfile plumed_9.dat outfile plumed.out
fix             1 all temp/csvr ${temperature} ${temperature} ${tempDamp} ${seed} # Bussi's thermostat
fix             1 all temp/csvr 300 ${temperature} ${tempDamp} ${seed} 
fix             1 all temp/csvr 300 300 ${tempDamp} ${seed} 
fix             1 all temp/csvr 300 300 100 ${seed} 
fix             1 all temp/csvr 300 300 100 98475 
fix             2 all shake 0.0001 20 0 t 1 2 # Shake algorithm
Finding SHAKE clusters ...
       0 = # of size 2 clusters
     106 = # of size 3 clusters
       0 = # of size 4 clusters
       0 = # of frozen angles
  find clusters CPU = 0.000 seconds
#fix             3 all nve
fix             3 all nph iso ${pressure} ${pressure} ${pressureDamp} # Isotropic barostat
fix             3 all nph iso 1 ${pressure} ${pressureDamp} 
fix             3 all nph iso 1 1 ${pressureDamp} 
fix             3 all nph iso 1 1 500 
fix 		4 all momentum 10000 linear 1 1 1 # Set total linear momentum to zero every 10000 steps

run 1000000
PPPM initialization ...
  using 12-bit tables for long-range coulomb (src/lammps-7Feb2024/src/kspace.cpp:342)
  G vector (1/distance) = 0.40023582
  grid = 8 8 8
  stencil order = 5
  estimated absolute RMS force accuracy = 0.7823365
  estimated relative force accuracy = 0.0023559831
  using double precision MKL FFT
  3d grid and FFT values/proc = 1089 48
Generated 0 of 6 mixed pair_coeff terms from geometric mixing rule
Per MPI rank memory allocation (min/avg/max) = 9.186 | 9.188 | 9.19 Mbytes
   Step          Temp          PotEng         KinEng         TotEng         Press            Lx             Ly             Lz             Xy             Xz             Yz      
         0   385.36913     -1127.6681      285.26352     -842.40459     -1196.2109      15.5           15.5           15.5           0              0              0            
      1000   298.36467     -1178.9957      220.85982     -958.13586     -1595.8653      15.124732      15.124732      15.124732      0              0              0            
      2000   292.64663     -1182.4663      216.62713     -965.83914     -156.95751      15.087136      15.087136      15.087136      0              0              0            
      3000   295.57706     -1205.0287      218.79634     -986.23237      1327.8888      14.859184      14.859184      14.859184      0              0              0            
      4000   328.72497     -1196.609       243.33356     -953.27546     -831.61902      15.047233      15.047233      15.047233      0              0              0            
      5000   277.86553     -1177.971       205.68565     -972.28536      1147.2222      15.006182      15.006182      15.006182      0              0              0            
      6000   297.17325     -1212.0037      219.97789     -992.02583     -500.47621      14.922011      14.922011      14.922011      0              0              0            
      7000   287.91494     -1223.8888      213.12457     -1010.7643     -2062.9317      14.88682       14.88682       14.88682       0              0              0            
      8000   305.62526     -1212.3347      226.23436     -986.1003       1244.818       14.901756      14.901756      14.901756      0              0              0            
      9000   282.8631      -1239.7057      209.38502     -1030.3207     -1514.455       14.9899        14.9899        14.9899        0              0              0            
     10000   288.00711     -1174.6432      213.1928      -961.45045      1366.0335      14.850839      14.850839      14.850839      0              0              0            
     11000   304.21584     -1189.0778      225.19106     -963.88672      1329.776       14.897632      14.897632      14.897632      0              0              0            
     12000   314.92914     -1185.2745      233.12142     -952.15307     -1904.631       14.975868      14.975868      14.975868      0              0              0            
     13000   296.23046     -1200.8649      219.28        -981.58493      979.17326      15.056145      15.056145      15.056145      0              0              0            
     14000   281.05026     -1216.7398      208.04309     -1008.6967      711.49806      14.93061       14.93061       14.93061       0              0              0            
     15000   277.91603     -1202.8098      205.72303     -997.08677     -145.22063      15.117428      15.117428      15.117428      0              0              0            
     16000   321.57298     -1215.7222      238.03942     -977.68282     -469.32775      15.10579       15.10579       15.10579       0              0              0            
     17000   318.08647     -1205.1764      235.45857     -969.71783     -1269.0779      15.079805      15.079805      15.079805      0              0              0            
     18000   296.52535     -1178.2912      219.49829     -958.7929      -108.8873       15.046737      15.046737      15.046737      0              0              0            
     19000   313.23606     -1205.5386      231.86814     -973.67046      2633.7622      14.800185      14.800185      14.800185      0              0              0            
     20000   295.86315     -1181.5575      219.00811     -962.54942     -1667.9296      15.057211      15.057211      15.057211      0              0              0            
     21000   323.03326     -1221.971       239.12036     -982.85063     -223.21067      15.163514      15.163514      15.163514      0              0              0            
     22000   297.70964     -1162.1874      220.37495     -941.81241     -133.86069      14.808664      14.808664      14.808664      0              0              0            
     23000   291.70416     -1213.6898      215.92948     -997.76036     -315.78543      14.866566      14.866566      14.866566      0              0              0            
     24000   307.68646     -1198.5385      227.76013     -970.77836      294.85396      14.849533      14.849533      14.849533      0              0              0            
     25000   317.23881     -1210.5184      234.83111     -975.68726     -409.27808      15.040636      15.040636      15.040636      0              0              0            
     26000   307.82975     -1222.0331      227.8662      -994.16688      500.58413      14.856213      14.856213      14.856213      0              0              0            
     27000   311.8116      -1215.1115      230.8137      -984.29776      1751.7417      14.791268      14.791268      14.791268      0              0              0            
     28000   303.57622     -1212.8088      224.71759     -988.09119     -1875.4748      14.867602      14.867602      14.867602      0              0              0            
     29000   288.90635     -1203.6974      213.85844     -989.83896      484.81994      14.993915      14.993915      14.993915      0              0              0            
     30000   281.25712     -1221.5122      208.19622     -1013.316       596.67987      14.832022      14.832022      14.832022      0              0              0            
     31000   283.83668     -1217.8854      210.1057      -1007.7797      730.60374      14.917135      14.917135      14.917135      0              0              0            
     32000   313.66477     -1203.1049      232.18549     -970.91937      738.51724      15.290025      15.290025      15.290025      0              0              0            
     33000   281.04113     -1192.1729      208.03634     -984.1366       45.743875      14.751902      14.751902      14.751902      0              0              0            
     34000   297.50997     -1200.2985      220.22714     -980.07132     -991.3265       15.09587       15.09587       15.09587       0              0              0            
     35000   296.46068     -1201.1181      219.45042     -981.66764     -769.36212      15.33345       15.33345       15.33345       0              0              0            
     36000   310.96673     -1183.8562      230.1883      -953.66787     -615.03569      15.115363      15.115363      15.115363      0              0              0            
     37000   293.40401     -1168.4394      217.18777     -951.25163     -199.45528      15.149953      15.149953      15.149953      0              0              0            
     38000   313.94225     -1196.3967      232.39088     -964.00584      1100.7887      14.956463      14.956463      14.956463      0              0              0            
     39000   314.66744     -1193.373       232.92769     -960.44527      698.75498      15.031366      15.031366      15.031366      0              0              0            
     40000   288.23937     -1231.3029      213.36472     -1017.9382      588.38779      14.953653      14.953653      14.953653      0              0              0            
     41000   295.73706     -1186.7424      218.91477     -967.82761     -81.074471      15.117584      15.117584      15.117584      0              0              0            
     42000   304.00193     -1210.8557      225.03272     -985.82294     -205.9743       15.062026      15.062026      15.062026      0              0              0            
     43000   296.38611     -1210.2572      219.39523     -990.86201     -1404.8717      15.001798      15.001798      15.001798      0              0              0            
     44000   287.7474      -1175.9041      213.00055     -962.90355      373.84309      15.113784      15.113784      15.113784      0              0              0            
     45000   305.88076     -1212.4688      226.42349     -986.04528     -1102.9598      15.129458      15.129458      15.129458      0              0              0            
     46000   277.21171     -1215.885       205.20167     -1010.6833      358.83157      15.087767      15.087767      15.087767      0              0              0            
     47000   291.38313     -1183.0215      215.69184     -967.32963      2037.545       15.00605       15.00605       15.00605       0              0              0            
     48000   312.0517      -1182.5783      230.99143     -951.58688     -1760.0081      15.274178      15.274178      15.274178      0              0              0            
     49000   295.29457     -1199.6144      218.58723     -981.02721      406.27358      15.022812      15.022812      15.022812      0              0              0            
     50000   296.17453     -1203.2517      219.23861     -984.01311      1638.0322      14.818086      14.818086      14.818086      0              0              0            
     51000   298.33277     -1208.8783      220.83621     -988.04209      2606.251       14.785149      14.785149      14.785149      0              0              0            
     52000   306.3087      -1191.7461      226.74026     -965.00585     -564.8276       15.079141      15.079141      15.079141      0              0              0            
     53000   294.36486     -1214.2746      217.89902     -996.37556      529.13847      14.932561      14.932561      14.932561      0              0              0            
     54000   288.60802     -1179.5873      213.63761     -965.94971     -14.932249      15.090042      15.090042      15.090042      0              0              0            
     55000   312.41416     -1211.9958      231.25974     -980.73611      729.58884      14.841589      14.841589      14.841589      0              0              0            
     56000   292.4898      -1189.5443      216.51104     -973.0333       180.1467       15.106153      15.106153      15.106153      0              0              0            
     57000   290.65568     -1179.8211      215.15336     -964.66771      964.35808      15.183522      15.183522      15.183522      0              0              0            
     58000   296.93085     -1192.483       219.79846     -972.68454      280.35376      15.15897       15.15897       15.15897       0              0              0            
     59000   274.07867     -1189.0632      202.88248     -986.18074     -466.62815      15.269181      15.269181      15.269181      0              0              0            
     60000   336.83638     -1193.6141      249.33791     -944.27619      1319.1112      15.00911       15.00911       15.00911       0              0              0            
     61000   304.75007     -1209.6589      225.58652     -984.0724      -413.10152      15.13319       15.13319       15.13319       0              0              0            
     62000   328.87444     -1216.2336      243.44421     -972.7894       1790.3308      14.891749      14.891749      14.891749      0              0              0            
     63000   329.83343     -1235.5111      244.15408     -991.35706      1752.1545      14.769292      14.769292      14.769292      0              0              0            
     64000   269.44652     -1187.2687      199.45361     -987.81512      766.40047      15.091882      15.091882      15.091882      0              0              0            
     65000   295.54062     -1222.4542      218.76936     -1003.6848     -44.303896      14.892178      14.892178      14.892178      0              0              0            
     66000   297.43551     -1207.6234      220.17203     -987.4514      -542.56263      14.849775      14.849775      14.849775      0              0              0            
     67000   316.2623      -1181.6107      234.10826     -947.50246     -1311.3597      15.124983      15.124983      15.124983      0              0              0            
     68000   277.34817     -1224.4177      205.30268     -1019.1151      2201.1432      14.975263      14.975263      14.975263      0              0              0            
     69000   275.31174     -1213.375       203.79525     -1009.5798      1107.216       14.982452      14.982452      14.982452      0              0              0            
     70000   321.16141     -1193.5363      237.73475     -955.80154     -431.06833      15.167329      15.167329      15.167329      0              0              0            
     71000   296.13158     -1205.8551      219.20681     -986.6483       3129.4993      14.897735      14.897735      14.897735      0              0              0            
     72000   324.71644     -1218.8576      240.36631     -978.49134     -1669.3991      15.044184      15.044184      15.044184      0              0              0            
     73000   320.67878     -1220.5443      237.3775      -983.1668      -201.91719      14.82437       14.82437       14.82437       0              0              0            
     74000   299.89645     -1202.8819      221.9937      -980.8882      -819.01062      15.123523      15.123523      15.123523      0              0              0            
     75000   291.93186     -1215.227       216.09803     -999.12898      149.55102      14.70202       14.70202       14.70202       0              0              0            
     76000   310.23953     -1203.0477      229.65        -973.39774     -1179.4954      15.084341      15.084341      15.084341      0              0              0            
     77000   305.0034      -1190.7345      225.77404     -964.96044      2839.455       14.89591       14.89591       14.89591       0              0              0            
     78000   295.40999     -1197.3838      218.67267     -978.71118      1022.1683      14.955263      14.955263      14.955263      0              0              0            
     79000   305.22163     -1207.2256      225.93558     -981.29004     -87.44693       15.108265      15.108265      15.108265      0              0              0            
     80000   292.45041     -1185.8359      216.48188     -969.35406      1105.8033      15.123409      15.123409      15.123409      0              0              0            
     81000   307.49482     -1217.7184      227.61827     -990.10008     -598.64673      14.802967      14.802967      14.802967      0              0              0            
     82000   301.58485     -1195.1575      223.24351     -971.91403     -354.07515      15.376049      15.376049      15.376049      0              0              0            
     83000   286.18566     -1227.2427      211.8445      -1015.3982     -1930.5124      15.176482      15.176482      15.176482      0              0              0            
     84000   309.87449     -1191.2892      229.37978     -961.90939     -900.81356      15.140807      15.140807      15.140807      0              0              0            
     85000   319.82032     -1187.4709      236.74204     -950.72883      54.405638      15.22322       15.22322       15.22322       0              0              0            
     86000   292.79488     -1212.576       216.73687     -995.83913     -1341.487       15.003845      15.003845      15.003845      0              0              0            
     87000   314.40875     -1208.206       232.7362      -975.46975      372.94204      14.875336      14.875336      14.875336      0              0              0            
     88000   296.17986     -1182.9045      219.24255     -963.66192     -297.1179       14.93266       14.93266       14.93266       0              0              0            
     89000   314.86878     -1216.9789      233.07674     -983.90219      1498.8198      14.710145      14.710145      14.710145      0              0              0            
     90000   324.1116      -1179.7074      239.91859     -939.78881     -320.09976      14.980428      14.980428      14.980428      0              0              0            
     91000   344.80678     -1210.2728      255.23787     -955.03491      1326.9768      14.943337      14.943337      14.943337      0              0              0            
     92000   307.25658     -1165.3393      227.44192     -937.89739      290.90316      14.954802      14.954802      14.954802      0              0              0            
     93000   320.80903     -1175.3569      237.47391     -937.88304      1167.9853      15.068494      15.068494      15.068494      0              0              0            
     94000   307.11669     -1212.517       227.33837     -985.17868     -1324.5828      14.91331       14.91331       14.91331       0              0              0            
     95000   298.34439     -1199.7086      220.84481     -978.8638       1380.3515      14.849026      14.849026      14.849026      0              0              0            
     96000   299.34425     -1209.9981      221.58494     -988.41314     -144.7256       14.794689      14.794689      14.794689      0              0              0            
     97000   292.69322     -1171.3052      216.66162     -954.64354      494.38699      14.936197      14.936197      14.936197      0              0              0            
     98000   300.529       -1214.4741      222.46193     -992.01215      189.54102      15.10313       15.10313       15.10313       0              0              0            
     99000   293.47765     -1211.4277      217.24228     -994.18544      2475.5277      14.734026      14.734026      14.734026      0              0              0            
    100000   294.43227     -1190.4113      217.94893     -972.46242     -728.60751      15.012617      15.012617      15.012617      0              0              0            
    101000   306.21102     -1205.968       226.66796     -979.30005      1710.4559      14.83841       14.83841       14.83841       0              0              0            
    102000   269.96834     -1185.5061      199.83988     -985.66623     -557.59288      15.434149      15.434149      15.434149      0              0              0            
    103000   290.96382     -1199.6353      215.38146     -984.25389      1002.0968      14.920547      14.920547      14.920547      0              0              0            
    104000   296.34674     -1213.1126      219.36608     -993.74651     -1541.3846      15.089917      15.089917      15.089917      0              0              0            
    105000   305.98864     -1208.8788      226.50334     -982.37544     -1632.8477      15.021847      15.021847      15.021847      0              0              0            
    106000   309.26736     -1173.4948      228.93037     -944.56442      1413.6022      15.117869      15.117869      15.117869      0              0              0            
    107000   298.53432     -1205.5001      220.9854      -984.51474     -334.87066      15.508147      15.508147      15.508147      0              0              0            
    108000   305.61666     -1217.1492      226.22799     -990.92124      1721.3363      14.964523      14.964523      14.964523      0              0              0            
    109000   298.97102     -1198.5493      221.30867     -977.2406      -1423.3726      15.075498      15.075498      15.075498      0              0              0            
    110000   284.99964     -1211.9891      210.96656     -1001.0225      813.00744      14.990528      14.990528      14.990528      0              0              0            
    111000   311.79328     -1198.879       230.80014     -968.07889     -1333.8855      15.058025      15.058025      15.058025      0              0              0            
    112000   303.80099     -1214.837       224.88397     -989.95303     -1720.7088      14.794222      14.794222      14.794222      0              0              0            
    113000   290.94933     -1200.938       215.37073     -985.5673      -572.49322      15.025453      15.025453      15.025453      0              0              0            
    114000   280.78592     -1209.1672      207.84743     -1001.3197      1578.8671      14.746892      14.746892      14.746892      0              0              0            
    115000   287.63434     -1207.9293      212.91686     -995.01244     -1112.769       14.860546      14.860546      14.860546      0              0              0            
    116000   282.81957     -1186.9732      209.3528      -977.6204       1266.1989      15.075005      15.075005      15.075005      0              0              0            
    117000   319.57098     -1185.7261      236.55747     -949.16863     -100.11457      15.050118      15.050118      15.050118      0              0              0            
    118000   304.56165     -1173.0367      225.44704     -947.5897      -1273.0038      15.376097      15.376097      15.376097      0              0              0            
    119000   276.28131     -1201.8365      204.51296     -997.32355      561.25362      15.022467      15.022467      15.022467      0              0              0            
    120000   312.59704     -1195.347       231.39511     -963.95192     -1601.6951      15.184467      15.184467      15.184467      0              0              0            
    121000   276.49285     -1204.2626      204.66954     -999.59306     -683.32425      15.007806      15.007806      15.007806      0              0              0            
    122000   290.93059     -1214.8457      215.35686     -999.48884      921.92003      14.854728      14.854728      14.854728      0              0              0            
    123000   279.47193     -1222.233       206.87476     -1015.3582      171.09094      14.834964      14.834964      14.834964      0              0              0            
    124000   299.78826     -1231.4295      221.91361     -1009.5159     -1045.5083      14.819464      14.819464      14.819464      0              0              0            
    125000   306.77906     -1196.6736      227.08844     -969.58518     -855.97978      15.111613      15.111613      15.111613      0              0              0            
    126000   323.22542     -1191.7721      239.2626      -952.5095       676.55477      15.002433      15.002433      15.002433      0              0              0            
    127000   308.05903     -1198.4983      228.03592     -970.46237      713.52597      15.024362      15.024362      15.024362      0              0              0            
    128000   306.12422     -1211.231       226.60371     -984.62733     -253.22907      14.957331      14.957331      14.957331      0              0              0            
    129000   272.95275     -1200.7164      202.04904     -998.66731     -1292.9972      15.271024      15.271024      15.271024      0              0              0            
    130000   296.44912     -1244.3129      219.44187     -1024.8711     -1458.0464      14.890352      14.890352      14.890352      0              0              0            
    131000   317.27694     -1223.2443      234.85934     -988.385       -1239.6028      14.899714      14.899714      14.899714      0              0              0            
    132000   303.55177     -1231.0243      224.69949     -1006.3248     -2095.9919      15.090947      15.090947      15.090947      0              0              0            
    133000   328.38138     -1207.6102      243.07922     -964.53094     -432.16453      14.965838      14.965838      14.965838      0              0              0            
    134000   300.78417     -1177.9631      222.65082     -955.31226     -1004.8519      15.021079      15.021079      15.021079      0              0              0            
    135000   293.03355     -1217.491       216.91354     -1000.5775     -1617.6177      15.112477      15.112477      15.112477      0              0              0            
    136000   328.0441      -1184.8676      242.82956     -942.03806     -554.97882      15.229189      15.229189      15.229189      0              0              0            
    137000   297.66761     -1193.8766      220.34383     -973.53279     -352.60544      15.191737      15.191737      15.191737      0              0              0            
    138000   291.68654     -1200.6651      215.91644     -984.7487      -911.18437      15.056544      15.056544      15.056544      0              0              0            
    139000   299.75282     -1223.6749      221.88738     -1001.7875     -332.5557       14.774407      14.774407      14.774407      0              0              0            
    140000   320.33096     -1225.6875      237.12003     -988.56744      1069.9797      14.906721      14.906721      14.906721      0              0              0            
    141000   317.67376     -1227.0726      235.15308     -991.91951     -101.10244      14.942952      14.942952      14.942952      0              0              0            
    142000   317.69729     -1214.8098      235.1705      -979.63929     -353.5234       14.928604      14.928604      14.928604      0              0              0            
    143000   277.93391     -1180.902       205.73627     -975.16578     -1052.6498      15.167371      15.167371      15.167371      0              0              0            
    144000   265.79451     -1202.3013      196.75027     -1005.5511      920.07002      14.921021      14.921021      14.921021      0              0              0            
    145000   281.36582     -1224.0651      208.27669     -1015.7884     -304.43667      14.875632      14.875632      14.875632      0              0              0            
    146000   295.51047     -1244.8482      218.74705     -1026.1011      631.24733      14.964509      14.964509      14.964509      0              0              0            
    147000   326.54667     -1194.3546      241.72111     -952.63348      937.35966      14.862993      14.862993      14.862993      0              0              0            
    148000   280.64763     -1201.5954      207.74506     -993.85036     -1145.3737      14.823021      14.823021      14.823021      0              0              0            
    149000   299.98059     -1206.0917      222.05598     -984.03573     -650.9913       15.132834      15.132834      15.132834      0              0              0            
    150000   301.21266     -1178.9462      222.968       -955.97822     -299.73596      15.42931       15.42931       15.42931       0              0              0            
    151000   290.60119     -1206.2189      215.11303     -991.10583      1249.4869      15.07029       15.07029       15.07029       0              0              0            
    152000   291.73114     -1209.7808      215.94945     -993.8313       56.241014      14.774354      14.774354      14.774354      0              0              0            
    153000   289.05461     -1234.1469      213.96819     -1020.1788     -1125.9551      15.012537      15.012537      15.012537      0              0              0            
    154000   304.2383      -1194.5728      225.20768     -969.36508     -390.17916      14.893348      14.893348      14.893348      0              0              0            
    155000   324.36463     -1190.3977      240.10589     -950.29181     -1500.7632      15.276257      15.276257      15.276257      0              0              0            
    156000   300.82599     -1186.4887      222.68177     -963.80688      3365.4718      14.802336      14.802336      14.802336      0              0              0            
    157000   328.99968     -1217.5255      243.53692     -973.98859     -58.555767      14.896828      14.896828      14.896828      0              0              0            
    158000   276.83218     -1198.8961      204.92073     -993.97532     -552.1588       15.08398       15.08398       15.08398       0              0              0            
    159000   295.08266     -1191.1116      218.43037     -972.6812      -73.576561      15.365704      15.365704      15.365704      0              0              0            
    160000   278.79214     -1230.9104      206.37156     -1024.5388     -2006.1529      14.915766      14.915766      14.915766      0              0              0            
    161000   317.26786     -1189.3563      234.85262     -954.50364      727.58421      14.959005      14.959005      14.959005      0              0              0            
    162000   304.02639     -1175.8184      225.05082     -950.76758     -3057.0381      15.063674      15.063674      15.063674      0              0              0            
    163000   293.62292     -1180.5104      217.34982     -963.16059     -1406.8906      15.368135      15.368135      15.368135      0              0              0            
    164000   290.35447     -1216.3534      214.93039     -1001.423      -674.20601      14.703624      14.703624      14.703624      0              0              0            
    165000   300.81563     -1207.4862      222.6741      -984.81211      317.66798      14.74004       14.74004       14.74004       0              0              0            
    166000   300.32576     -1229.8083      222.31149     -1007.4968     -970.47707      14.8603        14.8603        14.8603        0              0              0            
    167000   278.07542     -1205.9968      205.84102     -1000.1558      1363.643       15.106472      15.106472      15.106472      0              0              0            
    168000   301.58248     -1194.7409      223.24175     -971.49918      453.89603      15.07857       15.07857       15.07857       0              0              0            
    169000   294.56093     -1211.1112      218.04416     -993.06706      183.12456      14.909872      14.909872      14.909872      0              0              0            
    170000   307.07986     -1219.3158      227.3111      -992.0047       46.157218      14.99024       14.99024       14.99024       0              0              0            
    171000   298.65471     -1191.4549      221.07452     -970.38035     -706.50992      15.216862      15.216862      15.216862      0              0              0            
    172000   288.1529      -1167.4124      213.30071     -954.11168     -121.31132      15.021273      15.021273      15.021273      0              0              0            
    173000   294.48559     -1208.1359      217.98839     -990.14746      1045.3218      14.933488      14.933488      14.933488      0              0              0            
    174000   281.72592     -1210.0198      208.54324     -1001.4766      23.804263      15.286265      15.286265      15.286265      0              0              0            
    175000   312.63188     -1176.52        231.4209      -945.09907      2424.6755      15.183209      15.183209      15.183209      0              0              0            
    176000   277.11963     -1197.9955      205.13351     -992.86201     -1316.5105      14.730739      14.730739      14.730739      0              0              0            
    177000   310.15744     -1206.0437      229.58924     -976.45442     -147.10115      15.227089      15.227089      15.227089      0              0              0            
    178000   302.29469     -1187.3698      223.76896     -963.60084     -76.3476        15.112385      15.112385      15.112385      0              0              0            
    179000   291.30802     -1200.038       215.63624     -984.40174     -808.83935      14.953422      14.953422      14.953422      0              0              0            
    180000   282.20099     -1210.7537      208.89491     -1001.8588      589.20113      14.964892      14.964892      14.964892      0              0              0            
    181000   291.94499     -1209.6304      216.10775     -993.52269      329.67282      15.061796      15.061796      15.061796      0              0              0            
    182000   289.53287     -1176.2169      214.32222     -961.89467      1128.5468      15.017438      15.017438      15.017438      0              0              0            
    183000   271.77398     -1195.1925      201.17648     -994.01599     -1280.3685      15.235281      15.235281      15.235281      0              0              0            
    184000   289.48667     -1194.9248      214.28802     -980.63679      603.17681      14.983062      14.983062      14.983062      0              0              0            
    185000   309.87205     -1213.5573      229.37798     -984.17934      1652.6509      14.828198      14.828198      14.828198      0              0              0            
    186000   274.1807      -1221.5766      202.95802     -1018.6186     -2092.7832      15.054141      15.054141      15.054141      0              0              0            
    187000   314.1466      -1205.3232      232.54215     -972.78104      226.40675      15.141177      15.141177      15.141177      0              0              0            
    188000   301.1774      -1174.9582      222.9419      -952.01628     -786.23211      15.008208      15.008208      15.008208      0              0              0            
    189000   310.17001     -1242.7566      229.59854     -1013.1581      1053.1888      14.719112      14.719112      14.719112      0              0              0            
    190000   293.66543     -1199.3596      217.38128     -981.9783      -963.31536      14.939088      14.939088      14.939088      0              0              0            
    191000   308.45443     -1186.5873      228.32861     -958.25865     -2129.7057      15.237437      15.237437      15.237437      0              0              0            
    192000   307.20212     -1217.2366      227.40161     -989.83497      3114.4125      14.975435      14.975435      14.975435      0              0              0            
    193000   320.46468     -1223.0255      237.21901     -985.80646     -1215.947       14.785772      14.785772      14.785772      0              0              0            
    194000   296.8698      -1190.8014      219.75326     -971.04814      2776.8838      14.696919      14.696919      14.696919      0              0              0            
    195000   283.30432     -1189.1589      209.71163     -979.44722     -492.55946      15.217774      15.217774      15.217774      0              0              0            
    196000   325.40186     -1214.0463      240.87368     -973.17259     -2340.5378      15.185417      15.185417      15.185417      0              0              0            
    197000   298.88395     -1190.3819      221.24421     -969.13768      253.32611      15.062099      15.062099      15.062099      0              0              0            
    198000   319.46085     -1234.258       236.47594     -997.7821      -600.38678      14.960888      14.960888      14.960888      0              0              0            
    199000   301.21222     -1193.2134      222.96768     -970.24576     -684.86471      15.259712      15.259712      15.259712      0              0              0            
    200000   296.37949     -1215.612       219.39032     -996.22163      63.445775      14.811557      14.811557      14.811557      0              0              0            
    201000   286.04503     -1228.1879      211.7404      -1016.4475      801.02389      14.789129      14.789129      14.789129      0              0              0            
    202000   321.0579      -1194.9086      237.65813     -957.25049      904.07556      15.090678      15.090678      15.090678      0              0              0            
    203000   309.28121     -1234.0011      228.94062     -1005.0604     -214.64387      14.904432      14.904432      14.904432      0              0              0            
    204000   321.96851     -1208.3509      238.3322      -970.01872      12.971962      14.866623      14.866623      14.866623      0              0              0            
    205000   277.04116     -1230.4048      205.07542     -1025.3294      207.16151      14.723497      14.723497      14.723497      0              0              0            
    206000   321.57545     -1194.5339      238.04124     -956.49261      75.225984      14.911188      14.911188      14.911188      0              0              0            
    207000   289.43944     -1191.6483      214.25306     -977.39523      2422.5158      14.854167      14.854167      14.854167      0              0              0            
    208000   277.60853     -1234.0286      205.49541     -1028.5332     -1908.642       14.953502      14.953502      14.953502      0              0              0            
    209000   303.38786     -1213.4603      224.57816     -988.8821      -1546.0999      15.014267      15.014267      15.014267      0              0              0            
    210000   312.18227     -1200.2035      231.08809     -969.11538      410.20312      15.212338      15.212338      15.212338      0              0              0            
    211000   287.23099     -1210.1658      212.61829     -997.54753      990.88012      15.075243      15.075243      15.075243      0              0              0            
    212000   338.85612     -1221.3808      250.83299     -970.5478      -1219.9961      14.987864      14.987864      14.987864      0              0              0            
    213000   309.0233      -1159.1649      228.74971     -930.41521     -705.65809      15.146422      15.146422      15.146422      0              0              0            
    214000   308.26349     -1180.6966      228.18727     -952.5093       1509.5182      15.240481      15.240481      15.240481      0              0              0            
    215000   289.69028     -1165.1117      214.43874     -950.673        2224.9332      14.868474      14.868474      14.868474      0              0              0            
    216000   314.67293     -1224.8701      232.93176     -991.93837     -58.795991      14.659698      14.659698      14.659698      0              0              0            
    217000   303.37587     -1228.6296      224.56929     -1004.0603     -873.68209      14.915808      14.915808      14.915808      0              0              0            
    218000   298.87015     -1228.8958      221.23399     -1007.6618      1157.8403      14.873398      14.873398      14.873398      0              0              0            
    219000   295.18816     -1218.2902      218.50846     -999.78173     -1057.2087      15.218965      15.218965      15.218965      0              0              0            
    220000   290.31785     -1167.9259      214.90329     -953.0226      -1307.8935      15.116216      15.116216      15.116216      0              0              0            
    221000   296.43347     -1146.651       219.43028     -927.2207       1075.1981      15.105225      15.105225      15.105225      0              0              0            
    222000   298.95233     -1177.4132      221.29483     -956.11842      1498.9414      15.19968       15.19968       15.19968       0              0              0            
    223000   322.33995     -1159.8086      238.60715     -921.20146      598.44687      15.153161      15.153161      15.153161      0              0              0            
    224000   287.37149     -1230.22        212.72229     -1017.4977      1666.3205      14.579492      14.579492      14.579492      0              0              0            
    225000   327.16159     -1199.888       242.17629     -957.71173      2315.35        15.001297      15.001297      15.001297      0              0              0            
    226000   297.1289      -1181.8173      219.94506     -961.87221     -2181.9765      15.215103      15.215103      15.215103      0              0              0            
    227000   307.70498     -1207.4734      227.77384     -979.69961      1134.0877      15.043438      15.043438      15.043438      0              0              0            
    228000   302.58768     -1225.0252      223.98584     -1001.0393      917.97822      14.784102      14.784102      14.784102      0              0              0            
    229000   313.68871     -1179.118       232.2032      -946.91477      970.27374      15.152602      15.152602      15.152602      0              0              0            
    230000   299.12812     -1226.7789      221.42495     -1005.3539      739.84832      14.938389      14.938389      14.938389      0              0              0            
    231000   271.43156     -1211.7779      200.92301     -1010.8549      777.15637      14.765378      14.765378      14.765378      0              0              0            
    232000   301.04595     -1230.7061      222.84459     -1007.8615     -303.44188      14.697308      14.697308      14.697308      0              0              0            
    233000   314.10315     -1208.099       232.50999     -975.58897     -1241.8807      15.193674      15.193674      15.193674      0              0              0            
    234000   281.8818      -1193.3685      208.65863     -984.7099       390.1213       15.15819       15.15819       15.15819       0              0              0            
    235000   299.77986     -1220.3199      221.90739     -998.41251      2037.6896      14.984561      14.984561      14.984561      0              0              0            
    236000   281.52718     -1192.4274      208.39613     -984.03124      750.52303      15.087321      15.087321      15.087321      0              0              0            
    237000   290.71978     -1183.7972      215.20081     -968.5964       1493.5531      14.894807      14.894807      14.894807      0              0              0            
    238000   295.14653     -1164.3698      218.47765     -945.8922       438.71547      15.009729      15.009729      15.009729      0              0              0            
    239000   305.35013     -1215.8519      226.0307      -989.82125      2030.5516      14.760778      14.760778      14.760778      0              0              0            
    240000   301.53972     -1220.6265      223.2101      -997.41643     -398.60053      14.871398      14.871398      14.871398      0              0              0            
    241000   303.79886     -1228.6877      224.88239     -1003.8053      1355.1955      14.919214      14.919214      14.919214      0              0              0            
    242000   290.44912     -1216.4018      215.00046     -1001.4014     -1968.155       15.176242      15.176242      15.176242      0              0              0            
    243000   280.58929     -1204.5635      207.70187     -996.86162     -360.79895      14.936658      14.936658      14.936658      0              0              0            
    244000   279.00194     -1205.4836      206.52686     -998.95673      1004.1494      14.902946      14.902946      14.902946      0              0              0            
    245000   306.7312      -1200.8572      227.05302     -973.80416     -371.02378      14.933573      14.933573      14.933573      0              0              0            
    246000   315.1753      -1222.8948      233.30363     -989.59119     -830.72419      14.979178      14.979178      14.979178      0              0              0            
    247000   296.43615     -1218.335       219.43226     -998.90278      393.48081      14.944721      14.944721      14.944721      0              0              0            
    248000   283.03613     -1221.8289      209.51311     -1012.3158     -1220.6313      14.996559      14.996559      14.996559      0              0              0            
    249000   283.6232      -1178.2845      209.94768     -968.3368      -791.87606      15.076827      15.076827      15.076827      0              0              0            
    250000   292.59411     -1199.7396      216.58825     -983.15136      1734.2581      14.953098      14.953098      14.953098      0              0              0            
    251000   307.93539     -1218.4861      227.9444      -990.54171     -164.40897      15.125511      15.125511      15.125511      0              0              0            
    252000   290.95065     -1212.2376      215.37171     -996.86593     -248.05801      15.211632      15.211632      15.211632      0              0              0            
    253000   285.41087     -1208.5886      211.27097     -997.31768     -1183.2938      15.026102      15.026102      15.026102      0              0              0            
    254000   319.15342     -1210.3108      236.24837     -974.06239      229.28656      14.780048      14.780048      14.780048      0              0              0            
    255000   281.2908      -1182.6621      208.22115     -974.44099      710.64829      14.904252      14.904252      14.904252      0              0              0            
    256000   305.80884     -1180.4864      226.37025     -954.11619     -39.220374      15.371363      15.371363      15.371363      0              0              0            
    257000   302.70907     -1193.5114      224.0757      -969.43567      338.28104      15.280021      15.280021      15.280021      0              0              0            
    258000   298.17187     -1217.1964      220.7171      -996.47929      1329.3103      15.193542      15.193542      15.193542      0              0              0            
    259000   294.46716     -1202.5951      217.97475     -984.62033     -1811.6765      15.137794      15.137794      15.137794      0              0              0            
    260000   286.14447     -1206.6474      211.81401     -994.83337      2065.8368      15.241698      15.241698      15.241698      0              0              0            
    261000   304.27414     -1204.2132      225.23422     -978.97894      157.76926      14.961988      14.961988      14.961988      0              0              0            
    262000   280.4014      -1210.8543      207.56279     -1003.2915      1545.0848      14.804427      14.804427      14.804427      0              0              0            
    263000   289.65066     -1192.41        214.40941     -978.0006       701.50999      15.296227      15.296227      15.296227      0              0              0            
    264000   283.96989     -1205.5126      210.20431     -995.30832      668.00124      14.956654      14.956654      14.956654      0              0              0            
    265000   303.95621     -1233.587       224.99888     -1008.5881      208.18297      14.796442      14.796442      14.796442      0              0              0            
    266000   290.86373     -1212.5306      215.30737     -997.22328      611.04788      15.318902      15.318902      15.318902      0              0              0            
    267000   286.16696     -1183.727       211.83065     -971.89636     -1056.105       15.331701      15.331701      15.331701      0              0              0            
    268000   292.28108     -1196.0485      216.35654     -979.69197      369.60066      14.820876      14.820876      14.820876      0              0              0            
    269000   295.12412     -1234.5401      218.46105     -1016.079      -8.0380462      14.85198       14.85198       14.85198       0              0              0            
    270000   293.35969     -1206.0804      217.15497     -988.92548      1004.4398      15.057182      15.057182      15.057182      0              0              0            
    271000   295.36133     -1167.4177      218.63664     -948.78108      1805.2866      15.1664        15.1664        15.1664        0              0              0            
    272000   311.15899     -1194.4823      230.33062     -964.15172     -289.40009      15.051174      15.051174      15.051174      0              0              0            
    273000   307.40372     -1207.1976      227.55084     -979.64672     -848.24377      15.135468      15.135468      15.135468      0              0              0            
    274000   322.91213     -1198.1468      239.03069     -959.11609      2084.399       15.024969      15.024969      15.024969      0              0              0            
    275000   281.55845     -1220.4657      208.41927     -1012.0464      74.375087      14.99845       14.99845       14.99845       0              0              0            
    276000   309.45031     -1206.5276      229.0658      -977.46182     -1485.5356      14.950572      14.950572      14.950572      0              0              0            
    277000   304.35669     -1183.7563      225.29532     -958.46101     -331.96863      15.395391      15.395391      15.395391      0              0              0            
    278000   288.85299     -1190.0694      213.81895     -976.25043      1317.1911      14.870077      14.870077      14.870077      0              0              0            
    279000   296.74576     -1236.4424      219.66145     -1016.7809     -238.57222      14.97326       14.97326       14.97326       0              0              0            
    280000   311.57527     -1233.5957      230.63876     -1002.9569      606.244        14.961372      14.961372      14.961372      0              0              0            
    281000   329.58794     -1213.5571      243.97236     -969.5847      -802.37492      15.105451      15.105451      15.105451      0              0              0            
    282000   310.3262      -1191.9995      229.71416     -962.28531      217.99923      15.01375       15.01375       15.01375       0              0              0            
    283000   316.60041     -1238.8394      234.35854     -1004.4809      1889.8192      14.815732      14.815732      14.815732      0              0              0            
    284000   311.67386     -1206.6346      230.71174     -975.92283     -40.930851      15.120333      15.120333      15.120333      0              0              0            
    285000   313.63193     -1189.3921      232.16118     -957.23092     -485.6334       15.060608      15.060608      15.060608      0              0              0            
    286000   300.26032     -1239.6872      222.26305     -1017.4241      697.97356      14.78717       14.78717       14.78717       0              0              0            
    287000   299.71791     -1220.1779      221.86154     -998.31638     -711.9942       15.021696      15.021696      15.021696      0              0              0            
    288000   317.60076     -1209.8656      235.09904     -974.76651      795.47209      14.931494      14.931494      14.931494      0              0              0            
    289000   320.21439     -1203.2639      237.03374     -966.23019      1998.5885      14.967095      14.967095      14.967095      0              0              0            
    290000   299.92297     -1184.4333      222.01333     -962.41998     -549.25894      15.26567       15.26567       15.26567       0              0              0            
    291000   286.06722     -1225.5703      211.75682     -1013.8135      1957.5858      14.634955      14.634955      14.634955      0              0              0            
    292000   322.35805     -1227.0038      238.62055     -988.38327     -478.36851      14.849261      14.849261      14.849261      0              0              0            
    293000   299.10601     -1221.6299      221.40859     -1000.2213     -583.05964      14.74803       14.74803       14.74803       0              0              0            
    294000   306.20401     -1199.7865      226.66277     -973.12374      2578.2083      14.863051      14.863051      14.863051      0              0              0            
    295000   319.03171     -1165.8301      236.15828     -929.67183      1533.6646      15.197236      15.197236      15.197236      0              0              0            
    296000   292.83345     -1193.4684      216.76542     -976.70294      340.62378      14.895402      14.895402      14.895402      0              0              0            
    297000   313.46095     -1203.8883      232.03461     -971.8537      -1462.956       14.949832      14.949832      14.949832      0              0              0            
    298000   322.07873     -1196.5575      238.41379     -958.14376      4.059393       14.947649      14.947649      14.947649      0              0              0            
    299000   300.06627     -1175.2421      222.1194      -953.12272     -1144.8208      15.135906      15.135906      15.135906      0              0              0            
    300000   313.59696     -1191.1687      232.13529     -959.03341     -156.28446      15.038924      15.038924      15.038924      0              0              0            
    301000   324.2043      -1186.1438      239.9872      -946.15659     -297.23131      15.103421      15.103421      15.103421      0              0              0            
    302000   285.62725     -1205.4214      211.43115     -993.99029      2845.0343      14.942531      14.942531      14.942531      0              0              0            
    303000   304.43736     -1226.4849      225.35504     -1001.1299     -1747.0234      15.006744      15.006744      15.006744      0              0              0            
    304000   294.18464     -1213.1747      217.76562     -995.40904     -1850.878       15.217531      15.217531      15.217531      0              0              0            
    305000   291.40692     -1221.4679      215.70945     -1005.7585      360.68849      15.074328      15.074328      15.074328      0              0              0            
    306000   297.27308     -1202.1186      220.05179     -982.06682      720.45212      14.986765      14.986765      14.986765      0              0              0            
    307000   279.47072     -1202.886       206.87387     -996.01208     -2188.1007      14.946616      14.946616      14.946616      0              0              0            
    308000   290.23664     -1200.1816      214.84317     -985.33839      1269.2115      14.835046      14.835046      14.835046      0              0              0            
    309000   311.46513     -1201.9385      230.55723     -971.38123     -13.835606      14.955285      14.955285      14.955285      0              0              0            
    310000   302.00315     -1176.0151      223.55315     -952.46194      314.24361      15.077237      15.077237      15.077237      0              0              0            
    311000   301.86716     -1193.3283      223.45248     -969.87581     -353.09196      15.207949      15.207949      15.207949      0              0              0            
    312000   321.33186     -1195.9859      237.86093     -958.12494      1589.2808      15.009137      15.009137      15.009137      0              0              0            
    313000   325.59496     -1235.7976      241.01662     -994.78097     -1351.6318      14.776787      14.776787      14.776787      0              0              0            
    314000   291.02926     -1209.5581      215.4299      -994.12825     -1701.0977      14.858742      14.858742      14.858742      0              0              0            
    315000   298.91005     -1218.5545      221.26353     -997.29093     -268.95266      14.782082      14.782082      14.782082      0              0              0            
    316000   274.94606     -1212.108       203.52456     -1008.5835      1905.3669      15.099314      15.099314      15.099314      0              0              0            
    317000   277.98828     -1197.2646      205.77651     -991.48808     -1267.082       15.034372      15.034372      15.034372      0              0              0            
    318000   323.27523     -1207.5192      239.29947     -968.21971     -547.42205      15.14923       15.14923       15.14923       0              0              0            
    319000   306.02777     -1218.6471      226.53231     -992.11481     -593.73322      14.999545      14.999545      14.999545      0              0              0            
    320000   299.24136     -1203.4572      221.50878     -981.94843     -809.48265      15.117775      15.117775      15.117775      0              0              0            
    321000   321.51677     -1195.0637      237.9978      -957.06586      298.92956      15.033132      15.033132      15.033132      0              0              0            
    322000   307.57392     -1197.397       227.67682     -969.72015      1052.4791      14.786901      14.786901      14.786901      0              0              0            
    323000   314.145       -1229.881       232.54097     -997.34003     -11.543891      14.810401      14.810401      14.810401      0              0              0            
    324000   308.70694     -1213.4202      228.51552     -984.90463      621.18412      14.952466      14.952466      14.952466      0              0              0            
    325000   295.73308     -1177.7454      218.91183     -958.83355      185.87494      15.040249      15.040249      15.040249      0              0              0            
    326000   276.37026     -1209.4316      204.5788      -1004.8528      370.4531       14.966287      14.966287      14.966287      0              0              0            
    327000   274.56682     -1181.2437      203.24383     -977.99987      66.151752      15.090772      15.090772      15.090772      0              0              0            
    328000   314.8252      -1188.8443      233.04448     -955.79985      822.37753      14.849547      14.849547      14.849547      0              0              0            
    329000   288.36258     -1207.8882      213.45593     -994.43229      1003.853       14.828044      14.828044      14.828044      0              0              0            
    330000   294.4911      -1193.9442      217.99247     -975.95168     -1316.5922      14.963757      14.963757      14.963757      0              0              0            
    331000   303.35714     -1194.3133      224.55542     -969.75792      1210.7002      15.016673      15.016673      15.016673      0              0              0            
    332000   325.27416     -1177.8799      240.77915     -937.10078      1832.6585      14.846575      14.846575      14.846575      0              0              0            
    333000   280.11667     -1216.2773      207.35202     -1008.9252     -1542.0837      14.987215      14.987215      14.987215      0              0              0            
    334000   310.98118     -1196.3842      230.199       -966.18524      621.53722      14.981838      14.981838      14.981838      0              0              0            
    335000   297.60421     -1216.5853      220.2969      -996.28845     -223.52008      14.821785      14.821785      14.821785      0              0              0            
    336000   316.94249     -1198.679       234.61177     -964.06722     -1184.5864      15.016958      15.016958      15.016958      0              0              0            
    337000   335.37027     -1176.2007      248.25265     -927.94804      1267.2442      15.070252      15.070252      15.070252      0              0              0            
    338000   270.97141     -1218.47        200.58239     -1017.8876     -659.33715      15.004463      15.004463      15.004463      0              0              0            
    339000   342.04994     -1201.5836      253.19716     -948.38639     -580.80579      15.121635      15.121635      15.121635      0              0              0            
    340000   305.61963     -1236.9931      226.23019     -1010.7629     -1790.2018      14.963818      14.963818      14.963818      0              0              0            
    341000   274.28737     -1216.9209      203.03697     -1013.884      -1765.671       15.178772      15.178772      15.178772      0              0              0            
    342000   305.09263     -1199.4171      225.84009     -973.57704     -1063.9641      15.387404      15.387404      15.387404      0              0              0            
    343000   319.12153     -1193.8283      236.22476     -957.60358      1358.1437      14.943139      14.943139      14.943139      0              0              0            
    344000   323.84198     -1224.0771      239.719       -984.35809     -737.18771      14.998247      14.998247      14.998247      0              0              0            
    345000   307.42029     -1206.0555      227.5631      -978.4924      -724.01819      15.174518      15.174518      15.174518      0              0              0            
    346000   280.95268     -1205.6917      207.97087     -997.72086      1855.4803      14.916532      14.916532      14.916532      0              0              0            
    347000   315.67957     -1213.0694      233.67691     -979.39253      140.99795      14.886796      14.886796      14.886796      0              0              0            
    348000   292.83749     -1231.3036      216.76841     -1014.5352     -1920.6394      15.137032      15.137032      15.137032      0              0              0            
    349000   316.67511     -1226.2658      234.41384     -991.85197     -438.23126      14.886117      14.886117      14.886117      0              0              0            
    350000   281.20081     -1216.4668      208.15454     -1008.3123      2361.7515      14.818404      14.818404      14.818404      0              0              0            
    351000   302.07937     -1222.8947      223.60957     -999.28516      292.90333      14.94476       14.94476       14.94476       0              0              0            
    352000   307.32622     -1247.7499      227.49347     -1020.2564     -147.78578      14.731489      14.731489      14.731489      0              0              0            
    353000   302.36412     -1177.8392      223.82035     -954.01885      1203.8824      15.025576      15.025576      15.025576      0              0              0            
    354000   282.45676     -1208.7068      209.08424     -999.6226      -1426.7648      14.889744      14.889744      14.889744      0              0              0            
    355000   310.06103     -1164.2919      229.51787     -934.774       -332.48262      15.125033      15.125033      15.125033      0              0              0            
    356000   314.30572     -1208.4653      232.65994     -975.80535      535.26463      14.905652      14.905652      14.905652      0              0              0            
    357000   314.49672     -1174.8723      232.80132     -942.07095      65.558268      15.077655      15.077655      15.077655      0              0              0            
    358000   300.28117     -1185.1112      222.27848     -962.83275     -102.48683      14.861298      14.861298      14.861298      0              0              0            
    359000   277.99073     -1193.0438      205.77833     -987.26551      143.65351      14.888731      14.888731      14.888731      0              0              0            
    360000   278.89043     -1235.0687      206.44432     -1028.6244     -440.89851      14.959999      14.959999      14.959999      0              0              0            
    361000   318.15518     -1204.862       235.50944     -969.35255      1009.2728      14.923189      14.923189      14.923189      0              0              0            
    362000   313.92279     -1217.7061      232.37648     -985.32961      91.285232      15.142639      15.142639      15.142639      0              0              0            
    363000   321.5151      -1213.4494      237.99657     -975.45282      2009.9276      14.819578      14.819578      14.819578      0              0              0            
    364000   312.50722     -1249.3629      231.32863     -1018.0343     -280.21127      15.061579      15.061579      15.061579      0              0              0            
    365000   281.91253     -1211.2755      208.68138     -1002.5941      604.86032      14.978807      14.978807      14.978807      0              0              0            
    366000   302.78975     -1191.653       224.13542     -967.51755     -21.585222      14.777575      14.777575      14.777575      0              0              0            
    367000   310.20035     -1188.2519      229.621       -958.63086     -2084.5124      15.196951      15.196951      15.196951      0              0              0            
    368000   275.56946     -1206.8627      203.98602     -1002.8766      1169.0683      14.997572      14.997572      14.997572      0              0              0            
    369000   300.591       -1223.2097      222.50783     -1000.7019     -1412.4095      15.028781      15.028781      15.028781      0              0              0            
    370000   311.89222     -1199.7291      230.87338     -968.85568      467.71575      14.925308      14.925308      14.925308      0              0              0            
    371000   307.80875     -1205.001       227.85065     -977.15032     -1092.3424      14.960866      14.960866      14.960866      0              0              0            
    372000   299.89724     -1213.7294      221.99428     -991.73507     -403.14772      15.202502      15.202502      15.202502      0              0              0            
    373000   296.49258     -1209.4961      219.47403     -990.02209     -1897.0875      15.347457      15.347457      15.347457      0              0              0            
    374000   320.13999     -1215.2391      236.97866     -978.26043      987.92467      15.196682      15.196682      15.196682      0              0              0            
    375000   288.19458     -1164.0291      213.33157     -950.69755      306.71897      15.357112      15.357112      15.357112      0              0              0            
    376000   280.75361     -1193.5351      207.82351     -985.7116      -970.0048       15.068481      15.068481      15.068481      0              0              0            
    377000   289.35988     -1212.161       214.19416     -997.96688     -1288.0092      14.856811      14.856811      14.856811      0              0              0            
    378000   296.00841     -1177.1504      219.11564     -958.03475     -41.6937        15.305042      15.305042      15.305042      0              0              0            
    379000   326.89218     -1203.7645      241.97687     -961.78763      1.5752638      15.145533      15.145533      15.145533      0              0              0            
    380000   271.11381     -1217.4284      200.6878      -1016.7406     -436.54005      15.061987      15.061987      15.061987      0              0              0            
    381000   266.0302      -1214.442       196.92473     -1017.5173      144.47789      14.950653      14.950653      14.950653      0              0              0            
    382000   325.24098     -1217.7067      240.75459     -976.95214      1744.1871      14.841027      14.841027      14.841027      0              0              0            
    383000   287.71412     -1208.7571      212.97592     -995.78114      371.10964      15.078744      15.078744      15.078744      0              0              0            
    384000   299.06084     -1211.2257      221.37515     -989.85057      957.1197       14.742251      14.742251      14.742251      0              0              0            
    385000   291.10759     -1183.0956      215.48788     -967.60768      2097.9721      14.948169      14.948169      14.948169      0              0              0            
    386000   328.6143      -1191.9638      243.25164     -948.71221      3607.7564      15.003604      15.003604      15.003604      0              0              0            
    387000   320.45196     -1240.7775      237.20959     -1003.5679     -392.89872      14.797302      14.797302      14.797302      0              0              0            
    388000   319.59332     -1206.2633      236.574       -969.68931      24.572573      14.784861      14.784861      14.784861      0              0              0            
    389000   250.30862     -1217.2095      185.28708     -1031.9224     -315.83653      14.989067      14.989067      14.989067      0              0              0            
    390000   294.69726     -1179.4924      218.14508     -961.34733     -139.17075      15.09614       15.09614       15.09614       0              0              0            
    391000   288.79015     -1224.6317      213.77243     -1010.8593     -1576.4697      15.25375       15.25375       15.25375       0              0              0            
    392000   304.75204     -1218.6244      225.58797     -993.03644      1680.1629      14.912164      14.912164      14.912164      0              0              0            
    393000   299.1824      -1185.7082      221.46513     -964.24304     -96.811407      14.924503      14.924503      14.924503      0              0              0            
    394000   290.02715     -1209.0791      214.6881      -994.39098     -1896.0853      14.979923      14.979923      14.979923      0              0              0            
    395000   270.76006     -1223.6513      200.42594     -1023.2254      465.80763      14.846642      14.846642      14.846642      0              0              0            
    396000   294.22779     -1209.9442      217.79756     -992.14661      41.064066      14.962422      14.962422      14.962422      0              0              0            
    397000   311.58294     -1173.8254      230.64444     -943.181        430.48984      15.018532      15.018532      15.018532      0              0              0            
    398000   304.44247     -1209.2113      225.35882     -983.85246     -1103.0356      15.117072      15.117072      15.117072      0              0              0            
    399000   301.18766     -1196.1402      222.9495      -973.19069     -85.93292       15.037948      15.037948      15.037948      0              0              0            
    400000   283.69768     -1219.1815      210.00281     -1009.1786     -365.58565      14.965146      14.965146      14.965146      0              0              0            
    401000   306.9362      -1197.1562      227.20476     -969.95141      1262.3128      14.939796      14.939796      14.939796      0              0              0            
    402000   343.09363     -1206.3442      253.96974     -952.37446     -1160.0858      15.307792      15.307792      15.307792      0              0              0            
    403000   301.07892     -1166.798       222.869       -943.92897     -1252.1819      15.087156      15.087156      15.087156      0              0              0            
    404000   311.59531     -1208.0665      230.6536      -977.41287      325.61858      14.826833      14.826833      14.826833      0              0              0            
    405000   302.6771      -1193.8797      224.05203     -969.82767     -387.28573      14.961245      14.961245      14.961245      0              0              0            
    406000   288.18933     -1195.3246      213.32768     -981.99687      667.00183      15.249007      15.249007      15.249007      0              0              0            
    407000   285.25102     -1228.7748      211.15264     -1017.6221     -73.965546      14.994352      14.994352      14.994352      0              0              0            
    408000   284.54858     -1207.1591      210.63268     -996.52645     -544.9975       14.984502      14.984502      14.984502      0              0              0            
    409000   281.42746     -1187.4651      208.32231     -979.14282      459.50572      14.878899      14.878899      14.878899      0              0              0            
    410000   303.51491     -1216.6997      224.6722      -992.02748     -886.79201      15.008926      15.008926      15.008926      0              0              0            
    411000   298.37284     -1213.8718      220.86587     -993.00593     -689.46356      14.964829      14.964829      14.964829      0              0              0            
    412000   303.94899     -1202.9342      224.99353     -977.94064      949.42904      15.029597      15.029597      15.029597      0              0              0            
    413000   292.79068     -1175.1764      216.73376     -958.44267     -1154.2746      15.090084      15.090084      15.090084      0              0              0            
    414000   295.40493     -1195.2414      218.66892     -976.57253     -116.26207      15.183022      15.183022      15.183022      0              0              0            
    415000   335.0735      -1227.5687      248.03296     -979.53576      3233.4446      14.788826      14.788826      14.788826      0              0              0            
    416000   267.38195     -1244.0956      197.92534     -1046.1703     -185.53534      14.77441       14.77441       14.77441       0              0              0            
    417000   299.47708     -1211.4226      221.68326     -989.7393       252.20898      14.749194      14.749194      14.749194      0              0              0            
    418000   308.7294      -1212.7759      228.53215     -984.2437      -856.66927      15.023592      15.023592      15.023592      0              0              0            
    419000   315.34385     -1194.9711      233.4284      -961.54267      2362.9924      15.160638      15.160638      15.160638      0              0              0            
    420000   281.86149     -1177.4894      208.6436      -968.84584     -48.565926      15.140592      15.140592      15.140592      0              0              0            
    421000   333.25909     -1213.4986      246.68987     -966.80877     -576.48211      14.97371       14.97371       14.97371       0              0              0            
    422000   290.25711     -1219.9306      214.85833     -1005.0722     -3888.2499      15.30233       15.30233       15.30233       0              0              0            
    423000   280.19707     -1221.2935      207.41154     -1013.8819     -1326.3919      14.803609      14.803609      14.803609      0              0              0            
    424000   313.64631     -1208.3969      232.17182     -976.22505      556.29869      14.899913      14.899913      14.899913      0              0              0            
    425000   291.44332     -1208.6901      215.7364      -992.95373     -237.39407      15.175917      15.175917      15.175917      0              0              0            
    426000   292.66207     -1200.1083      216.63856     -983.46977     -1787.8241      15.123532      15.123532      15.123532      0              0              0            
    427000   314.54261     -1186.2064      232.83529     -953.37114      19.025719      15.075007      15.075007      15.075007      0              0              0            
    428000   314.0619      -1174.9208      232.47946     -942.44136      754.54369      15.076113      15.076113      15.076113      0              0              0            
    429000   290.30589     -1213.1272      214.89443     -998.23275     -475.38356      14.839372      14.839372      14.839372      0              0              0            
    430000   291.61419     -1198.0364      215.86289     -982.17353     -175.84028      15.100642      15.100642      15.100642      0              0              0            
    431000   305.72489     -1210.4965      226.30811     -984.18841      240.64671      15.183233      15.183233      15.183233      0              0              0            
    432000   295.30587     -1197.5251      218.59559     -978.92953     -2034.3731      15.146269      15.146269      15.146269      0              0              0            
    433000   301.59162     -1189.1454      223.24852     -965.89687      814.05027      15.123207      15.123207      15.123207      0              0              0            
    434000   304.54363     -1209.9927      225.4337      -984.559        338.96156      14.923346      14.923346      14.923346      0              0              0            
    435000   295.26393     -1227.6123      218.56455     -1009.0478     -1162.4459      14.949779      14.949779      14.949779      0              0              0            
    436000   312.21055     -1182.8387      231.10902     -951.72973      4075.3393      14.925012      14.925012      14.925012      0              0              0            
    437000   323.49083     -1196.1449      239.45907     -956.68587     -280.37925      14.907462      14.907462      14.907462      0              0              0            
    438000   315.52398     -1216.1144      233.56174     -982.55263      651.97079      14.790201      14.790201      14.790201      0              0              0            
    439000   275.9614      -1215.4991      204.27615     -1011.223       1178.8019      14.895232      14.895232      14.895232      0              0              0            
    440000   295.81904     -1220.6771      218.97546     -1001.7016      656.11964      14.799758      14.799758      14.799758      0              0              0            
    441000   303.07505     -1199.032       224.34661     -974.68537     -901.61725      14.921609      14.921609      14.921609      0              0              0            
    442000   288.22105     -1194.7122      213.35117     -981.36106     -868.11907      15.214991      15.214991      15.214991      0              0              0            
    443000   305.83584     -1196.0682      226.39024     -969.67795      430.32995      15.04934       15.04934       15.04934       0              0              0            
    444000   286.4474      -1176.2119      212.03825     -964.17369      290.70937      15.05577       15.05577       15.05577       0              0              0            
    445000   292.70408     -1213.6109      216.66966     -996.94124     -1899.7388      15.161556      15.161556      15.161556      0              0              0            
    446000   314.76438     -1189.1439      232.99945     -956.14447     -1582.3597      15.174636      15.174636      15.174636      0              0              0            
    447000   308.18021     -1188.5747      228.12562     -960.44908      2555.2533      15.063497      15.063497      15.063497      0              0              0            
    448000   307.11935     -1187.4365      227.34034     -960.09612      930.05995      15.272157      15.272157      15.272157      0              0              0            
    449000   316.58322     -1181.4328      234.34582     -947.08699      314.76762      15.292969      15.292969      15.292969      0              0              0            
    450000   305.22666     -1196.9138      225.93931     -970.9745       2310.8411      14.922474      14.922474      14.922474      0              0              0            
    451000   322.783       -1171.9397      238.93511     -933.00459      44.689286      15.262604      15.262604      15.262604      0              0              0            
    452000   282.9491      -1203.8155      209.44869     -994.36681     -480.31862      14.979474      14.979474      14.979474      0              0              0            
    453000   285.10414     -1205.6099      211.04392     -994.56594      171.05857      14.954184      14.954184      14.954184      0              0              0            
    454000   316.42493     -1211.8932      234.22865     -977.66451      784.04697      15.081525      15.081525      15.081525      0              0              0            
    455000   283.09269     -1200.0721      209.55498     -990.51709      1118.5778      14.860052      14.860052      14.860052      0              0              0            
    456000   305.48337     -1230.9256      226.12933     -1004.7963      1266.1896      14.802225      14.802225      14.802225      0              0              0            
    457000   293.36395     -1192.1758      217.15812     -975.01766     -380.44807      15.139142      15.139142      15.139142      0              0              0            
    458000   291.37756     -1198.8398      215.68772     -983.15203      1235.4609      14.921596      14.921596      14.921596      0              0              0            
    459000   317.46547     -1201.3785      234.99889     -966.37962      507.70474      14.938867      14.938867      14.938867      0              0              0            
    460000   318.63408     -1194.7827      235.86394     -958.91872      2386.633       14.754862      14.754862      14.754862      0              0              0            
    461000   309.79311     -1177.7035      229.31954     -948.38398     -611.04926      15.190325      15.190325      15.190325      0              0              0            
    462000   304.12879     -1204.1128      225.12662     -978.98616      102.49026      15.012817      15.012817      15.012817      0              0              0            
    463000   306.05167     -1225.611       226.55        -999.06102      1042.5895      15.010319      15.010319      15.010319      0              0              0            
    464000   310.09121     -1182.287       229.54021     -952.74679      1091.635       14.882822      14.882822      14.882822      0              0              0            
    465000   319.55923     -1215.0143      236.54876     -978.46551     -712.39811      15.107786      15.107786      15.107786      0              0              0            
    466000   299.9917      -1218.1916      222.0642      -996.12735      173.54831      15.217148      15.217148      15.217148      0              0              0            
    467000   296.51278     -1216.7524      219.48899     -997.26338     -2912.5792      15.313937      15.313937      15.313937      0              0              0            
    468000   290.07066     -1232.1845      214.72031     -1017.4642     -1389.4348      15.026156      15.026156      15.026156      0              0              0            
    469000   294.50158     -1174.7706      218.00023     -956.77035     -117.29746      14.964074      14.964074      14.964074      0              0              0            
    470000   289.72114     -1205.911       214.46158     -991.44938     -1342.926       14.978363      14.978363      14.978363      0              0              0            
    471000   283.67864     -1195.3295      209.98872     -985.3408      -1251.0372      15.126597      15.126597      15.126597      0              0              0            
    472000   301.63366     -1179.9072      223.27964     -956.62756     -21.075428      15.007938      15.007938      15.007938      0              0              0            
    473000   304.44241     -1231.6385      225.35877     -1006.2797     -1745.4982      14.9176        14.9176        14.9176        0              0              0            
    474000   269.6855      -1240.7955      199.63051     -1041.165       710.53952      14.955032      14.955032      14.955032      0              0              0            
    475000   288.96084     -1186.6099      213.89878     -972.71112     -11.476941      15.084982      15.084982      15.084982      0              0              0            
    476000   305.88558     -1216.7089      226.42706     -990.28188      725.37669      14.709768      14.709768      14.709768      0              0              0            
    477000   312.87906     -1214.5733      231.60387     -982.96946      3608.4441      14.788904      14.788904      14.788904      0              0              0            
    478000   280.72343     -1231.7486      207.80116     -1023.9475      903.41885      14.976101      14.976101      14.976101      0              0              0            
    479000   286.48667     -1228.6349      212.06731     -1016.5675     -1671.6977      15.115576      15.115576      15.115576      0              0              0            
    480000   294.46329     -1195.0731      217.97189     -977.1012       1411.8018      15.078676      15.078676      15.078676      0              0              0            
    481000   295.88415     -1238.6311      219.02365     -1019.6075      1286.3293      14.870568      14.870568      14.870568      0              0              0            
    482000   298.05022     -1263.0305      220.62705     -1042.4034      365.90996      14.7472        14.7472        14.7472        0              0              0            
    483000   305.95399     -1229.4534      226.4777      -1002.9757     -1054.9567      14.896694      14.896694      14.896694      0              0              0            
    484000   288.75061     -1169.9026      213.74316     -956.15945     -558.60725      15.078289      15.078289      15.078289      0              0              0            
    485000   309.12674     -1198.1714      228.82628     -969.34509      1118.5732      14.830396      14.830396      14.830396      0              0              0            
    486000   305.76073     -1207.0688      226.33464     -980.73413     -751.61122      14.930552      14.930552      14.930552      0              0              0            
    487000   288.13411     -1209.7416      213.2868      -996.45478     -801.93518      15.164785      15.164785      15.164785      0              0              0            
    488000   285.72274     -1201.9868      211.50183     -990.48495      1982.6521      14.902796      14.902796      14.902796      0              0              0            
    489000   293.20412     -1202.2959      217.03981     -985.25607      684.7207       14.917109      14.917109      14.917109      0              0              0            
    490000   310.37493     -1197.4804      229.75023     -967.73014     -1322.4602      15.16223       15.16223       15.16223       0              0              0            
    491000   317.99386     -1189.5677      235.39003     -954.17768     -956.89991      14.940496      14.940496      14.940496      0              0              0            
    492000   289.33569     -1175.4661      214.17626     -961.28988     -1368.4839      15.355078      15.355078      15.355078      0              0              0            
    493000   278.60809     -1200.3545      206.23532     -994.11918     -257.10176      14.958391      14.958391      14.958391      0              0              0            
    494000   270.51208     -1210.7146      200.24237     -1010.4722      0.46115678     14.758695      14.758695      14.758695      0              0              0            
    495000   258.22596     -1229.3364      191.14777     -1038.1887      334.24857      14.868512      14.868512      14.868512      0              0              0            
    496000   305.03968     -1233.1986      225.8009      -1007.3977     -2135.6073      14.829695      14.829695      14.829695      0              0              0            
    497000   309.21818     -1208.2439      228.89397     -979.34992      462.02693      14.917489      14.917489      14.917489      0              0              0            
    498000   315.84122     -1195.8588      233.79657     -962.06221     -927.9141       15.07116       15.07116       15.07116       0              0              0            
    499000   292.73518     -1215.3115      216.69268     -998.61886     -1261.5204      14.927506      14.927506      14.927506      0              0              0            
    500000   311.55205     -1190.2747      230.62157     -959.65314     -404.07707      15.131122      15.131122      15.131122      0              0              0            
    501000   316.36766     -1181.442       234.18625     -947.2557      -2329.2932      15.416383      15.416383      15.416383      0              0              0            
    502000   268.42937     -1205.6822      198.70068     -1006.9815     -49.968029      15.145477      15.145477      15.145477      0              0              0            
    503000   274.88108     -1198.307       203.47646     -994.83052      1252.164       15.042862      15.042862      15.042862      0              0              0            
    504000   284.46949     -1205.7274      210.57413     -995.15323     -1561.7201      15.299344      15.299344      15.299344      0              0              0            
    505000   300.58281     -1192.616       222.50177     -970.11427     -800.024        15.031794      15.031794      15.031794      0              0              0            
    506000   279.76188     -1188.4313      207.0894      -981.3419       85.891216      14.967685      14.967685      14.967685      0              0              0            
    507000   320.67771     -1208.841       237.3767      -971.46434     -202.06694      15.183938      15.183938      15.183938      0              0              0            
    508000   313.95756     -1183.6638      232.40222     -951.26158     -2160.7251      15.093581      15.093581      15.093581      0              0              0            
    509000   317.1927      -1216.1353      234.79698     -981.33831      20.165286      15.243541      15.243541      15.243541      0              0              0            
    510000   294.01007     -1171.7879      217.63639     -954.1515      -716.41564      15.240091      15.240091      15.240091      0              0              0            
    511000   322.77364     -1208.8996      238.92818     -969.97144     -1283.7988      15.257973      15.257973      15.257973      0              0              0            
    512000   310.92227     -1158.8267      230.15539     -928.67133     -748.62329      15.134252      15.134252      15.134252      0              0              0            
    513000   297.33216     -1201.475       220.09552     -981.37945      1141.0447      15.084605      15.084605      15.084605      0              0              0            
    514000   299.09712     -1200.5364      221.402       -979.13438      2213.3927      14.78262       14.78262       14.78262       0              0              0            
    515000   303.94861     -1197.1708      224.99325     -972.17752     -1890.3261      15.170564      15.170564      15.170564      0              0              0            
    516000   287.43256     -1225.2781      212.76749     -1012.5106      192.90257      15.016859      15.016859      15.016859      0              0              0            
    517000   309.0427      -1188.5074      228.76407     -959.7433      -106.20187      15.195486      15.195486      15.195486      0              0              0            
    518000   306.94629     -1215.4245      227.21223     -988.21232     -371.02489      15.038577      15.038577      15.038577      0              0              0            
    519000   296.60742     -1229.6149      219.55904     -1010.0559      215.6729       14.783678      14.783678      14.783678      0              0              0            
    520000   302.35726     -1201.5494      223.81527     -977.73411     -421.64056      15.032069      15.032069      15.032069      0              0              0            
    521000   301.59279     -1173.5752      223.24938     -950.32582      1185.6504      14.984114      14.984114      14.984114      0              0              0            
    522000   300.08231     -1200.5946      222.13128     -978.46336      337.70124      14.941754      14.941754      14.941754      0              0              0            
    523000   281.97783     -1208.9939      208.72972     -1000.2642     -1229.4622      14.988629      14.988629      14.988629      0              0              0            
    524000   288.75113     -1219.452       213.74355     -1005.7084     -1226.2312      14.860326      14.860326      14.860326      0              0              0            
    525000   311.50122     -1209.5126      230.58395     -978.92862     -536.00268      15.015459      15.015459      15.015459      0              0              0            
    526000   306.54272     -1224.2238      226.9135      -997.31029      2052.9919      14.707495      14.707495      14.707495      0              0              0            
    527000   324.65259     -1269.9601      240.31904     -1029.641       702.06427      14.956726      14.956726      14.956726      0              0              0            
    528000   283.96566     -1191.0285      210.20118     -980.82733     -1482.4557      15.096954      15.096954      15.096954      0              0              0            
    529000   323.35101     -1216.9189      239.35557     -977.56336      3734.5031      14.88969       14.88969       14.88969       0              0              0            
    530000   301.05418     -1214.9451      222.85069     -992.09441     -1642.9922      15.0797        15.0797        15.0797        0              0              0            
    531000   287.53681     -1192.7722      212.84466     -979.92756      779.35513      15.20485       15.20485       15.20485       0              0              0            
    532000   309.38459     -1211.3244      229.01715     -982.30727     -890.61983      15.031145      15.031145      15.031145      0              0              0            
    533000   337.95318     -1195.1157      250.1646      -944.9511      -4.81925        15.193885      15.193885      15.193885      0              0              0            
    534000   288.3053      -1185.2101      213.41353     -971.79658     -2036.5127      15.632465      15.632465      15.632465      0              0              0            
    535000   319.6283      -1203.3035      236.5999      -966.70365     -1868.3567      15.095814      15.095814      15.095814      0              0              0            
    536000   302.25627     -1218.5845      223.74051     -994.84398     -208.02917      15.118507      15.118507      15.118507      0              0              0            
    537000   326.1589      -1148.5413      241.43407     -907.10724      1695.4588      15.04826       15.04826       15.04826       0              0              0            
    538000   312.97899     -1171.4466      231.67785     -939.76879     -990.87287      15.406179      15.406179      15.406179      0              0              0            
    539000   332.95345     -1188.2429      246.46363     -941.77928      990.10839      15.111912      15.111912      15.111912      0              0              0            
    540000   290.27787     -1196.8112      214.87369     -981.93754      625.75581      15.162625      15.162625      15.162625      0              0              0            
    541000   325.86357     -1194.6861      241.21546     -953.47062      217.53711      15.094357      15.094357      15.094357      0              0              0            
    542000   296.41933     -1165.7974      219.41981     -946.37757     -1582.9219      15.180719      15.180719      15.180719      0              0              0            
    543000   307.75896     -1176.9062      227.81379     -949.09237      1803.2493      14.997493      14.997493      14.997493      0              0              0            
    544000   325.06164     -1186.1847      240.62184     -945.56289      135.13559      15.063725      15.063725      15.063725      0              0              0            
    545000   314.22564     -1166.1421      232.60066     -933.54148      1286.0416      15.010552      15.010552      15.010552      0              0              0            
    546000   266.88021     -1209.8284      197.55393     -1012.2744      175.27744      14.858539      14.858539      14.858539      0              0              0            
    547000   337.64773     -1197.8688      249.93849     -947.93027      392.95137      15.098342      15.098342      15.098342      0              0              0            
    548000   287.11854     -1200.3783      212.53504     -987.84327      1666.031       15.034012      15.034012      15.034012      0              0              0            
    549000   304.27806     -1216.2485      225.23712     -991.01139     -14.939341      14.877028      14.877028      14.877028      0              0              0            
    550000   294.62425     -1176.1443      218.09103     -958.05331      378.18385      15.026429      15.026429      15.026429      0              0              0            
    551000   295.00297     -1181.2604      218.37137     -962.88898     -1852.482       15.07184       15.07184       15.07184       0              0              0            
    552000   346.97934     -1176.1181      256.84608     -919.27203     -2293.8764      15.294557      15.294557      15.294557      0              0              0            
    553000   323.58384     -1203.3311      239.52792     -963.80315     -951.0789       15.087185      15.087185      15.087185      0              0              0            
    554000   301.85162     -1183.873       223.44099     -960.43201     -140.81273      15.089624      15.089624      15.089624      0              0              0            
    555000   315.59291     -1189.6578      233.61276     -956.04504     -870.44956      14.866513      14.866513      14.866513      0              0              0            
    556000   309.87685     -1201.2334      229.38154     -971.8519       288.53316      15.319095      15.319095      15.319095      0              0              0            
    557000   297.32218     -1188.5481      220.08814     -968.45997     -1354.2076      15.061755      15.061755      15.061755      0              0              0            
    558000   303.91808     -1177.4785      224.97065     -952.50782     -1526.7637      15.231825      15.231825      15.231825      0              0              0            
    559000   323.7648      -1228.0618      239.66187     -988.39994      537.89151      14.96377       14.96377       14.96377       0              0              0            
    560000   299.57596     -1214.588       221.75646     -992.83158      1574.5537      14.815634      14.815634      14.815634      0              0              0            
    561000   308.69129     -1198.4168      228.50394     -969.9129      -1136.956       14.996932      14.996932      14.996932      0              0              0            
    562000   285.69275     -1184.774       211.47963     -973.29433     -38.404577      15.438418      15.438418      15.438418      0              0              0            
    563000   298.23855     -1167.6362      220.76646     -946.8697       986.76721      15.030029      15.030029      15.030029      0              0              0            
    564000   301.83145     -1216.9221      223.42605     -993.49602      209.15537      15.012237      15.012237      15.012237      0              0              0            
    565000   284.88505     -1214.2953      210.88174     -1003.4136     -1862.5223      15.160184      15.160184      15.160184      0              0              0            
    566000   303.71223     -1212.7081      224.81827     -987.88983     -1479.0629      14.960492      14.960492      14.960492      0              0              0            
    567000   264.04354     -1178.6509      195.45414     -983.19675     -133.78298      15.078511      15.078511      15.078511      0              0              0            
    568000   297.84883     -1213.0697      220.47798     -992.59168      2625.1798      14.805813      14.805813      14.805813      0              0              0            
    569000   287.76059     -1199.3122      213.01031     -986.30188      190.75537      14.962285      14.962285      14.962285      0              0              0            
    570000   309.03768     -1209.2359      228.76035     -980.4756      -800.55245      15.178757      15.178757      15.178757      0              0              0            
    571000   299.00316     -1196.2128      221.33245     -974.88036     -1997.4427      14.984893      14.984893      14.984893      0              0              0            
    572000   287.5758      -1198.4413      212.87353     -985.56781     -1886.6023      15.116067      15.116067      15.116067      0              0              0            
    573000   292.24446     -1171.4483      216.32943     -955.11886     -2361.6983      15.447243      15.447243      15.447243      0              0              0            
    574000   303.83885     -1225.8104      224.912       -1000.8984     -23.195244      15.067135      15.067135      15.067135      0              0              0            
    575000   286.78958     -1205.9407      212.29154     -993.64921     -104.80228      15.046537      15.046537      15.046537      0              0              0            
    576000   302.04374     -1190.3096      223.5832      -966.72641     -1103.497       14.940509      14.940509      14.940509      0              0              0            
    577000   300.35119     -1238.3707      222.33031     -1016.0404     -494.22352      15.116841      15.116841      15.116841      0              0              0            
    578000   299.76061     -1184.8371      221.89314     -962.94395     -717.1106       15.01853       15.01853       15.01853       0              0              0            
    579000   285.6607      -1214.5842      211.4559      -1003.1283     -937.38913      15.094481      15.094481      15.094481      0              0              0            
    580000   321.73578     -1205.9041      238.15993     -967.74418      307.41024      14.996097      14.996097      14.996097      0              0              0            
    581000   321.78533     -1207.9316      238.1966      -969.73498      158.9833       15.208597      15.208597      15.208597      0              0              0            
    582000   303.04182     -1191.6757      224.32201     -967.35365      627.89514      14.835092      14.835092      14.835092      0              0              0            
    583000   298.74848     -1187.1041      221.14393     -965.96019      319.03488      14.857277      14.857277      14.857277      0              0              0            
    584000   295.28941     -1189.0901      218.58341     -970.50672     -670.98955      15.174264      15.174264      15.174264      0              0              0            
    585000   300.457       -1187.2267      222.40863     -964.81811      17.953096      14.703275      14.703275      14.703275      0              0              0            
    586000   283.43113     -1186.9137      209.8055      -977.10825     -2517.3089      15.148024      15.148024      15.148024      0              0              0            
    587000   321.52959     -1195.6697      238.00729     -957.66243      349.7322       14.972346      14.972346      14.972346      0              0              0            
    588000   304.14585     -1195.9749      225.13925     -970.83568      338.29058      15.019217      15.019217      15.019217      0              0              0            
    589000   304.07415     -1201.3636      225.08618     -976.2774      -660.69252      15.155394      15.155394      15.155394      0              0              0            
    590000   314.43261     -1208.8874      232.75386     -976.13352      1319.0809      14.97421       14.97421       14.97421       0              0              0            
    591000   294.71579     -1217.238       218.15879     -999.07918     -2128.3951      14.976746      14.976746      14.976746      0              0              0            
    592000   299.07801     -1181.3278      221.38786     -959.93991      2254.2281      15.109909      15.109909      15.109909      0              0              0            
    593000   286.78874     -1178.7272      212.29092     -966.43623     -49.76387       15.09406       15.09406       15.09406       0              0              0            
    594000   254.19315     -1205.4725      188.16254     -1017.31       -433.97007      14.955442      14.955442      14.955442      0              0              0            
    595000   309.50687     -1200.0513      229.10766     -970.94366      260.21676      15.301221      15.301221      15.301221      0              0              0            
    596000   293.50362     -1184.117       217.26151     -966.85554     -429.38974      15.156452      15.156452      15.156452      0              0              0            
    597000   308.41641     -1229.1862      228.30047     -1000.8858     -1100.3627      14.892195      14.892195      14.892195      0              0              0            
    598000   297.54711     -1176.3613      220.25464     -956.10663     -1353.1249      15.189515      15.189515      15.189515      0              0              0            
    599000   296.88294     -1193.8501      219.763       -974.0871      -594.64977      14.963873      14.963873      14.963873      0              0              0            
    600000   286.12466     -1186.952       211.79935     -975.15261      499.19118      15.02921       15.02921       15.02921       0              0              0            
    601000   284.72995     -1204.8921      210.76693     -994.1252      -833.96682      15.066942      15.066942      15.066942      0              0              0            
    602000   284.30832     -1199.3588      210.45483     -988.90393      805.12577      15.238882      15.238882      15.238882      0              0              0            
    603000   301.19547     -1170.0918      222.95528     -947.13653      2282.8593      15.132568      15.132568      15.132568      0              0              0            
    604000   312.02732     -1189.5411      230.97339     -958.5677      -1322.7831      15.035475      15.035475      15.035475      0              0              0            
    605000   282.24019     -1213.3478      208.92393     -1004.4239     -279.94104      14.946262      14.946262      14.946262      0              0              0            
    606000   303.91909     -1185.5681      224.9714      -960.59666     -490.10132      14.894045      14.894045      14.894045      0              0              0            
    607000   311.08681     -1211.8035      230.27719     -981.52629      589.14358      14.978816      14.978816      14.978816      0              0              0            
    608000   303.07374     -1197.5389      224.34564     -973.1933       189.50041      15.041382      15.041382      15.041382      0              0              0            
    609000   305.66849     -1204.8627      226.26636     -978.59631     -1102.1602      15.228289      15.228289      15.228289      0              0              0            
    610000   283.60243     -1191.1693      209.9323      -981.23698     -1726.9006      15.03209       15.03209       15.03209       0              0              0            
    611000   291.1601      -1198.2147      215.52675     -982.68797      18.930147      15.123284      15.123284      15.123284      0              0              0            
    612000   276.57419     -1181.0383      204.72976     -976.30857      1387.2081      15.275297      15.275297      15.275297      0              0              0            
    613000   310.15728     -1207.3854      229.58912     -977.79624      225.28515      15.239487      15.239487      15.239487      0              0              0            
    614000   302.30072     -1199.5348      223.77342     -975.76142      1252.0908      14.974579      14.974579      14.974579      0              0              0            
    615000   300.66485     -1195.4753      222.56249     -972.91277     -117.86676      15.124149      15.124149      15.124149      0              0              0            
    616000   304.45694     -1217.9575      225.36953     -992.58793      1244.6536      14.75144       14.75144       14.75144       0              0              0            
    617000   300.33171     -1186.2796      222.31589     -963.96372      1207.8478      15.19305       15.19305       15.19305       0              0              0            
    618000   288.99744     -1207.9066      213.92588     -993.98072     -2263.8345      15.143984      15.143984      15.143984      0              0              0            
    619000   315.45134     -1194.7149      233.50796     -961.20696     -918.07668      15.119609      15.119609      15.119609      0              0              0            
    620000   298.54706     -1194.8937      220.99483     -973.89891     -433.53825      15.198962      15.198962      15.198962      0              0              0            
    621000   309.12252     -1226.1959      228.82315     -997.37275      409.80266      14.928488      14.928488      14.928488      0              0              0            
    622000   331.72902     -1173.7108      245.55726     -928.15353     -534.77844      15.19296       15.19296       15.19296       0              0              0            
    623000   309.20974     -1220.0353      228.88772     -991.14759      595.92161      14.801255      14.801255      14.801255      0              0              0            
    624000   306.42037     -1217.5134      226.82293     -990.69045     -40.984866      15.03669       15.03669       15.03669       0              0              0            
    625000   299.0604      -1186.4105      221.37483     -965.0357       778.28121      15.12772       15.12772       15.12772       0              0              0            
    626000   258.15796     -1175.464       191.09743     -984.36655     -826.28553      15.264275      15.264275      15.264275      0              0              0            
    627000   280.20254     -1233.4678      207.41558     -1026.0523      607.64832      14.912598      14.912598      14.912598      0              0              0            
    628000   287.48737     -1216.9337      212.80807     -1004.1256     -2798.705       14.902512      14.902512      14.902512      0              0              0            
    629000   294.47911     -1208.9283      217.9836      -990.94471      729.92793      14.756078      14.756078      14.756078      0              0              0            
    630000   293.13387     -1196.0848      216.9878      -979.09702      14.586006      14.975224      14.975224      14.975224      0              0              0            
    631000   325.71585     -1214.5764      241.1061      -973.47034      194.9838       14.909993      14.909993      14.909993      0              0              0            
    632000   274.14989     -1222.2617      202.9352      -1019.3265      2857.2532      14.825552      14.825552      14.825552      0              0              0            
    633000   277.1229      -1180.8407      205.13593     -975.70476      1800.4895      15.073036      15.073036      15.073036      0              0              0            
    634000   331.29701     -1207.9001      245.23747     -962.66261      1078.4557      15.004749      15.004749      15.004749      0              0              0            
    635000   307.19878     -1205.3811      227.39913     -977.98201      55.575816      14.987013      14.987013      14.987013      0              0              0            
    636000   309.3878      -1218.1567      229.01952     -989.13719     -415.39155      14.75535       14.75535       14.75535       0              0              0            
    637000   283.13571     -1181.7562      209.58682     -972.16937      293.63508      15.057402      15.057402      15.057402      0              0              0            
    638000   300.8591      -1210.4121      222.70628     -987.70581     -784.81405      15.123558      15.123558      15.123558      0              0              0            
    639000   285.96007     -1202.8433      211.67751     -991.16575      3739.1352      15.106803      15.106803      15.106803      0              0              0            
    640000   302.18546     -1205.3749      223.6881      -981.68682      91.706582      15.141168      15.141168      15.141168      0              0              0            
    641000   308.87411     -1203.6242      228.63927     -974.98496      2057.5085      14.758768      14.758768      14.758768      0              0              0            
    642000   286.27307     -1178.9645      211.9092      -967.05526     -1145.5491      15.161279      15.161279      15.161279      0              0              0            
    643000   311.83573     -1182.6049      230.83157     -951.7733       1261.4557      15.212023      15.212023      15.212023      0              0              0            
    644000   318.07977     -1182.3391      235.45362     -946.88544     -477.64119      15.546151      15.546151      15.546151      0              0              0            
    645000   276.03202     -1212.6422      204.32842     -1008.3137     -1096.0813      14.971973      14.971973      14.971973      0              0              0            
    646000   305.74988     -1197.1955      226.32661     -970.86888      516.18674      14.835931      14.835931      14.835931      0              0              0            
    647000   287.43007     -1169.0717      212.76566     -956.30606      2321.422       14.885347      14.885347      14.885347      0              0              0            
    648000   298.07151     -1209.7257      220.64281     -989.08286     -4.8361088      14.688833      14.688833      14.688833      0              0              0            
    649000   291.84357     -1176.7169      216.03268     -960.68427     -1976.9045      15.013612      15.013612      15.013612      0              0              0            
    650000   299.5401      -1194.6509      221.72991     -972.92099     -1439.8918      15.087596      15.087596      15.087596      0              0              0            
    651000   329.02029     -1222.344       243.55217     -978.79188     -1216.5095      14.721824      14.721824      14.721824      0              0              0            
    652000   303.17535     -1181.8958      224.42085     -957.47496      1947.2165      15.034847      15.034847      15.034847      0              0              0            
    653000   344.1696      -1196.989       254.76621     -942.2228       1205.6421      14.828928      14.828928      14.828928      0              0              0            
    654000   284.39144     -1211.2926      210.51635     -1000.7763      197.59729      14.798218      14.798218      14.798218      0              0              0            
    655000   302.38376     -1182.7735      223.83489     -958.93865      1272.7621      14.845008      14.845008      14.845008      0              0              0            
    656000   297.86473     -1170.4145      220.48975     -949.9248       386.74534      15.084291      15.084291      15.084291      0              0              0            
    657000   313.96609     -1184.294       232.40853     -951.88547      1157.9868      14.948779      14.948779      14.948779      0              0              0            
    658000   286.44843     -1192.9614      212.03901     -980.92241      744.6242       15.072548      15.072548      15.072548      0              0              0            
    659000   299.68366     -1200.6532      221.83619     -978.81706     -1917.1801      14.845137      14.845137      14.845137      0              0              0            
    660000   303.37305     -1216.6583      224.5672      -992.09107     -165.26627      15.247681      15.247681      15.247681      0              0              0            
    661000   299.56337     -1207.6952      221.74714     -985.94802     -343.86835      14.995286      14.995286      14.995286      0              0              0            
    662000   303.68607     -1193.002       224.7989      -968.20311     -1283.2804      15.043819      15.043819      15.043819      0              0              0            
    663000   305.42772     -1180.4329      226.08814     -954.34476     -2096.866       15.019696      15.019696      15.019696      0              0              0            
    664000   290.57334     -1223.5591      215.09241     -1008.4667     -1689.0258      15.049826      15.049826      15.049826      0              0              0            
    665000   274.96193     -1199.2859      203.5363      -995.74955      1097.2175      15.147067      15.147067      15.147067      0              0              0            
    666000   293.44534     -1190.0379      217.21837     -972.81955      1137.5103      15.255099      15.255099      15.255099      0              0              0            
    667000   288.3578      -1179.888       213.45239     -966.43556      572.23064      15.292106      15.292106      15.292106      0              0              0            
    668000   292.45206     -1207.4475      216.48311     -990.96437      940.03492      14.98838       14.98838       14.98838       0              0              0            
    669000   287.22603     -1203.866       212.61462     -991.25142      368.60792      15.045239      15.045239      15.045239      0              0              0            
    670000   298.98773     -1190.5676      221.32103     -969.24653      1310.7405      14.959611      14.959611      14.959611      0              0              0            
    671000   302.60078     -1195.1338      223.99554     -971.13825      2144.0783      15.296253      15.296253      15.296253      0              0              0            
    672000   297.4837      -1190.0312      220.20769     -969.82352      15.018982      15.204541      15.204541      15.204541      0              0              0            
    673000   330.18575     -1186.3868      244.41488     -941.97188      2451.2711      15.038781      15.038781      15.038781      0              0              0            
    674000   306.3495      -1185.9001      226.77047     -959.12966     -2175.4971      15.213388      15.213388      15.213388      0              0              0            
    675000   302.82336     -1220.8772      224.1603      -996.71691      112.31247      14.836332      14.836332      14.836332      0              0              0            
    676000   274.74129     -1212.1501      203.37298     -1008.7771     -1024.2453      15.313751      15.313751      15.313751      0              0              0            
    677000   303.70116     -1189.814       224.81008     -965.00392     -1223.0275      15.119093      15.119093      15.119093      0              0              0            
    678000   319.5604      -1205.3813      236.54963     -968.83163     -561.30012      15.161253      15.161253      15.161253      0              0              0            
    679000   287.09924     -1181.8085      212.52076     -969.28773     -924.14772      15.304302      15.304302      15.304302      0              0              0            
    680000   321.90869     -1186.6353      238.28792     -948.34735     -222.76903      15.003179      15.003179      15.003179      0              0              0            
    681000   295.16736     -1201.2848      218.49306     -982.79174      761.95764      14.806389      14.806389      14.806389      0              0              0            
    682000   323.83709     -1222.8583      239.71538     -983.14297      641.10179      14.863364      14.863364      14.863364      0              0              0            
    683000   296.47016     -1203.0384      219.45744     -983.581        1372.3527      14.721463      14.721463      14.721463      0              0              0            
    684000   293.42838     -1197.1038      217.20581     -979.89801     -1580.0728      15.167348      15.167348      15.167348      0              0              0            
    685000   313.60922     -1183.362       232.14436     -951.21765     -322.1247       15.000375      15.000375      15.000375      0              0              0            
    686000   301.03399     -1178.0979      222.83574     -955.26216     -251.1045       15.120695      15.120695      15.120695      0              0              0            
    687000   325.93946     -1183.7628      241.27163     -942.49119      229.30457      15.097399      15.097399      15.097399      0              0              0            
    688000   279.81389     -1192.4791      207.12789     -985.35122     -807.70697      14.878941      14.878941      14.878941      0              0              0            
    689000   276.81758     -1214.8916      204.90992     -1009.9817      125.00992      15.162497      15.162497      15.162497      0              0              0            
    690000   258.96192     -1175.2967      191.69255     -983.60411     -344.92989      15.040978      15.040978      15.040978      0              0              0            
    691000   291.37734     -1197.7957      215.68756     -982.1081       413.93556      14.883017      14.883017      14.883017      0              0              0            
    692000   299.40537     -1223.1125      221.63018     -1001.4823     -298.20499      14.94148       14.94148       14.94148       0              0              0            
    693000   285.04133     -1216.8425      210.99743     -1005.8451      358.45612      15.121418      15.121418      15.121418      0              0              0            
    694000   293.9253      -1240.0496      217.57365     -1022.476       74.40121       15.036154      15.036154      15.036154      0              0              0            
    695000   303.46345     -1199.0382      224.63411     -974.40409      368.16989      14.954593      14.954593      14.954593      0              0              0            
    696000   292.47258     -1222.4188      216.49829     -1005.9205     -584.12352      14.75199       14.75199       14.75199       0              0              0            
    697000   291.73511     -1189.6044      215.95239     -973.65198     -990.23203      14.913155      14.913155      14.913155      0              0              0            
    698000   307.48238     -1184.3195      227.60906     -956.71041     -2661.0789      15.106852      15.106852      15.106852      0              0              0            
    699000   301.75097     -1195.2021      223.36648     -971.83567     -424.97573      14.943977      14.943977      14.943977      0              0              0            
    700000   308.84811     -1199.1278      228.62002     -970.50779     -1516.7535      15.126697      15.126697      15.126697      0              0              0            
    701000   279.17035     -1183.5228      206.65153     -976.87132     -909.71302      15.19074       15.19074       15.19074       0              0              0            
    702000   301.03676     -1168.3582      222.8378      -945.5204       268.35556      15.110852      15.110852      15.110852      0              0              0            
    703000   307.63651     -1205.1115      227.72316     -977.38837      932.76017      14.988632      14.988632      14.988632      0              0              0            
    704000   295.96348     -1212.4854      219.08237     -993.403       -514.50558      14.8099        14.8099        14.8099        0              0              0            
    705000   309.8632      -1187.354       229.37143     -957.9826      -584.64032      15.214781      15.214781      15.214781      0              0              0            
    706000   303.46505     -1204.1623      224.6353      -979.52696      1194.9445      14.990546      14.990546      14.990546      0              0              0            
    707000   299.79567     -1227.9368      221.91909     -1006.0177      1734.0056      14.935433      14.935433      14.935433      0              0              0            
    708000   308.69439     -1173.1148      228.50624     -944.60855      978.6175       15.089146      15.089146      15.089146      0              0              0            
    709000   310.70561     -1214.401       229.99501     -984.40598     -562.05127      14.849189      14.849189      14.849189      0              0              0            
    710000   322.03815     -1202.8898      238.38375     -964.50601     -998.12078      15.226725      15.226725      15.226725      0              0              0            
    711000   294.32621     -1208.1264      217.87041     -990.25596     -933.01714      15.052484      15.052484      15.052484      0              0              0            
    712000   299.82029     -1208.4373      221.93732     -986.49999      339.11998      14.885412      14.885412      14.885412      0              0              0            
    713000   308.30748     -1184.4881      228.21983     -956.26827      3536.4292      15.050406      15.050406      15.050406      0              0              0            
    714000   304.19063     -1204.3954      225.1724      -979.223       -1230.1275      14.991485      14.991485      14.991485      0              0              0            
    715000   296.07338     -1207.7849      219.16373     -988.62113      433.99156      14.909968      14.909968      14.909968      0              0              0            
    716000   295.82206     -1225.2704      218.97769     -1006.2927     -596.1555       14.727731      14.727731      14.727731      0              0              0            
    717000   304.62561     -1188.0894      225.49438     -962.59504     -324.03681      14.777611      14.777611      14.777611      0              0              0            
    718000   316.68147     -1187.7816      234.41855     -953.36301      423.59263      15.034114      15.034114      15.034114      0              0              0            
    719000   310.42062     -1189.3667      229.78405     -959.58269      1294.1966      15.201227      15.201227      15.201227      0              0              0            
    720000   299.91613     -1206.9933      222.00827     -984.98499     -78.542932      14.985281      14.985281      14.985281      0              0              0            
    721000   332.78503     -1179.4076      246.33896     -933.06859     -1007.7021      14.954334      14.954334      14.954334      0              0              0            
    722000   284.5789      -1199.3749      210.65512     -988.71983     -84.212694      15.182321      15.182321      15.182321      0              0              0            
    723000   314.60442     -1234.7113      232.88104     -1001.8302     -270.39649      14.960414      14.960414      14.960414      0              0              0            
    724000   294.47056     -1200.8203      217.97727     -982.84302      51.349225      14.9781        14.9781        14.9781        0              0              0            
    725000   280.53665     -1172.0157      207.66291     -964.3528       49.941465      15.077119      15.077119      15.077119      0              0              0            
    726000   314.98476     -1208.8247      233.16258     -975.66213     -376.67067      14.963166      14.963166      14.963166      0              0              0            
    727000   277.54706     -1207.4004      205.44991     -1001.9505     -669.54348      14.851851      14.851851      14.851851      0              0              0            
    728000   310.49189     -1222.1329      229.83681     -992.29613     -2106.926       15.053337      15.053337      15.053337      0              0              0            
    729000   303.85435     -1212.7396      224.92347     -987.81615     -455.18001      14.986373      14.986373      14.986373      0              0              0            
    730000   298.16012     -1188.1495      220.7084      -967.44108      699.21884      14.912247      14.912247      14.912247      0              0              0            
    731000   306.41527     -1201.6791      226.81915     -974.85999      1547.5009      15.009482      15.009482      15.009482      0              0              0            
    732000   301.24023     -1204.9383      222.98841     -981.94987     -1.7014109      14.779192      14.779192      14.779192      0              0              0            
    733000   287.55762     -1177.1322      212.86007     -964.27209     -178.79016      15.09386       15.09386       15.09386       0              0              0            
    734000   320.56703     -1187.5346      237.29477     -950.23984     -1948.7554      15.140133      15.140133      15.140133      0              0              0            
    735000   335.02799     -1204.5966      247.99927     -956.59737     -163.77976      15.06913       15.06913       15.06913       0              0              0            
    736000   277.81951     -1193.6948      205.65159     -988.04321      913.47071      15.027281      15.027281      15.027281      0              0              0            
    737000   297.29378     -1217.8847      220.06711     -997.81761      864.97392      14.871731      14.871731      14.871731      0              0              0            
    738000   309.64338     -1212.9762      229.20871     -983.76746      1282.0476      14.846012      14.846012      14.846012      0              0              0            
    739000   306.06686     -1199.7107      226.56125     -973.14948      741.39086      14.812075      14.812075      14.812075      0              0              0            
    740000   316.47906     -1199.8284      234.26872     -965.55966      84.764786      15.025731      15.025731      15.025731      0              0              0            
    741000   340.43545     -1168.0911      252.00206     -916.08901     -201.18542      15.300383      15.300383      15.300383      0              0              0            
    742000   281.59149     -1210.6937      208.44373     -1002.25       -1293.4437      15.041366      15.041366      15.041366      0              0              0            
    743000   284.26747     -1202.9031      210.42459     -992.47853      856.80546      14.818168      14.818168      14.818168      0              0              0            
    744000   295.41796     -1202.7131      218.67857     -984.03451      429.42025      14.855151      14.855151      14.855151      0              0              0            
    745000   295.27299     -1203.5476      218.57125     -984.97639     -1904.255       15.04382       15.04382       15.04382       0              0              0            
    746000   265.08671     -1197.3492      196.22633     -1001.1229     -822.53834      14.900827      14.900827      14.900827      0              0              0            
    747000   343.86384     -1210.3228      254.53987     -955.78295      1793.5316      15.114382      15.114382      15.114382      0              0              0            
    748000   290.96908     -1181.9367      215.38535     -966.55133     -1026.4431      15.054119      15.054119      15.054119      0              0              0            
    749000   295.56347     -1212.8557      218.78628     -994.06938      2833.7591      14.776314      14.776314      14.776314      0              0              0            
    750000   260.50827     -1197.8105      192.83721     -1004.9733     -1247.8711      14.814121      14.814121      14.814121      0              0              0            
    751000   292.80424     -1239.4832      216.7438      -1022.7394      435.41357      14.876584      14.876584      14.876584      0              0              0            
    752000   289.13615     -1199.0783      214.02855     -985.0497      -924.03544      15.211657      15.211657      15.211657      0              0              0            
    753000   294.7581      -1214.183       218.19011     -995.9929       300.0001       15.000334      15.000334      15.000334      0              0              0            
    754000   302.99159     -1188.1057      224.28483     -963.82085      372.85486      15.181947      15.181947      15.181947      0              0              0            
    755000   316.49462     -1194.671       234.28023     -960.39077      470.24864      14.888135      14.888135      14.888135      0              0              0            
    756000   307.57778     -1196.8956      227.67968     -969.21589     -214.62396      15.278299      15.278299      15.278299      0              0              0            
    757000   290.10599     -1191.9287      214.74646     -977.18228     -2625.8211      15.241926      15.241926      15.241926      0              0              0            
    758000   339.57821     -1220.0248      251.3675      -968.65726     -1241.405       15.15419       15.15419       15.15419       0              0              0            
    759000   291.07242     -1233.5628      215.46185     -1018.1009      1917.9311      14.906498      14.906498      14.906498      0              0              0            
    760000   310.7718      -1218.296       230.04401     -988.25198      185.09768      14.976086      14.976086      14.976086      0              0              0            
    761000   314.91083     -1182.0624      233.10786     -948.95452     -728.8549       14.930661      14.930661      14.930661      0              0              0            
    762000   303.45026     -1212.3033      224.62435     -987.67893     -682.11817      15.319151      15.319151      15.319151      0              0              0            
    763000   297.11745     -1218.3183      219.93658     -998.38169      232.63453      14.916159      14.916159      14.916159      0              0              0            
    764000   284.84159     -1197.0413      210.84957     -986.19177      352.32093      15.082785      15.082785      15.082785      0              0              0            
    765000   325.44825     -1220.7942      240.90802     -979.88623      1660.021       14.793053      14.793053      14.793053      0              0              0            
    766000   316.37827     -1213.355       234.19411     -979.16088      944.59359      14.927106      14.927106      14.927106      0              0              0            
    767000   320.53953     -1191.6644      237.27442     -954.38998      975.49584      14.922619      14.922619      14.922619      0              0              0            
    768000   325.25788     -1198.9243      240.7671      -958.15722      557.0614       14.98958       14.98958       14.98958       0              0              0            
    769000   292.9569      -1237.9749      216.8568      -1021.1181     -199.16524      14.762603      14.762603      14.762603      0              0              0            
    770000   287.16992     -1201.4413      212.57308     -988.86818     -80.311419      15.015817      15.015817      15.015817      0              0              0            
    771000   294.56317     -1210.0932      218.04582     -992.04735     -97.01384       15.170605      15.170605      15.170605      0              0              0            
    772000   301.44698     -1186.192       223.14145     -963.05059     -353.40174      14.86401       14.86401       14.86401       0              0              0            
    773000   300.90954     -1192.7857      222.74362     -970.04204     -657.95245      15.035143      15.035143      15.035143      0              0              0            
    774000   302.57579     -1213.8581      223.97704     -989.88101     -139.1207       15.080892      15.080892      15.080892      0              0              0            
    775000   323.91453     -1167.0717      239.77271     -927.29901     -2180.1384      15.293019      15.293019      15.293019      0              0              0            
    776000   303.25734     -1187.584       224.48154     -963.10249      708.27249      15.145665      15.145665      15.145665      0              0              0            
    777000   313.71176     -1220.397       232.22026     -988.17673      1906.9795      14.877884      14.877884      14.877884      0              0              0            
    778000   304.71004     -1196.6928      225.55689     -971.13587     -2876.4908      15.124336      15.124336      15.124336      0              0              0            
    779000   286.08042     -1166.2966      211.76659     -954.53001      837.07472      15.084872      15.084872      15.084872      0              0              0            
    780000   296.13045     -1180.0773      219.20597     -960.87137     -112.73275      15.202736      15.202736      15.202736      0              0              0            
    781000   297.29746     -1189.7397      220.06984     -969.66985      1313.6224      15.210069      15.210069      15.210069      0              0              0            
    782000   287.44461     -1211.2787      212.77641     -998.50231     -961.52215      15.107523      15.107523      15.107523      0              0              0            
    783000   304.20082     -1205.7467      225.17994     -980.5668       702.59265      14.955556      14.955556      14.955556      0              0              0            
    784000   331.28894     -1210.4525      245.2315      -965.221        954.62731      14.919615      14.919615      14.919615      0              0              0            
    785000   283.73153     -1190.4252      210.02787     -980.39734      1093.351       15.101452      15.101452      15.101452      0              0              0            
    786000   319.51152     -1212.599       236.51345     -976.08557     -684.17949      15.032557      15.032557      15.032557      0              0              0            
    787000   289.77566     -1231.8967      214.50194     -1017.3947     -734.34048      15.00025       15.00025       15.00025       0              0              0            
    788000   299.20443     -1208.148       221.48144     -986.66655      521.31671      15.097601      15.097601      15.097601      0              0              0            
    789000   295.05015     -1190.4017      218.4063      -971.99538     -2701.0226      15.141841      15.141841      15.141841      0              0              0            
    790000   288.07524     -1197.0614      213.24323     -983.81816     -388.20247      15.147299      15.147299      15.147299      0              0              0            
    791000   305.35374     -1195.9849      226.03337     -969.95155     -997.09097      15.22116       15.22116       15.22116       0              0              0            
    792000   297.47922     -1179.5791      220.20438     -959.37473     -459.65001      15.190437      15.190437      15.190437      0              0              0            
    793000   311.82725     -1182.1333      230.82529     -951.30796      765.75992      14.744157      14.744157      14.744157      0              0              0            
    794000   305.37027     -1200.783       226.04561     -974.73742      521.62819      14.945902      14.945902      14.945902      0              0              0            
    795000   307.65434     -1233.2991      227.73636     -1005.5627      231.84325      14.771338      14.771338      14.771338      0              0              0            
    796000   280.31682     -1194.576       207.50018     -987.07586      37.64173       15.128983      15.128983      15.128983      0              0              0            
    797000   298.29997     -1193.3317      220.81193     -972.51973     -609.34591      15.228263      15.228263      15.228263      0              0              0            
    798000   289.16292     -1162.045       214.04837     -947.99664      358.30822      15.082199      15.082199      15.082199      0              0              0            
    799000   290.60278     -1209.168       215.1142      -994.05379      1532.8786      15.172088      15.172088      15.172088      0              0              0            
    800000   304.3071      -1210.1252      225.25861     -984.8666       822.68619      14.737844      14.737844      14.737844      0              0              0            
    801000   282.71847     -1197.7432      209.27797     -988.46524      711.61674      15.406696      15.406696      15.406696      0              0              0            
    802000   283.71571     -1217.7443      210.01616     -1007.7282     -2117.2601      15.011995      15.011995      15.011995      0              0              0            
    803000   296.89445     -1211.4049      219.77151     -991.6334       1247.5517      14.93835       14.93835       14.93835       0              0              0            
    804000   289.43499     -1178.7827      214.24976     -964.5329       998.30304      15.039131      15.039131      15.039131      0              0              0            
    805000   265.67134     -1195.0206      196.65909     -998.36155     -993.17061      15.06934       15.06934       15.06934       0              0              0            
    806000   302.77741     -1211.6668      224.12629     -987.54053     -2109.3851      15.045493      15.045493      15.045493      0              0              0            
    807000   285.59575     -1211.2782      211.40782     -999.87038     -1171.8931      14.915551      14.915551      14.915551      0              0              0            
    808000   309.72791     -1196.6281      229.27128     -967.35679     -843.19323      14.906697      14.906697      14.906697      0              0              0            
    809000   277.81956     -1182.2493      205.65163     -976.59771     -2987.2288      15.13762       15.13762       15.13762       0              0              0            
    810000   285.76242     -1208.9999      211.5312      -997.46875     -1000.9697      14.869205      14.869205      14.869205      0              0              0            
    811000   279.009       -1202.4437      206.53208     -995.91164     -302.16039      15.071557      15.071557      15.071557      0              0              0            
    812000   293.71867     -1188.6774      217.42069     -971.25676     -199.61061      14.879544      14.879544      14.879544      0              0              0            
    813000   301.29262     -1181.806       223.02719     -958.77878     -380.80813      15.10693       15.10693       15.10693       0              0              0            
    814000   290.45836     -1222.085       215.0073      -1007.0777      574.40994      14.934307      14.934307      14.934307      0              0              0            
    815000   306.57263     -1194.2643      226.93564     -967.32862      47.072758      15.144283      15.144283      15.144283      0              0              0            
    816000   296.20048     -1197.8543      219.25781     -978.5965      -965.98216      15.27185       15.27185       15.27185       0              0              0            
    817000   329.66363     -1191.0019      244.02839     -946.97353      198.17163      15.192074      15.192074      15.192074      0              0              0            
    818000   259.31525     -1184.9659      191.9541      -993.0118      -336.13279      14.951299      14.951299      14.951299      0              0              0            
    819000   300.44526     -1210.5514      222.39994     -988.15143      357.67748      14.958782      14.958782      14.958782      0              0              0            
    820000   285.95773     -1181.1152      211.67578     -969.43946     -728.65518      15.112032      15.112032      15.112032      0              0              0            
    821000   302.45921     -1204.7605      223.89074     -980.8698       229.2545       14.971389      14.971389      14.971389      0              0              0            
    822000   311.62691     -1208.1818      230.67699     -977.50483      959.78634      15.199366      15.199366      15.199366      0              0              0            
    823000   266.62262     -1200.9107      197.36326     -1003.5474     -95.223746      14.919906      14.919906      14.919906      0              0              0            
    824000   278.54941     -1174.6152      206.19188     -968.42327      380.84136      15.300708      15.300708      15.300708      0              0              0            
    825000   278.64328     -1185.3566      206.26137     -979.09527      1651.8754      14.870259      14.870259      14.870259      0              0              0            
    826000   298.6347      -1184.6747      221.0597      -963.61504      232.79794      15.039839      15.039839      15.039839      0              0              0            
    827000   300.85446     -1225.3839      222.70285     -1002.6811     -1520.9029      15.00175       15.00175       15.00175       0              0              0            
    828000   280.35264     -1203.6867      207.5267      -996.15999     -1445.7354      15.182323      15.182323      15.182323      0              0              0            
    829000   262.23087     -1200.3112      194.11234     -1006.1989     -309.53681      14.951993      14.951993      14.951993      0              0              0            
    830000   294.95517     -1218.4482      218.33599     -1000.1122      295.30136      15.124182      15.124182      15.124182      0              0              0            
    831000   280.0756      -1218.1777      207.32162     -1010.8561     -86.33547       14.855815      14.855815      14.855815      0              0              0            
    832000   321.5871      -1185.7837      238.04987     -947.73385     -1750.0626      15.133484      15.133484      15.133484      0              0              0            
    833000   320.52423     -1211.4584      237.26309     -974.19535      1032.4098      14.913466      14.913466      14.913466      0              0              0            
    834000   316.5112      -1223.1769      234.2925      -988.8844      -339.84121      15.034465      15.034465      15.034465      0              0              0            
    835000   294.89384     -1218.9091      218.29059     -1000.6185      1407.2783      14.852398      14.852398      14.852398      0              0              0            
    836000   278.69089     -1230.8869      206.29661     -1024.5903     -1113.3811      14.787178      14.787178      14.787178      0              0              0            
    837000   311.63948     -1201.0576      230.68629     -970.37128     -1348.8533      14.906769      14.906769      14.906769      0              0              0            
    838000   307.51727     -1208.2845      227.63489     -980.64964      685.34703      15.122939      15.122939      15.122939      0              0              0            
    839000   321.66047     -1211.9292      238.10417     -973.82499     -1244.6121      15.088892      15.088892      15.088892      0              0              0            
    840000   299.1752      -1237.5012      221.4598      -1016.0414      2517.3108      14.859929      14.859929      14.859929      0              0              0            
    841000   324.21943     -1179.4796      239.9984      -939.48125      2.1214374      15.025087      15.025087      15.025087      0              0              0            
    842000   299.02248     -1224.6944      221.34676     -1003.3477     -1466.0089      15.192124      15.192124      15.192124      0              0              0            
    843000   275.51354     -1225.2664      203.94463     -1021.3217     -654.5857       15.158068      15.158068      15.158068      0              0              0            
    844000   318.32298     -1233.2442      235.63365     -997.61059     -392.61481      14.92895       14.92895       14.92895       0              0              0            
    845000   278.64668     -1190.7725      206.26388     -984.50862     -883.65832      14.969512      14.969512      14.969512      0              0              0            
    846000   319.3368      -1197.7626      236.38411     -961.37849      694.86547      14.969524      14.969524      14.969524      0              0              0            
    847000   316.38179     -1196.2121      234.19671     -962.01541     -111.61629      15.124243      15.124243      15.124243      0              0              0            
    848000   319.19556     -1217.9151      236.27956     -981.63558     -103.80342      15.003273      15.003273      15.003273      0              0              0            
    849000   310.90695     -1208.9926      230.14405     -978.84853      1881.2565      15.117723      15.117723      15.117723      0              0              0            
    850000   314.39705     -1176.1947      232.72754     -943.4672       424.72489      14.770333      14.770333      14.770333      0              0              0            
    851000   290.78112     -1163.4301      215.24622     -948.18392      325.10288      15.271034      15.271034      15.271034      0              0              0            
    852000   300.91078     -1221.3764      222.74454     -998.63185      390.60519      14.914517      14.914517      14.914517      0              0              0            
    853000   288.18709     -1206.2094      213.32602     -992.88337      1054.1423      15.053926      15.053926      15.053926      0              0              0            
    854000   330.68146     -1223.052       244.78182     -978.27018     -43.583922      14.84198       14.84198       14.84198       0              0              0            
    855000   315.4638      -1196.5971      233.51719     -963.07992      1259.18        14.99915       14.99915       14.99915       0              0              0            
    856000   328.69281     -1207.9398      243.30976     -964.63004      2186.5633      14.942384      14.942384      14.942384      0              0              0            
    857000   303.32336     -1200.6007      224.53041     -976.07028      2380.7098      14.977823      14.977823      14.977823      0              0              0            
    858000   327.27947     -1235.9468      242.26355     -993.68326     -2323.6679      15.059538      15.059538      15.059538      0              0              0            
    859000   300.08291     -1200.4758      222.13172     -978.34404     -101.09541      14.999689      14.999689      14.999689      0              0              0            
    860000   306.79309     -1200.5028      227.09883     -973.40401      1428.8081      14.874352      14.874352      14.874352      0              0              0            
    861000   281.65528     -1200.7192      208.49096     -992.22823     -1634.1052      14.785329      14.785329      14.785329      0              0              0            
    862000   292.71569     -1180.7373      216.67825     -964.05905     -911.59396      15.227562      15.227562      15.227562      0              0              0            
    863000   303.27925     -1173.8948      224.49777     -949.39706     -733.02389      15.194359      15.194359      15.194359      0              0              0            
    864000   315.42568     -1227.6332      233.48897     -994.14425     -718.75455      14.917305      14.917305      14.917305      0              0              0            
    865000   341.4037      -1193.7164      252.71879     -940.9976       1190.5272      14.74652       14.74652       14.74652       0              0              0            
    866000   332.2765      -1149.0131      245.96253     -903.05055      327.78277      15.325896      15.325896      15.325896      0              0              0            
    867000   298.70724     -1202.4293      221.1134      -981.31594      1234.0724      14.888632      14.888632      14.888632      0              0              0            
    868000   303.62302     -1185.3011      224.75223     -960.54891     -176.3339       15.130611      15.130611      15.130611      0              0              0            
    869000   324.20025     -1191.9743      239.98421     -951.99013     -954.96735      15.135473      15.135473      15.135473      0              0              0            
    870000   303.60239     -1168.4556      224.73696     -943.7186       284.81782      15.223008      15.223008      15.223008      0              0              0            
    871000   298.20466     -1183.9032      220.74137     -963.1618       921.62755      15.280524      15.280524      15.280524      0              0              0            
    872000   289.46094     -1156.2265      214.26898     -941.95751      39.191069      15.18585       15.18585       15.18585       0              0              0            
    873000   295.74221     -1205.3908      218.91858     -986.47217     -576.03601      15.010762      15.010762      15.010762      0              0              0            
    874000   278.65065     -1214.4499      206.26682     -1008.1831     -679.05347      15.018676      15.018676      15.018676      0              0              0            
    875000   299.01657     -1189.5483      221.34238     -968.20593      1632.6055      14.986009      14.986009      14.986009      0              0              0            
    876000   294.24736     -1212.2073      217.81204     -994.39522      314.9973       15.099497      15.099497      15.099497      0              0              0            
    877000   289.73254     -1176.5014      214.47002     -962.03134     -362.71198      15.210444      15.210444      15.210444      0              0              0            
    878000   297.81698     -1198.543       220.4544      -978.08857      1756.6603      15.152405      15.152405      15.152405      0              0              0            
    879000   301.02527     -1162.1608      222.82929     -939.33148     -550.07823      15.343004      15.343004      15.343004      0              0              0            
    880000   285.89931     -1197.0484      211.63254     -985.41584      301.94964      14.876674      14.876674      14.876674      0              0              0            
    881000   273.18884     -1186.9266      202.2238      -984.70282      1590.0624      14.970283      14.970283      14.970283      0              0              0            
    882000   298.47326     -1210.2437      220.9402      -989.30346     -732.91332      15.272722      15.272722      15.272722      0              0              0            
    883000   305.51182     -1181.7697      226.15039     -955.61931     -162.68983      15.123356      15.123356      15.123356      0              0              0            
    884000   291.90936     -1199.2738      216.08138     -983.19244      1373.7816      14.980974      14.980974      14.980974      0              0              0            
    885000   296.81984     -1207.6336      219.71629     -987.91731      633.93102      14.775793      14.775793      14.775793      0              0              0            
    886000   286.24451     -1190.5831      211.88806     -978.69504     -1477.6449      15.18166       15.18166       15.18166       0              0              0            
    887000   308.23806     -1202.363       228.16844     -974.19453      365.63422      15.187697      15.187697      15.187697      0              0              0            
    888000   275.32464     -1194.9741      203.8048      -991.16931      247.13981      15.068303      15.068303      15.068303      0              0              0            
    889000   299.29317     -1241.9484      221.54713     -1020.4012     -308.65883      14.838021      14.838021      14.838021      0              0              0            
    890000   292.65152     -1204.3441      216.63075     -987.71336      1457.1809      15.077411      15.077411      15.077411      0              0              0            
    891000   297.88552     -1174.4178      220.50514     -953.91267     -1132.1653      15.247154      15.247154      15.247154      0              0              0            
    892000   285.10364     -1183.201       211.04355     -972.15742     -1660.673       15.286992      15.286992      15.286992      0              0              0            
    893000   294.70286     -1172.2007      218.14922     -954.05151      1128.2712      14.871553      14.871553      14.871553      0              0              0            
    894000   293.94261     -1208.3709      217.58646     -990.7844      -1104.2572      15.130916      15.130916      15.130916      0              0              0            
    895000   301.97985     -1209.073       223.5359      -985.53715     -516.15519      14.849536      14.849536      14.849536      0              0              0            
    896000   276.0795      -1209.7418      204.36357     -1005.3783      673.43319      14.979129      14.979129      14.979129      0              0              0            
    897000   286.1108      -1177.9019      211.78908     -966.11286      858.76452      14.874275      14.874275      14.874275      0              0              0            
    898000   283.47468     -1242.4138      209.83774     -1032.5761     -490.52043      15.161251      15.161251      15.161251      0              0              0            
    899000   293.96455     -1194.6905      217.6027      -977.0878       532.15986      15.147307      15.147307      15.147307      0              0              0            
    900000   299.4287      -1184.7528      221.64745     -963.10534      361.31064      14.880586      14.880586      14.880586      0              0              0            
    901000   275.92294     -1208.0808      204.24768     -1003.8331     -2286.2044      14.947896      14.947896      14.947896      0              0              0            
    902000   304.35672     -1187.7186      225.29534     -962.42326     -628.36601      15.202226      15.202226      15.202226      0              0              0            
    903000   278.14776     -1223.4354      205.89457     -1017.5409      397.88454      14.755034      14.755034      14.755034      0              0              0            
    904000   291.67409     -1210.7849      215.90723     -994.87767     -373.67836      15.037873      15.037873      15.037873      0              0              0            
    905000   322.68984     -1201.0356      238.86615     -962.16943     -1467.3524      15.027453      15.027453      15.027453      0              0              0            
    906000   304.87147     -1170.9739      225.67638     -945.29757     -1188.1001      15.23926       15.23926       15.23926       0              0              0            
    907000   313.31779     -1207.477       231.92864     -975.54835      2529.6146      15.01024       15.01024       15.01024       0              0              0            
    908000   287.73224     -1168.8532      212.98933     -955.86391     -1456.6329      15.450477      15.450477      15.450477      0              0              0            
    909000   302.50665     -1191.0565      223.92586     -967.13061     -1576.724       15.192656      15.192656      15.192656      0              0              0            
    910000   303.04478     -1150.2875      224.3242      -925.96334     -136.71969      15.525629      15.525629      15.525629      0              0              0            
    911000   307.48305     -1192.6695      227.60956     -965.05996     -632.06781      15.219555      15.219555      15.219555      0              0              0            
    912000   295.70309     -1174.1789      218.88962     -955.28932     -823.48617      15.14098       15.14098       15.14098       0              0              0            
    913000   320.46608     -1197.0856      237.22004     -959.8656       413.55266      15.01019       15.01019       15.01019       0              0              0            
    914000   311.19809     -1191.0542      230.35956     -960.69461      802.89669      14.889598      14.889598      14.889598      0              0              0            
    915000   304.24996     -1179.0334      225.21631     -953.81709     -1314.4422      14.917817      14.917817      14.917817      0              0              0            
    916000   302.23198     -1201.2705      223.72254     -977.54792      2072.6995      15.110411      15.110411      15.110411      0              0              0            
    917000   301.44786     -1240.0225      223.14211     -1016.8804      1312.5197      14.676032      14.676032      14.676032      0              0              0            
    918000   288.95735     -1203.9033      213.8962      -990.00711     -173.36147      14.985989      14.985989      14.985989      0              0              0            
    919000   280.91669     -1199.3172      207.94422     -991.37298     -1143.9376      15.091428      15.091428      15.091428      0              0              0            
    920000   275.938       -1200.5192      204.25883     -996.26037      0.74861407     14.885227      14.885227      14.885227      0              0              0            
    921000   290.08382     -1243.602       214.73005     -1028.872       2311.3647      14.798398      14.798398      14.798398      0              0              0            
    922000   277.46777     -1192.8821      205.39121     -987.49091     -427.64036      15.162224      15.162224      15.162224      0              0              0            
    923000   290.11983     -1193.7333      214.7567      -978.97663     -55.753585      14.874046      14.874046      14.874046      0              0              0            
    924000   301.95256     -1196.1557      223.5157      -972.63999      1949.9104      15.096933      15.096933      15.096933      0              0              0            
    925000   304.39143     -1212.5743      225.32103     -987.25327      443.18367      15.359223      15.359223      15.359223      0              0              0            
    926000   279.16686     -1200.3345      206.64894     -993.68553      3014.9011      14.981545      14.981545      14.981545      0              0              0            
    927000   290.08484     -1203.5844      214.73081     -988.8536      -89.07836       15.1008        15.1008        15.1008        0              0              0            
    928000   292.7247      -1206.6551      216.68492     -989.97021     -413.24357      14.749435      14.749435      14.749435      0              0              0            
    929000   308.09902     -1215.9255      228.06552     -987.85995     -240.58098      14.913694      14.913694      14.913694      0              0              0            
    930000   287.25729     -1226.3652      212.63775     -1013.7274      765.03371      14.886472      14.886472      14.886472      0              0              0            
    931000   302.14846     -1208.2958      223.66071     -984.63513     -1148.4959      15.006388      15.006388      15.006388      0              0              0            
    932000   328.09489     -1193.0147      242.86715     -950.14759      867.42285      14.733759      14.733759      14.733759      0              0              0            
    933000   323.7302      -1232.3904      239.63626     -992.75417     -664.81204      14.741114      14.741114      14.741114      0              0              0            
    934000   302.25385     -1201.1412      223.73873     -977.40243     -1557.2453      14.953073      14.953073      14.953073      0              0              0            
    935000   316.38888     -1197.5033      234.20196     -963.3013      -2630.3185      15.174617      15.174617      15.174617      0              0              0            
    936000   294.07204     -1187.6629      217.68227     -969.98065     -1979.4626      15.244404      15.244404      15.244404      0              0              0            
    937000   292.54794     -1175.1847      216.55408     -958.63067      476.57282      14.831247      14.831247      14.831247      0              0              0            
    938000   291.86629     -1249.9811      216.0495      -1033.9316      1243.867       14.644384      14.644384      14.644384      0              0              0            
    939000   326.96374     -1199.3052      242.02984     -957.27539      1080.9186      14.998059      14.998059      14.998059      0              0              0            
    940000   298.37617     -1201.3679      220.86834     -980.49959      1352.1659      14.826442      14.826442      14.826442      0              0              0            
    941000   270.95959     -1195.4095      200.57364     -994.8359       449.77234      14.814674      14.814674      14.814674      0              0              0            
    942000   287.70088     -1214.8954      212.96611     -1001.9293     -1199.9714      15.1256        15.1256        15.1256        0              0              0            
    943000   304.20234     -1201.4341      225.18107     -976.25302     -541.08883      15.172071      15.172071      15.172071      0              0              0            
    944000   273.32409     -1189.5464      202.32392     -987.22252      520.60342      14.873113      14.873113      14.873113      0              0              0            
    945000   284.34119     -1208.5738      210.47916     -998.09462     -3.4647512      14.987427      14.987427      14.987427      0              0              0            
    946000   310.53899     -1213.471       229.87167     -983.59937      602.96032      14.791685      14.791685      14.791685      0              0              0            
    947000   284.24996     -1190.3946      210.41163     -979.98301     -312.68732      15.150939      15.150939      15.150939      0              0              0            
    948000   310.20865     -1189.4866      229.62714     -959.85945     -637.19123      15.188267      15.188267      15.188267      0              0              0            
    949000   285.23258     -1227.7037      211.13899     -1016.5647     -1565.1774      14.97577       14.97577       14.97577       0              0              0            
    950000   303.78971     -1183.3785      224.87562     -958.50287     -242.85875      15.167012      15.167012      15.167012      0              0              0            
    951000   303.70538     -1205.555       224.8132      -980.74175     -56.032751      14.889093      14.889093      14.889093      0              0              0            
    952000   301.82851     -1191.1178      223.42387     -967.69388     -1300.0514      15.120782      15.120782      15.120782      0              0              0            
    953000   318.34264     -1197.376       235.6482      -961.72778      1019.0024      15.278095      15.278095      15.278095      0              0              0            
    954000   288.21919     -1181.8322      213.34979     -968.48237     -739.20147      15.328125      15.328125      15.328125      0              0              0            
    955000   292.9543      -1197.4791      216.85488     -980.6242      -838.32464      15.370482      15.370482      15.370482      0              0              0            
    956000   309.30535     -1181.9213      228.95849     -952.96278     -1292.0389      15.018263      15.018263      15.018263      0              0              0            
    957000   287.0265      -1207.8514      212.46691     -995.38451      1405.1564      14.872544      14.872544      14.872544      0              0              0            
    958000   288.83634     -1221.572       213.80662     -1007.7654      496.67451      15.097197      15.097197      15.097197      0              0              0            
    959000   308.54086     -1170.4718      228.39259     -942.07921      1578.3614      15.099341      15.099341      15.099341      0              0              0            
    960000   313.65053     -1174.8312      232.17494     -942.65621     -582.16566      15.300754      15.300754      15.300754      0              0              0            
    961000   299.5733      -1216.6908      221.75449     -994.93632     -1131.4328      15.166302      15.166302      15.166302      0              0              0            
    962000   321.89846     -1210.9389      238.28034     -972.65861     -669.76262      15.10972       15.10972       15.10972       0              0              0            
    963000   299.21536     -1189.9691      221.48953     -968.47958      149.47252      15.335777      15.335777      15.335777      0              0              0            
    964000   299.10184     -1197.7396      221.4055      -976.33414     -171.11872      15.103253      15.103253      15.103253      0              0              0            
    965000   313.56463     -1170.0273      232.11135     -937.9159       180.07146      15.281522      15.281522      15.281522      0              0              0            
    966000   334.02849     -1216.0216      247.25941     -968.76214     -289.35134      14.918493      14.918493      14.918493      0              0              0            
    967000   312.8175      -1216.4842      231.55831     -984.92592      1063.4028      14.877793      14.877793      14.877793      0              0              0            
    968000   306.33968     -1192.7874      226.7632      -966.02425      381.61301      15.180885      15.180885      15.180885      0              0              0            
    969000   293.85322     -1192.0637      217.52029     -974.54337     -3226.636       15.267063      15.267063      15.267063      0              0              0            
    970000   316.59502     -1199.2269      234.35455     -964.87232     -2231.3408      15.069637      15.069637      15.069637      0              0              0            
    971000   292.29405     -1188.0524      216.36614     -971.68624     -234.23876      15.300847      15.300847      15.300847      0              0              0            
    972000   310.79148     -1191.8703      230.05857     -961.81172      669.78666      14.959544      14.959544      14.959544      0              0              0            
    973000   300.75749     -1175.438       222.63107     -952.80689     -483.46355      15.221359      15.221359      15.221359      0              0              0            
    974000   272.61087     -1185.1299      201.79597     -983.33396      799.36601      14.930763      14.930763      14.930763      0              0              0            
    975000   344.25333     -1183.3652      254.82819     -928.53702      703.76948      14.914         14.914         14.914         0              0              0            
    976000   298.51464     -1199.5939      220.97084     -978.62302     -12.238539      15.192208      15.192208      15.192208      0              0              0            
    977000   308.04225     -1227.0387      228.0235      -999.01516      2535.9131      14.850628      14.850628      14.850628      0              0              0            
    978000   289.85295     -1176.7751      214.55915     -962.21595     -887.20077      15.488925      15.488925      15.488925      0              0              0            
    979000   314.44315     -1210.6477      232.76167     -977.88606      585.55112      14.777097      14.777097      14.777097      0              0              0            
    980000   288.18194     -1220.8348      213.32221     -1007.5126     -2390.8942      15.18393       15.18393       15.18393       0              0              0            
    981000   314.92444     -1204.6228      233.11793     -971.50483     -2524.9037      15.05171       15.05171       15.05171       0              0              0            
    982000   301.76567     -1212.0132      223.37736     -988.63585     -1060.1686      15.123124      15.123124      15.123124      0              0              0            
    983000   296.27394     -1223.4118      219.31219     -1004.0996     -362.32441      14.977225      14.977225      14.977225      0              0              0            
    984000   290.59576     -1228.5274      215.10901     -1013.4184     -326.8117       15.066916      15.066916      15.066916      0              0              0            
    985000   305.87757     -1215.9028      226.42113     -989.48169     -1474.0736      15.155665      15.155665      15.155665      0              0              0            
    986000   309.51087     -1188.1618      229.11062     -959.05114     -772.00391      15.123504      15.123504      15.123504      0              0              0            
    987000   318.9266      -1203.9692      236.08047     -967.88874     -524.53564      15.055453      15.055453      15.055453      0              0              0            
    988000   305.8598      -1198.0165      226.40797     -971.60854      391.68265      15.152678      15.152678      15.152678      0              0              0            
    989000   294.2387      -1189.3728      217.80563     -971.5672      -659.19393      15.148774      15.148774      15.148774      0              0              0            
    990000   292.06754     -1203.8952      216.19847     -987.6967       357.99352      15.121698      15.121698      15.121698      0              0              0            
    991000   286.19169     -1174.6667      211.84896     -962.81775     -2069.6566      15.367663      15.367663      15.367663      0              0              0            
    992000   291.21479     -1213.3657      215.56723     -997.79847     -2152.5246      15.229523      15.229523      15.229523      0              0              0            
    993000   291.97575     -1210.8553      216.13052     -994.72479      881.46466      15.233086      15.233086      15.233086      0              0              0            
    994000   279.59415     -1209.4465      206.96523     -1002.4813     -1617.1984      15.218917      15.218917      15.218917      0              0              0            
    995000   319.03928     -1187.4804      236.16388     -951.31655      204.30992      15.196888      15.196888      15.196888      0              0              0            
    996000   308.7639      -1222.5475      228.55769     -993.98977     -1466.1651      14.996856      14.996856      14.996856      0              0              0            
    997000   294.86133     -1197.048       218.26653     -978.78146      664.70245      15.102509      15.102509      15.102509      0              0              0            
    998000   305.88636     -1209.5616      226.42763     -983.13392      1939.3893      14.714385      14.714385      14.714385      0              0              0            
    999000   310.81207     -1201.5435      230.07381     -971.46973      2067.7612      14.76959       14.76959       14.76959       0              0              0            
   1000000   302.84178     -1213.1034      224.17393     -988.92944     -1530.4915      15.108109      15.108109      15.108109      0              0              0            
Loop time of 211.124 on 12 procs for 1000000 steps with 320 atoms

Performance: 818.477 ns/day, 0.029 hours/ns, 4736.556 timesteps/s, 1.516 Matom-step/s
88.6% CPU use with 12 MPI tasks x 1 OpenMP threads

MPI task timing breakdown:
Section |  min time  |  avg time  |  max time  |%varavg| %total
---------------------------------------------------------------
Pair    | 22.734     | 24.462     | 26.219     |  24.4 | 11.59
Bond    | 0.64098    | 0.67033    | 0.74992    |   3.5 |  0.32
Kspace  | 81.336     | 83.735     | 86.337     |  16.4 | 39.66
Neigh   | 4.7028     | 4.8756     | 5.016      |   5.8 |  2.31
Comm    | 23.654     | 25.475     | 27.899     |  24.2 | 12.07
Output  | 14.12      | 15.056     | 17.738     |  23.6 |  7.13
Modify  | 51.315     | 55.304     | 56.48      |  18.9 | 26.20
Other   |            | 1.546      |            |       |  0.73

Nlocal:        26.6667 ave          34 max          22 min
Histogram: 2 2 1 2 1 1 1 1 0 1
Nghost:        792.917 ave         831 max         747 min
Histogram: 2 0 1 2 1 0 1 1 2 2
Neighs:              0 ave           0 max           0 min
Histogram: 12 0 0 0 0 0 0 0 0 0

Total # of neighbors = 0
Ave neighs/atom = 0
Ave special neighs/atom = 1.9875
Neighbor list builds = 74035
Dangerous builds = 5235


Total wall time: 0:03:31
