LAMMPS (7 Feb 2024 - Update 1)
  using 1 OpenMP thread(s) per MPI task
echo both

# Define temperature parameters
variable	temperature equal 300.0 # Simulation temperature in Kelvin
variable	tempDamp equal 100.0 # Relaxation time of themostat - 0.1 ps

# Define pressure parameters
variable	pressure equal 1.0 # Pressure in bars
variable	pressureDamp equal 500.0 # Relaxation time of the barostat 0.5 ps

# Define random seed
variable	seed equal 98475

# Simulation setup
units		real
atom_style	full
variable	out_freq equal 1000 # Thermo output frequency
variable	out_freq2 equal 10 # Dump output frequency
neigh_modify    delay 10 every 1 # Neighbor list setup

### TIP4P/Ew and NaCl Potential Parameters ###
pair_style      hybrid lj/cut/coul/long 5.0 buck/coul/long 5.0 # This cutoff is too short for a real calculation
# Load configuration
read_data       data.nacl
Reading data file ...
  orthogonal box = (0 0 0) to (15.5 15.5 15.5)
  2 by 2 by 3 MPI processor grid
  reading atoms ...
  320 atoms
  scanning bonds ...
  2 = max bonds/atom
  scanning angles ...
  1 = max angles/atom
  reading bonds ...
  212 bonds
  reading angles ...
  106 angles
Finding 1-2 1-3 1-4 neighbors ...
  special bond factors lj:    0        0        0       
  special bond factors coul:  0        0        0       
     2 = max # of 1-2 neighbors
     1 = max # of 1-3 neighbors
     1 = max # of 1-4 neighbors
     2 = max # of special neighbors
  special bonds CPU = 0.001 seconds
  read_data CPU = 0.018 seconds

# create groups ###

group hy type 1
212 atoms in group hy
group ox type 2
106 atoms in group ox
group na type 3
1 atoms in group na
group cl type 4
1 atoms in group cl

## set charges - beside manually ###
set group ox charge -0.830
Setting atom values ...
  106 settings made for charge
set group hy charge 0.415
Setting atom values ...
  212 settings made for charge
set group na charge 1.0
Setting atom values ...
  1 settings made for charge
set group cl charge -1.0
Setting atom values ...
  1 settings made for charge

# Water TIP3P
pair_coeff      1 1 lj/cut/coul/long 0.0 0.0
pair_coeff      2 2 lj/cut/coul/long 0.102 3.188
pair_coeff      1 2 lj/cut/coul/long 0.0 0.0
# Mixed from Pettitt 86
pair_coeff      2 3 lj/cut/coul/long 0.1338549 2.72
pair_coeff      1 3 lj/cut/coul/long 0.1338549 1.31
pair_coeff      2 4 lj/cut/coul/long 0.359825 3.55
pair_coeff      1 4 lj/cut/coul/long 0.359825 2.14
# NaCl from Pettitt 86
pair_coeff      3 4 buck/coul/long 28929.93 0.317 161.2016
pair_coeff      3 3 buck/coul/long 9772.847 0.317 24.18024 # This is not used
pair_coeff      4 4 buck/coul/long 80312.94 0.317 1683.981 # This is not used
bond_style      harmonic
bond_coeff      1 450 0.9572
angle_style     harmonic
angle_coeff     1 55 104.52
kspace_style    pppm 1e-2 # This value is too large for a real calculation

timestep	2.0 # Timestep 2 fs
thermo          ${out_freq}
thermo          1000
thermo_style 	custom step temp pe ke etotal press lx ly lz xy xz yz
restart 	${out_freq} restart restart2
restart 	1000 restart restart2

velocity        all create ${temperature} ${seed} dist gaussian
velocity        all create 300 ${seed} dist gaussian
velocity        all create 300 98475 dist gaussian
# Perform minimization
minimize 1.0e-2 1.0e-3 100 1000
Switching to 'neigh_modify every 1 delay 0 check yes' setting during minimization
PPPM initialization ...
  using 12-bit tables for long-range coulomb (src/lammps-7Feb2024/src/kspace.cpp:342)
  G vector (1/distance) = 0.40023582
  grid = 8 8 8
  stencil order = 5
  estimated absolute RMS force accuracy = 0.7823365
  estimated relative force accuracy = 0.0023559831
  using double precision MKL FFT
  3d grid and FFT values/proc = 1089 48
Generated 0 of 6 mixed pair_coeff terms from geometric mixing rule
Neighbor list info ...
  update: every = 1 steps, delay = 0 steps, check = yes
  max neighbors/atom: 2000, page size: 100000
  master list distance cutoff = 7
  ghost atom cutoff = 7
  binsize = 3.5, bins = 5 5 5
  3 neighbor lists, perpetual/occasional/extra = 3 0 0
  (1) pair lj/cut/coul/long, perpetual, skip from (3)
      attributes: half, newton on
      pair build: skip
      stencil: none
      bin: none
  (2) pair buck/coul/long, perpetual, skip from (3)
      attributes: half, newton on
      pair build: skip
      stencil: none
      bin: none
  (3) neighbor class addition, perpetual
      attributes: half, newton on
      pair build: half/bin/newton
      stencil: half/bin/3d
      bin: standard
Per MPI rank memory allocation (min/avg/max) = 9.416 | 9.418 | 9.42 Mbytes
   Step          Temp          PotEng         KinEng         TotEng         Press            Lx             Ly             Lz             Xy             Xz             Yz      
         0   300            92556250       285.26352      92556536       6.8175783e+09  15.5           15.5           15.5           0              0              0            
        27   300           -1095.9406      285.26352     -810.67712     -2918.7587      15.5           15.5           15.5           0              0              0            
Loop time of 0.0122428 on 12 procs for 27 steps with 320 atoms

80.7% CPU use with 12 MPI tasks x 1 OpenMP threads

Minimization stats:
  Stopping criterion = energy tolerance
  Energy initial, next-to-last, final = 
       92556250.257805     -1089.35799481  -1095.94064566941
  Force two-norm initial, final = 1.8953089e+09 108.40957
  Force max component initial, final = 1.2163668e+09 24.333575
  Final line search alpha, max atom move = 0.0033714434 0.08203927
  Iterations, force evaluations = 27 35

MPI task timing breakdown:
Section |  min time  |  avg time  |  max time  |%varavg| %total
---------------------------------------------------------------
Pair    | 0.00048849 | 0.00068633 | 0.00085241 |   0.0 |  5.61
Bond    | 1.8927e-05 | 2.8506e-05 | 3.9513e-05 |   0.0 |  0.23
Kspace  | 0.003919   | 0.0040693  | 0.0042593  |   0.2 | 33.24
Neigh   | 0.00016828 | 0.00019068 | 0.00020305 |   0.0 |  1.56
Comm    | 0.0010909  | 0.001158   | 0.0012292  |   0.1 |  9.46
Output  | 0          | 0          | 0          |   0.0 |  0.00
Modify  | 0          | 0          | 0          |   0.0 |  0.00
Other   |            | 0.00611    |            |       | 49.91

Nlocal:        26.6667 ave          32 max          19 min
Histogram: 1 0 2 1 0 1 1 2 2 2
Nghost:        766.167 ave         805 max         727 min
Histogram: 2 0 0 2 3 1 1 1 1 1
Neighs:              0 ave           0 max           0 min
Histogram: 12 0 0 0 0 0 0 0 0 0

Total # of neighbors = 0
Ave neighs/atom = 0
Ave special neighs/atom = 1.9875
Neighbor list builds = 3
Dangerous builds = 0

# Write trajectory to file
dump           	myDump all dcd ${out_freq2} out.dcd
dump           	myDump all dcd 10 out.dcd
#dump_modify    	myDump unwrap yes

# Start simulation

reset_timestep 	0


fix umb all plumed plumedfile plumed_3.dat outfile plumed.out
fix             1 all temp/csvr ${temperature} ${temperature} ${tempDamp} ${seed} # Bussi's thermostat
fix             1 all temp/csvr 300 ${temperature} ${tempDamp} ${seed} 
fix             1 all temp/csvr 300 300 ${tempDamp} ${seed} 
fix             1 all temp/csvr 300 300 100 ${seed} 
fix             1 all temp/csvr 300 300 100 98475 
fix             2 all shake 0.0001 20 0 t 1 2 # Shake algorithm
Finding SHAKE clusters ...
       0 = # of size 2 clusters
     106 = # of size 3 clusters
       0 = # of size 4 clusters
       0 = # of frozen angles
  find clusters CPU = 0.000 seconds
#fix             3 all nve
fix             3 all nph iso ${pressure} ${pressure} ${pressureDamp} # Isotropic barostat
fix             3 all nph iso 1 ${pressure} ${pressureDamp} 
fix             3 all nph iso 1 1 ${pressureDamp} 
fix             3 all nph iso 1 1 500 
fix 		4 all momentum 10000 linear 1 1 1 # Set total linear momentum to zero every 10000 steps

run 1000000
PPPM initialization ...
  using 12-bit tables for long-range coulomb (src/lammps-7Feb2024/src/kspace.cpp:342)
  G vector (1/distance) = 0.40023582
  grid = 8 8 8
  stencil order = 5
  estimated absolute RMS force accuracy = 0.7823365
  estimated relative force accuracy = 0.0023559831
  using double precision MKL FFT
  3d grid and FFT values/proc = 1089 48
Generated 0 of 6 mixed pair_coeff terms from geometric mixing rule
Per MPI rank memory allocation (min/avg/max) = 9.186 | 9.188 | 9.19 Mbytes
   Step          Temp          PotEng         KinEng         TotEng         Press            Lx             Ly             Lz             Xy             Xz             Yz      
         0   385.36913     -1127.6681      285.26352     -842.40459     -1625.9549      15.5           15.5           15.5           0              0              0            
      1000   291.10373     -1186.2429      215.48503     -970.75788      176.53699      15.062028      15.062028      15.062028      0              0              0            
      2000   309.97661     -1195.0435      229.45538     -965.58815      709.59923      14.980378      14.980378      14.980378      0              0              0            
      3000   296.36675     -1196.9885      219.38089     -977.60757     -916.70861      15.011915      15.011915      15.011915      0              0              0            
      4000   285.44463     -1162.6154      211.29596     -951.31943     -1903.6023      14.933834      14.933834      14.933834      0              0              0            
      5000   293.55342     -1182.2063      217.29837     -964.90793      77.087672      14.723635      14.723635      14.723635      0              0              0            
      6000   288.33821     -1200.5455      213.43789     -987.10766      11.807928      14.881094      14.881094      14.881094      0              0              0            
      7000   299.21425     -1237.0738      221.48871     -1015.5851      2403.5074      14.678203      14.678203      14.678203      0              0              0            
      8000   302.43653     -1233.1402      223.87395     -1009.2662     -17.41677       15.023481      15.023481      15.023481      0              0              0            
      9000   273.35375     -1230.3424      202.34588     -1027.9965     -315.98345      14.918629      14.918629      14.918629      0              0              0            
     10000   308.64502     -1190.6694      228.46969     -962.1997      -734.13765      14.85327       14.85327       14.85327       0              0              0            
     11000   280.60509     -1180.1155      207.71357     -972.40193     -1492.9876      14.95593       14.95593       14.95593       0              0              0            
     12000   307.54236     -1172.307       227.65347     -944.65356      1000.7915      15.012949      15.012949      15.012949      0              0              0            
     13000   304.25254     -1209.9916      225.21822     -984.77339      1267.2657      15.161897      15.161897      15.161897      0              0              0            
     14000   280.42575     -1223.7228      207.58082     -1016.142       212.99121      14.86429       14.86429       14.86429       0              0              0            
     15000   260.50877     -1211.2279      192.83758     -1018.3904     -1970.8273      14.939442      14.939442      14.939442      0              0              0            
     16000   302.53868     -1205.2006      223.94957     -981.25107     -2804.7016      15.030054      15.030054      15.030054      0              0              0            
     17000   331.1839      -1197.8368      245.15374     -952.68303      662.33166      15.024388      15.024388      15.024388      0              0              0            
     18000   283.62713     -1184.5995      209.95059     -974.64889     -204.99687      15.316389      15.316389      15.316389      0              0              0            
     19000   303.3707      -1197.5797      224.56545     -973.01421      433.28504      15.012201      15.012201      15.012201      0              0              0            
     20000   309.31166     -1213.8477      228.96316     -984.88458     -341.52705      15.004894      15.004894      15.004894      0              0              0            
     21000   307.85336     -1220.3875      227.88368     -992.50383      150.96882      15.110577      15.110577      15.110577      0              0              0            
     22000   325.52644     -1192.3366      240.9659      -951.37067     -9.9207237      15.036298      15.036298      15.036298      0              0              0            
     23000   291.26193     -1213.7064      215.60213     -998.10425     -1071.2941      14.819951      14.819951      14.819951      0              0              0            
     24000   291.1977      -1171.4937      215.55458     -955.93917      381.21805      15.175054      15.175054      15.175054      0              0              0            
     25000   291.99415     -1175.2142      216.14414     -959.07002      820.93595      15.009656      15.009656      15.009656      0              0              0            
     26000   328.54681     -1241.2308      243.20168     -998.02911      184.12615      14.728779      14.728779      14.728779      0              0              0            
     27000   294.18531     -1189.3146      217.76611     -971.54854      472.05534      14.846526      14.846526      14.846526      0              0              0            
     28000   297.62233     -1207.0374      220.31032     -986.72713      255.60273      15.058386      15.058386      15.058386      0              0              0            
     29000   298.94151     -1205.0922      221.28682     -983.80537      839.92883      14.872331      14.872331      14.872331      0              0              0            
     30000   289.30283     -1222.4352      214.15194     -1008.2833     -1284.7889      15.131052      15.131052      15.131052      0              0              0            
     31000   287.59716     -1222.1755      212.88934     -1009.2862      1182.8312      14.839715      14.839715      14.839715      0              0              0            
     32000   314.8143      -1226.1638      233.03641     -993.12743     -1383.1508      14.971647      14.971647      14.971647      0              0              0            
     33000   305.97343     -1218.8687      226.49209     -992.37657     -5.7143057      15.056553      15.056553      15.056553      0              0              0            
     34000   293.23104     -1201.3788      217.05973     -984.31908     -673.38424      15.318874      15.318874      15.318874      0              0              0            
     35000   295.46911     -1224.8327      218.71643     -1006.1163     -1546.8391      14.953706      14.953706      14.953706      0              0              0            
     36000   317.76007     -1221.653       235.21697     -986.43599     -652.85508      14.910221      14.910221      14.910221      0              0              0            
     37000   307.92142     -1185.0457      227.93406     -957.11161     -14.363955      15.19852       15.19852       15.19852       0              0              0            
     38000   309.75167     -1175.5718      229.28887     -946.28297     -1355.2769      15.391467      15.391467      15.391467      0              0              0            
     39000   312.24992     -1202.0891      231.13816     -970.95098     -449.04617      15.054312      15.054312      15.054312      0              0              0            
     40000   317.09353     -1244.7355      234.72357     -1010.0119      254.1602       14.938308      14.938308      14.938308      0              0              0            
     41000   310.09278     -1217.9944      229.54137     -988.45307     -1588.5618      14.901809      14.901809      14.901809      0              0              0            
     42000   286.29484     -1189.897       211.92532     -977.97168     -38.820961      14.779345      14.779345      14.779345      0              0              0            
     43000   311.66573     -1212.3587      230.70572     -981.65297      166.12718      14.828212      14.828212      14.828212      0              0              0            
     44000   313.32148     -1214.2988      231.93137     -982.36748      2114.2369      14.837791      14.837791      14.837791      0              0              0            
     45000   301.63577     -1198.7018      223.2812      -975.42063      191.92817      15.051328      15.051328      15.051328      0              0              0            
     46000   291.74976     -1224.447       215.96323     -1008.4837      2103.0104      15.181652      15.181652      15.181652      0              0              0            
     47000   306.64859     -1194.7252      226.99186     -967.7333      -1636.3735      15.309833      15.309833      15.309833      0              0              0            
     48000   314.21904     -1201.9982      232.59577     -969.40244      76.328157      14.975871      14.975871      14.975871      0              0              0            
     49000   304.12731     -1211.7148      225.12552     -986.58924     -231.40286      14.786262      14.786262      14.786262      0              0              0            
     50000   291.23368     -1201.7571      215.58122     -986.17591      139.89306      15.015504      15.015504      15.015504      0              0              0            
     51000   296.63283     -1223.7408      219.57785     -1004.1629     -244.04372      14.880857      14.880857      14.880857      0              0              0            
     52000   326.32427     -1236.6731      241.55648     -995.1166      -941.44587      15.064462      15.064462      15.064462      0              0              0            
     53000   309.43641     -1205.1115      229.0555      -976.05601     -155.59931      14.92303       14.92303       14.92303       0              0              0            
     54000   327.52152     -1203.2405      242.44273     -960.79778      864.13126      14.964666      14.964666      14.964666      0              0              0            
     55000   316.31448     -1215.8217      234.14689     -981.67483     -355.46023      14.878033      14.878033      14.878033      0              0              0            
     56000   312.13311     -1195.7221      231.05169     -964.67037      888.57243      14.858476      14.858476      14.858476      0              0              0            
     57000   291.59717     -1174.5497      215.85028     -958.69943     -2175.0906      15.048671      15.048671      15.048671      0              0              0            
     58000   315.46487     -1220.8209      233.51798     -987.30296      403.84766      14.852697      14.852697      14.852697      0              0              0            
     59000   294.77208     -1210.9663      218.20046     -992.76584     -83.422508      14.831149      14.831149      14.831149      0              0              0            
     60000   320.5428      -1192.8269      237.27684     -955.55004      1492.6908      14.802934      14.802934      14.802934      0              0              0            
     61000   294.16703     -1223.0807      217.75258     -1005.3281      452.61042      14.957589      14.957589      14.957589      0              0              0            
     62000   305.54928     -1192.3922      226.17811     -966.21407     -760.69034      15.072936      15.072936      15.072936      0              0              0            
     63000   291.00005     -1201.9502      215.40828     -986.54191     -641.60812      14.817823      14.817823      14.817823      0              0              0            
     64000   276.14522     -1209.1304      204.41221     -1004.7182      1064.7247      15.146691      15.146691      15.146691      0              0              0            
     65000   293.20989     -1199.0207      217.04408     -981.97667     -28.375966      15.270504      15.270504      15.270504      0              0              0            
     66000   322.91823     -1209.6579      239.03521     -970.62274      22.466034      15.111695      15.111695      15.111695      0              0              0            
     67000   301.19735     -1160.0131      222.95667     -937.05646      1813.0151      14.986908      14.986908      14.986908      0              0              0            
     68000   263.06933     -1208.9786      194.73299     -1014.2457      84.275423      14.836535      14.836535      14.836535      0              0              0            
     69000   271.97497     -1216.9503      201.32525     -1015.6251      998.19622      14.714487      14.714487      14.714487      0              0              0            
     70000   296.17211     -1186.3292      219.23681     -967.09242      148.41241      14.862451      14.862451      14.862451      0              0              0            
     71000   301.16532     -1206.7408      222.93296     -983.80786      2630.8172      14.968137      14.968137      14.968137      0              0              0            
     72000   295.28338     -1205.1621      218.57894     -986.5832      -2021.5575      15.050505      15.050505      15.050505      0              0              0            
     73000   287.00904     -1202.7549      212.45399     -990.30086     -190.58148      15.123471      15.123471      15.123471      0              0              0            
     74000   291.83416     -1192.6886      216.02571     -976.66284      1162.4288      14.950268      14.950268      14.950268      0              0              0            
     75000   295.87032     -1200.0303      219.01342     -981.0169      -367.12401      14.963898      14.963898      14.963898      0              0              0            
     76000   321.64527     -1188.0645      238.09292     -949.97157     -1972.8868      15.083231      15.083231      15.083231      0              0              0            
     77000   321.19959     -1194.146       237.76301     -956.38298     -910.92995      14.912263      14.912263      14.912263      0              0              0            
     78000   326.27417     -1218.1569      241.51939     -976.63747      2093.7056      14.979859      14.979859      14.979859      0              0              0            
     79000   301.96446     -1191.8299      223.52451     -968.30535      2066.7162      14.738066      14.738066      14.738066      0              0              0            
     80000   309.9452      -1178.7981      229.43213     -949.36592      319.3024       15.180128      15.180128      15.180128      0              0              0            
     81000   301.56486     -1212.997       223.22871     -989.76827      743.66863      14.792744      14.792744      14.792744      0              0              0            
     82000   296.03484     -1195.1955      219.1352      -976.06031      737.36221      15.10749       15.10749       15.10749       0              0              0            
     83000   265.51025     -1206.1291      196.53985     -1009.5893     -1269.7411      15.169016      15.169016      15.169016      0              0              0            
     84000   302.77692     -1191.6556      224.12592     -967.52971      296.19427      14.962556      14.962556      14.962556      0              0              0            
     85000   322.15786     -1185.3538      238.47236     -946.88143     -134.87084      15.081566      15.081566      15.081566      0              0              0            
     86000   283.02543     -1188.7176      209.50518     -979.21244     -2096.4172      15.118572      15.118572      15.118572      0              0              0            
     87000   280.91384     -1190.1871      207.94211     -982.24504      1249.6253      14.650741      14.650741      14.650741      0              0              0            
     88000   293.56722     -1208.9935      217.30858     -991.68492     -714.36915      14.901835      14.901835      14.901835      0              0              0            
     89000   316.472       -1201.8795      234.26349     -967.61601      1232.9092      14.577074      14.577074      14.577074      0              0              0            
     90000   320.45296     -1191.812       237.21033     -954.60168      329.27492      15.089218      15.089218      15.089218      0              0              0            
     91000   318.64072     -1182.1106      235.86885     -946.24179      773.73222      14.890153      14.890153      14.890153      0              0              0            
     92000   322.65207     -1167.1389      238.83819     -928.30072      406.33253      14.957772      14.957772      14.957772      0              0              0            
     93000   322.4164      -1181.3891      238.66374     -942.7254      -566.8699       15.27523       15.27523       15.27523       0              0              0            
     94000   320.50235     -1216.1927      237.2469      -978.94581      954.82171      15.002365      15.002365      15.002365      0              0              0            
     95000   304.98424     -1237.8615      225.75985     -1012.1017      1788.1986      14.653725      14.653725      14.653725      0              0              0            
     96000   301.04292     -1199.2837      222.84235     -976.4413       1385.8802      14.85702       14.85702       14.85702       0              0              0            
     97000   306.07506     -1192.5315      226.56732     -965.96419     -2637.2221      15.432684      15.432684      15.432684      0              0              0            
     98000   272.53574     -1206.9992      201.74035     -1005.2589      222.75144      15.139343      15.139343      15.139343      0              0              0            
     99000   315.16026     -1220.2824      233.29249     -986.98987     -282.52047      14.970294      14.970294      14.970294      0              0              0            
    100000   318.58964     -1215.2444      235.83104     -979.41335      973.72212      15.097041      15.097041      15.097041      0              0              0            
    101000   298.06751     -1197.7094      220.63985     -977.06956      3003.0254      14.914262      14.914262      14.914262      0              0              0            
    102000   277.51319     -1191.1319      205.42484     -985.70702     -1076.342       15.138301      15.138301      15.138301      0              0              0            
    103000   268.48083     -1194.5481      198.73877     -995.80934     -3005.3288      15.170546      15.170546      15.170546      0              0              0            
    104000   290.53971     -1214.0526      215.06752     -998.98505      794.81986      14.779729      14.779729      14.779729      0              0              0            
    105000   302.91495     -1192.9187      224.2281      -968.69063     -919.8874       15.063121      15.063121      15.063121      0              0              0            
    106000   320.52365     -1188.6207      237.26266     -951.35799      1835.9818      14.892936      14.892936      14.892936      0              0              0            
    107000   313.55468     -1199.7465      232.10399     -967.64254     -128.41473      15.139557      15.139557      15.139557      0              0              0            
    108000   285.85422     -1184.345       211.59915     -972.74589      1661.2885      14.900835      14.900835      14.900835      0              0              0            
    109000   310.82906     -1191.4083      230.08639     -961.32195     -849.28515      15.050976      15.050976      15.050976      0              0              0            
    110000   299.17249     -1199.3951      221.4578      -977.93728     -392.60986      14.977154      14.977154      14.977154      0              0              0            
    111000   310.44352     -1199.0547      229.801       -969.25374      1052.3812      14.915059      14.915059      14.915059      0              0              0            
    112000   312.24492     -1210.7868      231.13446     -979.65232     -1036.66        15.045372      15.045372      15.045372      0              0              0            
    113000   288.90505     -1194.6902      213.85748     -980.83272     -2911.3414      15.25152       15.25152       15.25152       0              0              0            
    114000   286.93094     -1208.7665      212.39618     -996.37035     -1320.3087      15.096526      15.096526      15.096526      0              0              0            
    115000   306.77624     -1231.8111      227.08635     -1004.7248      922.68391      14.704333      14.704333      14.704333      0              0              0            
    116000   301.94279     -1214.2663      223.50847     -990.75787     -1075.0928      15.173617      15.173617      15.173617      0              0              0            
    117000   317.80702     -1176.0336      235.25172     -940.78186      665.61968      14.768076      14.768076      14.768076      0              0              0            
    118000   312.95302     -1169.8303      231.65862     -938.17165      3698.7512      15.061086      15.061086      15.061086      0              0              0            
    119000   288.85292     -1217.9519      213.81889     -1004.1331     -192.04757      15.144653      15.144653      15.144653      0              0              0            
    120000   318.09598     -1193.6445      235.46561     -958.17888     -359.49612      15.100029      15.100029      15.100029      0              0              0            
    121000   282.06722     -1184.7495      208.79588     -975.95363     -1280.0821      15.292553      15.292553      15.292553      0              0              0            
    122000   304.18092     -1204.7249      225.16521     -979.55969      252.14926      15.05646       15.05646       15.05646       0              0              0            
    123000   290.60892     -1242.6668      215.11875     -1027.5481      2209.7039      14.615492      14.615492      14.615492      0              0              0            
    124000   277.35627     -1214.9073      205.30868     -1009.5986      180.978        14.587858      14.587858      14.587858      0              0              0            
    125000   306.59959     -1206.0527      226.95559     -979.09715     -1662.9727      15.054026      15.054026      15.054026      0              0              0            
    126000   308.6212      -1192.9022      228.45206     -964.45016      980.06746      14.98601       14.98601       14.98601       0              0              0            
    127000   293.45892     -1186.8619      217.22841     -969.63348     -1063.4736      14.971761      14.971761      14.971761      0              0              0            
    128000   274.22086     -1197.351       202.98774     -994.36323     -1201.7063      14.888697      14.888697      14.888697      0              0              0            
    129000   272.85847     -1194.5498      201.97925     -992.57059      752.61172      15.082862      15.082862      15.082862      0              0              0            
    130000   276.95648     -1205.5387      205.01274     -1000.526      -300.61601      14.947256      14.947256      14.947256      0              0              0            
    131000   303.66916     -1199.9473      224.78638     -975.16087     -1000.433       15.09527       15.09527       15.09527       0              0              0            
    132000   282.51976     -1226.181       209.13088     -1017.0501      694.19694      14.923045      14.923045      14.923045      0              0              0            
    133000   307.22755     -1196.4106      227.42043     -968.99016      1013.0176      14.903518      14.903518      14.903518      0              0              0            
    134000   301.50659     -1173.6021      223.18558     -950.41655     -1636.0746      15.268149      15.268149      15.268149      0              0              0            
    135000   288.94339     -1206.9864      213.88586     -993.10051      514.18399      14.860945      14.860945      14.860945      0              0              0            
    136000   301.68345     -1178.2704      223.31649     -954.95388     -507.62928      15.064944      15.064944      15.064944      0              0              0            
    137000   304.50373     -1218.8418      225.40417     -993.43762     -355.43231      14.833936      14.833936      14.833936      0              0              0            
    138000   299.183       -1205.1188      221.46558     -983.65322     -421.83333      14.965326      14.965326      14.965326      0              0              0            
    139000   310.01701     -1215.203       229.48529     -985.71774     -799.23388      15.172071      15.172071      15.172071      0              0              0            
    140000   314.50941     -1215.6135      232.81071     -982.80282      444.14108      15.212878      15.212878      15.212878      0              0              0            
    141000   305.3195      -1201.647       226.00802     -975.63893      1319.4568      14.803518      14.803518      14.803518      0              0              0            
    142000   297.37705     -1177.9103      220.12875     -957.78155     -112.44162      14.859488      14.859488      14.859488      0              0              0            
    143000   304.42712     -1202.7723      225.34746     -977.42481      567.28869      14.833372      14.833372      14.833372      0              0              0            
    144000   283.32177     -1212.3646      209.72455     -1002.64        27.503874      15.142426      15.142426      15.142426      0              0              0            
    145000   282.15344     -1214.7853      208.85971     -1005.9256      1345.9463      15.100614      15.100614      15.100614      0              0              0            
    146000   302.08648     -1238.5563      223.61483     -1014.9415      941.36405      14.840167      14.840167      14.840167      0              0              0            
    147000   335.18086     -1206.8077      248.11244     -958.69526     -104.90689      14.835196      14.835196      14.835196      0              0              0            
    148000   292.97824     -1187.6309      216.8726      -970.7583      -924.73577      15.027373      15.027373      15.027373      0              0              0            
    149000   307.31958     -1216.966       227.48855     -989.47749     -653.67879      15.149323      15.149323      15.149323      0              0              0            
    150000   325.17505     -1209.1035      240.70579     -968.39769     -15.018945      15.098577      15.098577      15.098577      0              0              0            
    151000   295.81487     -1218.3905      218.97237     -999.41813     -685.63608      15.186712      15.186712      15.186712      0              0              0            
    152000   270.86188     -1208.0954      200.50131     -1007.5941     -1069.5951      15.015345      15.015345      15.015345      0              0              0            
    153000   292.2933      -1229.6556      216.36558     -1013.29        1175.4795      14.653497      14.653497      14.653497      0              0              0            
    154000   294.83861     -1176.167       218.24971     -957.91734      1500.9389      15.034663      15.034663      15.034663      0              0              0            
    155000   283.11234     -1167.6568      209.56952     -958.08731     -31.369227      15.280649      15.280649      15.280649      0              0              0            
    156000   307.92931     -1186.2095      227.9399      -958.26959      2105.9488      14.915875      14.915875      14.915875      0              0              0            
    157000   306.76722     -1175.6407      227.07968     -948.561        2112.7546      15.119162      15.119162      15.119162      0              0              0            
    158000   270.18202     -1217.4727      199.99805     -1017.4747     -52.220477      14.917139      14.917139      14.917139      0              0              0            
    159000   308.72677     -1221.0317      228.5302      -992.50145     -723.57409      14.995656      14.995656      14.995656      0              0              0            
    160000   264.8907      -1232.0335      196.08124     -1035.9522     -1802.762       14.947305      14.947305      14.947305      0              0              0            
    161000   296.25192     -1167.5241      219.29589     -948.22823     -1243.5882      15.240639      15.240639      15.240639      0              0              0            
    162000   304.9658      -1180.7134      225.74621     -954.96717      397.03562      15.004081      15.004081      15.004081      0              0              0            
    163000   297.44204     -1176.8016      220.17686     -956.62473      9.5939275      15.269448      15.269448      15.269448      0              0              0            
    164000   317.41231     -1179.733       234.95954     -944.77341     -2033.9207      15.349308      15.349308      15.349308      0              0              0            
    165000   311.48005     -1226.6687      230.56828     -996.10039      726.01069      14.92661       14.92661       14.92661       0              0              0            
    166000   299.86036     -1202.9874      221.96698     -981.02043      270.34766      15.187917      15.187917      15.187917      0              0              0            
    167000   311.31459     -1224.9486      230.4458      -994.50276      271.41472      14.880921      14.880921      14.880921      0              0              0            
    168000   310.9795      -1197.109       230.19776     -966.91129     -1315.6919      15.217456      15.217456      15.217456      0              0              0            
    169000   299.25252     -1223.1027      221.51704     -1001.5857      158.95587      14.966176      14.966176      14.966176      0              0              0            
    170000   296.81025     -1214.657       219.70919     -994.94784     -1.839509       14.904125      14.904125      14.904125      0              0              0            
    171000   294.31222     -1174.7026      217.86006     -956.84256      872.97976      14.904703      14.904703      14.904703      0              0              0            
    172000   298.81834     -1212.5483      221.19564     -991.35265     -958.29042      14.753658      14.753658      14.753658      0              0              0            
    173000   299.30461     -1227.6127      221.55559     -1006.0571      467.92789      14.894815      14.894815      14.894815      0              0              0            
    174000   295.68124     -1235.8297      218.87346     -1016.9563      1290.2373      14.717661      14.717661      14.717661      0              0              0            
    175000   317.52611     -1182.0004      235.04378     -946.95666      1507.754       15.060021      15.060021      15.060021      0              0              0            
    176000   296.6471      -1204.6538      219.58842     -985.0654       2299.7264      14.777119      14.777119      14.777119      0              0              0            
    177000   336.42373     -1236.0108      249.03245     -986.97836      314.9729       14.906004      14.906004      14.906004      0              0              0            
    178000   308.41053     -1202.4206      228.29611     -974.12448     -1050.3955      14.965609      14.965609      14.965609      0              0              0            
    179000   306.47545     -1208.0214      226.8637      -981.1577      -2032.9754      14.889644      14.889644      14.889644      0              0              0            
    180000   275.06819     -1196.2125      203.61496     -992.59756      1272.2416      14.947909      14.947909      14.947909      0              0              0            
    181000   295.30133     -1234.5258      218.59223     -1015.9336      464.0163       14.970065      14.970065      14.970065      0              0              0            
    182000   314.15041     -1200.7729      232.54497     -968.22796     -264.93706      14.891446      14.891446      14.891446      0              0              0            
    183000   287.40914     -1211.9886      212.75016     -999.23845      1839.043       14.967627      14.967627      14.967627      0              0              0            
    184000   265.23955     -1173.5773      196.33946     -977.23788     -480.92787      15.099431      15.099431      15.099431      0              0              0            
    185000   311.80694     -1207.323       230.81025     -976.51271     -1574.4575      15.012677      15.012677      15.012677      0              0              0            
    186000   238.24266     -1202.6508      176.35543     -1026.2954      88.964935      14.959996      14.959996      14.959996      0              0              0            
    187000   311.18874     -1183.3272      230.35264     -952.97455     -876.07952      15.363155      15.363155      15.363155      0              0              0            
    188000   321.41358     -1195.3413      237.92142     -957.41986     -63.10333       14.930291      14.930291      14.930291      0              0              0            
    189000   302.99875     -1218.875       224.29013     -994.5849       3406.0592      14.752694      14.752694      14.752694      0              0              0            
    190000   296.49374     -1193.6687      219.4749      -974.19381     -720.26887      14.865098      14.865098      14.865098      0              0              0            
    191000   312.04593     -1182.9158      230.98716     -951.92868     -451.8278       14.989098      14.989098      14.989098      0              0              0            
    192000   299.02901     -1203.2003      221.35159     -981.84872      777.22756      14.896712      14.896712      14.896712      0              0              0            
    193000   313.50303     -1220.2221      232.06576     -988.15637     -427.49922      14.787535      14.787535      14.787535      0              0              0            
    194000   311.51127     -1201.1636      230.59139     -970.57224     -410.09596      15.201329      15.201329      15.201329      0              0              0            
    195000   290.24935     -1205.8428      214.85258     -990.99018      802.03106      15.184886      15.184886      15.184886      0              0              0            
    196000   306.18902     -1213.5557      226.65167     -986.904        45.474059      14.785909      14.785909      14.785909      0              0              0            
    197000   301.32274     -1197.6077      223.04949     -974.55823     -523.64548      14.876019      14.876019      14.876019      0              0              0            
    198000   293.08879     -1196.4278      216.95443     -979.47339      137.38245      15.037603      15.037603      15.037603      0              0              0            
    199000   283.74115     -1184.8653      210.03499     -974.83035      1590.0679      14.930601      14.930601      14.930601      0              0              0            
    200000   291.26634     -1200.6852      215.60539     -985.07982      463.33468      15.082399      15.082399      15.082399      0              0              0            
    201000   294.00807     -1227.1045      217.63492     -1009.4695      1432.8323      14.922038      14.922038      14.922038      0              0              0            
    202000   313.34792     -1204.9186      231.95094     -972.96763      539.18891      15.07587       15.07587       15.07587       0              0              0            
    203000   290.93295     -1228.3207      215.35861     -1012.9621      697.61383      15.010211      15.010211      15.010211      0              0              0            
    204000   301.41515     -1214.3234      223.11789     -991.20552      1131.1959      14.830963      14.830963      14.830963      0              0              0            
    205000   294.72012     -1232.0502      218.162       -1013.8882     -217.85609      14.968984      14.968984      14.968984      0              0              0            
    206000   305.43849     -1162.4404      226.09611     -936.34431     -140.39009      15.198324      15.198324      15.198324      0              0              0            
    207000   310.59023     -1204.3984      229.90961     -974.48881      810.93619      14.782638      14.782638      14.782638      0              0              0            
    208000   265.87928     -1205.3632      196.81302     -1008.5502     -785.70568      15.114866      15.114866      15.114866      0              0              0            
    209000   274.35061     -1195.8027      203.08379     -992.71896      517.07356      14.918431      14.918431      14.918431      0              0              0            
    210000   280.79881     -1193.5388      207.85697     -985.68186     -1147.2344      15.409013      15.409013      15.409013      0              0              0            
    211000   302.59123     -1226.0318      223.98847     -1002.0433     -716.66917      14.981627      14.981627      14.981627      0              0              0            
    212000   325.17926     -1204.3563      240.70891     -963.64739     -355.488        14.885626      14.885626      14.885626      0              0              0            
    213000   339.90887     -1203.8598      251.61227     -952.24757     -151.14833      14.744518      14.744518      14.744518      0              0              0            
    214000   295.48153     -1178.5751      218.72562     -959.84948      1414.3409      14.908582      14.908582      14.908582      0              0              0            
    215000   287.93515     -1183.9185      213.13953     -970.77896     -1628.802       14.934224      14.934224      14.934224      0              0              0            
    216000   312.99028     -1211.9962      231.6862      -980.31001     -853.92755      15.061943      15.061943      15.061943      0              0              0            
    217000   291.00637     -1189.7444      215.41296     -974.33146      2053.5235      15.1169        15.1169        15.1169        0              0              0            
    218000   287.71662     -1212.5073      212.97777     -999.52956      676.41964      14.878502      14.878502      14.878502      0              0              0            
    219000   298.01674     -1232.9807      220.60227     -1012.3785      1417.9889      14.836286      14.836286      14.836286      0              0              0            
    220000   299.31636     -1188.6711      221.5643      -967.10677     -1918.2653      15.227491      15.227491      15.227491      0              0              0            
    221000   339.40447     -1184.4604      251.2389      -933.22154     -551.23175      15.099835      15.099835      15.099835      0              0              0            
    222000   314.22143     -1198.6075      232.59754     -966.00999      472.31423      14.802565      14.802565      14.802565      0              0              0            
    223000   316.41816     -1165.368       234.22363     -931.14432      742.98617      15.056387      15.056387      15.056387      0              0              0            
    224000   302.61754     -1210.9799      224.00794     -986.97198     -123.22906      15.159277      15.159277      15.159277      0              0              0            
    225000   299.25354     -1190.4215      221.51779     -968.90371      1276.1341      14.807832      14.807832      14.807832      0              0              0            
    226000   315.91386     -1206.6241      233.85034     -972.77375     -620.09329      14.80472       14.80472       14.80472       0              0              0            
    227000   318.30284     -1212.6597      235.61874     -977.04098      1792.7242      15.286312      15.286312      15.286312      0              0              0            
    228000   290.72035     -1216.3871      215.20123     -1001.1859     -716.00201      14.855298      14.855298      14.855298      0              0              0            
    229000   331.54945     -1212.8121      245.42434     -967.38772      2529.6991      14.824291      14.824291      14.824291      0              0              0            
    230000   297.48645     -1227.2551      220.20973     -1007.0453     -1531.5831      14.954679      14.954679      14.954679      0              0              0            
    231000   289.46878     -1201.9535      214.27478     -987.67876      1783.8371      15.023106      15.023106      15.023106      0              0              0            
    232000   286.53365     -1214.8298      212.10209     -1002.7277     -1864.1741      14.964448      14.964448      14.964448      0              0              0            
    233000   304.3987      -1191.1493      225.32642     -965.82286      1746.6767      14.963666      14.963666      14.963666      0              0              0            
    234000   315.63026     -1210.9598      233.6404      -977.31939      374.47002      14.979184      14.979184      14.979184      0              0              0            
    235000   289.63424     -1210.2458      214.39725     -995.84855      482.43804      15.1234        15.1234        15.1234        0              0              0            
    236000   286.94946     -1220.4764      212.40989     -1008.0665     -779.78039      15.177032      15.177032      15.177032      0              0              0            
    237000   287.69632     -1192.724       212.96274     -979.76124      958.52789      15.209862      15.209862      15.209862      0              0              0            
    238000   320.67236     -1195.3407      237.37274     -957.96795      1118.6114      15.152986      15.152986      15.152986      0              0              0            
    239000   292.18135     -1213.2312      216.28271     -996.94848     -745.66868      15.191144      15.191144      15.191144      0              0              0            
    240000   287.52598     -1189.7226      212.83665     -976.88597      293.76995      15.005153      15.005153      15.005153      0              0              0            
    241000   286.56897     -1178.9247      212.12823     -966.79647     -352.77603      15.233159      15.233159      15.233159      0              0              0            
    242000   293.47622     -1222.376       217.24122     -1005.1348     -477.90735      14.955445      14.955445      14.955445      0              0              0            
    243000   318.45016     -1223.7724      235.7278      -988.04463      209.25804      14.790011      14.790011      14.790011      0              0              0            
    244000   311.60574     -1237.7906      230.66132     -1007.1293      2474.0611      14.941631      14.941631      14.941631      0              0              0            
    245000   291.35773     -1195.9707      215.67304     -980.29768      722.48086      15.034582      15.034582      15.034582      0              0              0            
    246000   309.32885     -1211.8471      228.97589     -982.87117      73.508544      14.944703      14.944703      14.944703      0              0              0            
    247000   293.46832     -1230.2674      217.23538     -1013.032       1039.066       14.971868      14.971868      14.971868      0              0              0            
    248000   259.46141     -1206.663       192.06229     -1014.6007     -166.89702      15.100693      15.100693      15.100693      0              0              0            
    249000   319.45967     -1226.3944      236.47507     -989.9193       2199.5326      14.818297      14.818297      14.818297      0              0              0            
    250000   294.45906     -1202.9622      217.96875     -984.99349     -1114.3608      15.213942      15.213942      15.213942      0              0              0            
    251000   285.46362     -1195.1133      211.31002     -983.80327     -190.01177      14.75611       14.75611       14.75611       0              0              0            
    252000   311.29652     -1228.5028      230.43242     -998.07034      1180.0639      14.948252      14.948252      14.948252      0              0              0            
    253000   288.45852     -1223.9878      213.52695     -1010.4608      1607.6121      14.840606      14.840606      14.840606      0              0              0            
    254000   300.06988     -1201.4647      222.12207     -979.34268      1279.8187      14.715229      14.715229      14.715229      0              0              0            
    255000   313.10973     -1215.1757      231.77463     -983.40106      1454.4057      14.967725      14.967725      14.967725      0              0              0            
    256000   311.22495     -1204.7683      230.37945     -974.38889      1204.3005      14.967331      14.967331      14.967331      0              0              0            
    257000   329.84726     -1205.0968      244.16432     -960.93253     -628.09135      14.837902      14.837902      14.837902      0              0              0            
    258000   311.22998     -1231.4069      230.38316     -1001.0237      352.58392      14.802055      14.802055      14.802055      0              0              0            
    259000   287.87537     -1206.1574      213.09528     -993.0621      -1229.0034      15.044465      15.044465      15.044465      0              0              0            
    260000   280.05253     -1210.6729      207.30454     -1003.3684      942.95238      14.876451      14.876451      14.876451      0              0              0            
    261000   303.86833     -1189.849       224.93382     -964.91518     -1709.3976      15.031813      15.031813      15.031813      0              0              0            
    262000   297.91452     -1231.244       220.5266      -1010.7174      1296.4536      14.915006      14.915006      14.915006      0              0              0            
    263000   316.1054      -1230.1141      233.99212     -996.12198     -1753.2972      14.937636      14.937636      14.937636      0              0              0            
    264000   310.02371     -1197.9642      229.49024     -968.47398     -267.62345      14.749352      14.749352      14.749352      0              0              0            
    265000   276.55178     -1210.8124      204.71316     -1006.0993     -512.94056      15.073652      15.073652      15.073652      0              0              0            
    266000   284.73379     -1222.8448      210.76978     -1012.075      -511.90821      14.844057      14.844057      14.844057      0              0              0            
    267000   307.97831     -1206.6783      227.97617     -978.70213     -128.65885      14.942977      14.942977      14.942977      0              0              0            
    268000   297.77797     -1193.1356      220.42552     -972.71013      2836.6545      14.873865      14.873865      14.873865      0              0              0            
    269000   289.40673     -1215.8645      214.22884     -1001.6356     -1256.0436      14.98241       14.98241       14.98241       0              0              0            
    270000   310.02929     -1193.7515      229.49438     -964.25713     -53.082314      14.922145      14.922145      14.922145      0              0              0            
    271000   288.62251     -1190.3941      213.64834     -976.74579      223.9339       15.180346      15.180346      15.180346      0              0              0            
    272000   315.18505     -1200.9885      233.31084     -967.67769     -1259.0889      14.994752      14.994752      14.994752      0              0              0            
    273000   298.32962     -1207.9648      220.83388     -987.13094     -36.118256      14.809814      14.809814      14.809814      0              0              0            
    274000   336.94864     -1208.9234      249.421       -959.50244      854.33614      15.06          15.06          15.06          0              0              0            
    275000   296.85757     -1218.9174      219.74421     -999.17314      2248.2711      14.892712      14.892712      14.892712      0              0              0            
    276000   294.91092     -1207.6126      218.30324     -989.30936     -406.01537      15.144182      15.144182      15.144182      0              0              0            
    277000   297.54291     -1183.5671      220.25153     -963.31562     -324.03812      15.17917       15.17917       15.17917       0              0              0            
    278000   313.50974     -1192.1189      232.07073     -960.04822     -41.0007        15.232027      15.232027      15.232027      0              0              0            
    279000   287.78489     -1210.0584      213.0283      -997.03009     -440.49514      15.284606      15.284606      15.284606      0              0              0            
    280000   310.45076     -1234.807       229.80636     -1005.0007     -1832.5636      14.976914      14.976914      14.976914      0              0              0            
    281000   312.73653     -1204.982       231.49837     -973.48366     -2186.9644      15.037878      15.037878      15.037878      0              0              0            
    282000   324.07946     -1195.0947      239.8948      -955.19987     -1040.5834      15.022824      15.022824      15.022824      0              0              0            
    283000   292.58602     -1192.1729      216.58226     -975.59062     -1034.5336      14.980331      14.980331      14.980331      0              0              0            
    284000   314.85764     -1198.8781      233.06849     -965.80961      171.28097      15.136295      15.136295      15.136295      0              0              0            
    285000   322.9748      -1180.637       239.07709     -941.55991     -112.34645      14.961915      14.961915      14.961915      0              0              0            
    286000   295.80518     -1213.6716      218.9652      -994.70641     -811.99689      15.170416      15.170416      15.170416      0              0              0            
    287000   300.54052     -1222.9372      222.47046     -1000.4668     -596.25168      14.926742      14.926742      14.926742      0              0              0            
    288000   309.39127     -1180.0787      229.02209     -951.05658      998.44552      14.933051      14.933051      14.933051      0              0              0            
    289000   310.12466     -1198.047       229.56497     -968.48203      1333.7299      15.131141      15.131141      15.131141      0              0              0            
    290000   292.45047     -1191.3812      216.48193     -974.8993      -1208.9997      15.073982      15.073982      15.073982      0              0              0            
    291000   293.70737     -1207.8533      217.41233     -990.44095      190.74356      14.88789       14.88789       14.88789       0              0              0            
    292000   295.80386     -1201.7654      218.96422     -982.80121      786.55519      15.038299      15.038299      15.038299      0              0              0            
    293000   284.14833     -1190.5353      210.33639     -980.19893      892.42019      14.795816      14.795816      14.795816      0              0              0            
    294000   300.96852     -1175.7873      222.78728     -953.00005      1423.808       14.975264      14.975264      14.975264      0              0              0            
    295000   317.4094      -1185.6214      234.95739     -950.66398     -248.07735      15.204951      15.204951      15.204951      0              0              0            
    296000   295.38863     -1185.4935      218.65685     -966.83669      1492.117       15.113578      15.113578      15.113578      0              0              0            
    297000   317.11682     -1203.9112      234.74081     -969.17036     -777.7744       15.292216      15.292216      15.292216      0              0              0            
    298000   315.53411     -1190.9317      233.56923     -957.36243     -1080.1979      15.218242      15.218242      15.218242      0              0              0            
    299000   315.43774     -1175.6355      233.4979      -942.13756      970.03644      15.252313      15.252313      15.252313      0              0              0            
    300000   306.5391      -1168.1702      226.91081     -941.25935     -1094.044       15.544684      15.544684      15.544684      0              0              0            
    301000   307.19387     -1164.4574      227.3955      -937.06188      1153.1466      15.372204      15.372204      15.372204      0              0              0            
    302000   291.55921     -1194.3046      215.82218     -978.48238     -552.83613      15.239998      15.239998      15.239998      0              0              0            
    303000   319.31835     -1212.119       236.37045     -975.74853      1495.6108      15.004979      15.004979      15.004979      0              0              0            
    304000   272.83311     -1207.6735      201.96048     -1005.713       704.19076      14.913153      14.913153      14.913153      0              0              0            
    305000   303.97622     -1228.6187      225.01368     -1003.605       859.72454      14.926481      14.926481      14.926481      0              0              0            
    306000   298.05718     -1209.3547      220.6322      -988.72245      1617.854       14.890336      14.890336      14.890336      0              0              0            
    307000   279.17842     -1192.4998      206.6575      -985.84228     -1445.0788      15.232191      15.232191      15.232191      0              0              0            
    308000   278.98277     -1189.1636      206.51267     -982.65096     -1593.7052      15.014026      15.014026      15.014026      0              0              0            
    309000   300.16858     -1187.278       222.19514     -965.08284      557.486        15.110657      15.110657      15.110657      0              0              0            
    310000   300.41185     -1180.1058      222.37521     -957.73055      640.40335      14.801399      14.801399      14.801399      0              0              0            
    311000   309.62732     -1223.8837      229.19682     -994.68689      1527.6579      14.999836      14.999836      14.999836      0              0              0            
    312000   313.02235     -1187.8813      231.70994     -956.17131      674.84984      15.075448      15.075448      15.075448      0              0              0            
    313000   287.43668     -1216.5155      212.77055     -1003.745      -1285.478       14.921431      14.921431      14.921431      0              0              0            
    314000   287.8762      -1222.4844      213.0959      -1009.3885      197.03199      15.092681      15.092681      15.092681      0              0              0            
    315000   281.40833     -1203.6988      208.30815     -995.39066     -2138.9888      15.07864       15.07864       15.07864       0              0              0            
    316000   276.63821     -1223.1826      204.77714     -1018.4054      2220.6457      14.729919      14.729919      14.729919      0              0              0            
    317000   305.11077     -1232.0318      225.85352     -1006.1783      872.18041      14.967641      14.967641      14.967641      0              0              0            
    318000   310.46532     -1176.9098      229.81714     -947.09267      212.31449      14.94271       14.94271       14.94271       0              0              0            
    319000   292.73306     -1214.0248      216.69111     -997.33365      644.8235       14.812551      14.812551      14.812551      0              0              0            
    320000   286.93447     -1196.2638      212.39879     -983.865        1672.9605      14.90109       14.90109       14.90109       0              0              0            
    321000   293.31775     -1160.1858      217.12392     -943.06183     -1205.8454      15.162684      15.162684      15.162684      0              0              0            
    322000   327.8106      -1219.1559      242.65671     -976.49922      513.99836      14.958179      14.958179      14.958179      0              0              0            
    323000   280.00196     -1203.2437      207.26711     -995.97662      207.78701      15.109187      15.109187      15.109187      0              0              0            
    324000   312.75803     -1207.8832      231.51428     -976.3689       1009.4646      15.19979       15.19979       15.19979       0              0              0            
    325000   308.93925     -1181.2238      228.68749     -952.53633     -783.05708      15.457501      15.457501      15.457501      0              0              0            
    326000   277.37671     -1203.2333      205.32381     -997.90952     -1695.2726      15.067055      15.067055      15.067055      0              0              0            
    327000   279.74986     -1205.7137      207.0805      -998.63316      509.71103      14.860929      14.860929      14.860929      0              0              0            
    328000   339.73822     -1206.2896      251.48595     -954.80363     -24.440889      15.057752      15.057752      15.057752      0              0              0            
    329000   291.70886     -1213.0112      215.93296     -997.07826      2988.0432      14.727225      14.727225      14.727225      0              0              0            
    330000   297.43831     -1188.1763      220.1741      -968.00222      992.00397      15.133059      15.133059      15.133059      0              0              0            
    331000   321.72481     -1228.4573      238.1518      -990.30546     -2088.3029      15.087395      15.087395      15.087395      0              0              0            
    332000   325.79911     -1209.7898      241.16774     -968.62209      469.2995       14.901228      14.901228      14.901228      0              0              0            
    333000   286.16722     -1211.0905      211.83085     -999.25962      1082.5363      14.877548      14.877548      14.877548      0              0              0            
    334000   289.63586     -1194.4575      214.39846     -980.05908     -1157.5212      15.010532      15.010532      15.010532      0              0              0            
    335000   286.61645     -1212.0314      212.16338     -999.86804      2150.5095      15.198966      15.198966      15.198966      0              0              0            
    336000   309.09963     -1190.4238      228.80621     -961.61761     -1757.8391      15.258938      15.258938      15.258938      0              0              0            
    337000   331.87608     -1186.4661      245.66612     -940.79998      1454.1453      14.805091      14.805091      14.805091      0              0              0            
    338000   301.17626     -1239.5457      222.94106     -1016.6046      2052.7561      14.778529      14.778529      14.778529      0              0              0            
    339000   311.94186     -1184.319       230.91013     -953.40883     -461.88008      15.07716       15.07716       15.07716       0              0              0            
    340000   275.18831     -1205.9704      203.70388     -1002.2665      688.7322       15.15049       15.15049       15.15049       0              0              0            
    341000   280.78596     -1243.8557      207.84745     -1036.0083     -1146.3212      15.043369      15.043369      15.043369      0              0              0            
    342000   297.85972     -1224.8151      220.48604     -1004.3291      294.46291      14.898455      14.898455      14.898455      0              0              0            
    343000   296.66122     -1205.3855      219.59887     -985.78667     -1962.5371      14.931586      14.931586      14.931586      0              0              0            
    344000   308.01013     -1234.4979      227.99972     -1006.4982     -1485.4608      15.035354      15.035354      15.035354      0              0              0            
    345000   312.94289     -1209.3995      231.65112     -977.74838      798.30056      15.050037      15.050037      15.050037      0              0              0            
    346000   262.96462     -1200.1228      194.65548     -1005.4673     -780.15348      14.962253      14.962253      14.962253      0              0              0            
    347000   325.4576      -1204.4598      240.91494     -963.5449       1513.8955      14.815374      14.815374      14.815374      0              0              0            
    348000   277.58035     -1207.3041      205.47455     -1001.8296     -1070.8158      15.032416      15.032416      15.032416      0              0              0            
    349000   315.82384     -1199.135       233.7837      -965.35128      333.52493      14.964998      14.964998      14.964998      0              0              0            
    350000   282.28102     -1185.353       208.95415     -976.39881     -1391.537       15.139285      15.139285      15.139285      0              0              0            
    351000   303.6093      -1205.2655      224.74208     -980.52345     -422.06244      14.90835       14.90835       14.90835       0              0              0            
    352000   293.28101     -1220.4886      217.09672     -1003.3919     -64.891835      14.985852      14.985852      14.985852      0              0              0            
    353000   320.21415     -1199.8254      237.03356     -962.79186      1092.8532      14.827103      14.827103      14.827103      0              0              0            
    354000   308.07502     -1201.8369      228.04776     -973.78916      850.75444      14.995834      14.995834      14.995834      0              0              0            
    355000   300.74404     -1173.2717      222.62111     -950.65057      226.21196      14.992561      14.992561      14.992561      0              0              0            
    356000   287.67348     -1173.1945      212.94583     -960.24865     -138.64093      15.117181      15.117181      15.117181      0              0              0            
    357000   333.26383     -1194.7422      246.69338     -948.0488      -451.41234      14.956881      14.956881      14.956881      0              0              0            
    358000   320.14996     -1213.2277      236.98605     -976.24167      1704.8087      14.994939      14.994939      14.994939      0              0              0            
    359000   308.91326     -1203.332       228.66825     -974.66372     -354.84301      15.089481      15.089481      15.089481      0              0              0            
    360000   295.11138     -1217.1173      218.45162     -998.66569     -932.88767      15.210428      15.210428      15.210428      0              0              0            
    361000   317.73259     -1205.4237      235.19662     -970.22708     -1338.2742      14.931604      14.931604      14.931604      0              0              0            
    362000   299.01322     -1219.8646      221.3399      -998.52469      856.86938      14.817369      14.817369      14.817369      0              0              0            
    363000   311.08769     -1204.506       230.27784     -974.22818     -811.89772      15.113476      15.113476      15.113476      0              0              0            
    364000   296.34077     -1230.2726      219.36166     -1010.9109      1346.7254      14.755905      14.755905      14.755905      0              0              0            
    365000   307.69423     -1228.1765      227.76588     -1000.4106      298.51236      14.99881       14.99881       14.99881       0              0              0            
    366000   312.11768     -1203.1507      231.04027     -972.1104       719.81493      14.99401       14.99401       14.99401       0              0              0            
    367000   316.81801     -1186.1457      234.51962     -951.62611     -748.98957      14.98934       14.98934       14.98934       0              0              0            
    368000   270.47249     -1203.4611      200.21307     -1003.248      -1261.6207      15.01026       15.01026       15.01026       0              0              0            
    369000   313.02581     -1255.2109      231.7125      -1023.4984     -870.56037      14.885337      14.885337      14.885337      0              0              0            
    370000   316.92251     -1192.2702      234.59698     -957.67319     -890.07279      15.13859       15.13859       15.13859       0              0              0            
    371000   302.84514     -1205.2944      224.17642     -981.11799      556.0745       14.824704      14.824704      14.824704      0              0              0            
    372000   315.3083      -1221.8976      233.40208     -988.49551      990.70296      15.018672      15.018672      15.018672      0              0              0            
    373000   283.71249     -1191.5146      210.01377     -981.50086     -1621.5697      15.044657      15.044657      15.044657      0              0              0            
    374000   299.80067     -1192.0866      221.92279     -970.16377     -1753.1723      15.281195      15.281195      15.281195      0              0              0            
    375000   291.27543     -1162.5194      215.61212     -946.90728     -720.91563      15.463056      15.463056      15.463056      0              0              0            
    376000   294.97544     -1212.3466      218.351       -993.99561     -1228.6428      14.898283      14.898283      14.898283      0              0              0            
    377000   303.98806     -1211.1631      225.02245     -986.14068      1957.1918      14.92665       14.92665       14.92665       0              0              0            
    378000   268.37242     -1162.1806      198.65853     -963.52203     -775.34717      15.219236      15.219236      15.219236      0              0              0            
    379000   301.54746     -1182.4412      223.21583     -959.22538     -2738.5802      15.07756       15.07756       15.07756       0              0              0            
    380000   268.86869     -1237.4862      199.02588     -1038.4603     -842.8915       14.989441      14.989441      14.989441      0              0              0            
    381000   292.16246     -1230.1843      216.26873     -1013.9156     -1338.9723      14.953241      14.953241      14.953241      0              0              0            
    382000   291.55474     -1168.8043      215.81888     -952.98538      784.37622      14.919279      14.919279      14.919279      0              0              0            
    383000   298.91984     -1192.3646      221.27078     -971.09387     -546.47717      15.200925      15.200925      15.200925      0              0              0            
    384000   319.92257     -1217.2948      236.81772     -980.47705      6.7164051      14.993199      14.993199      14.993199      0              0              0            
    385000   323.21198     -1226.6198      239.25266     -987.36716     -1361.2165      14.913003      14.913003      14.913003      0              0              0            
    386000   331.89538     -1204.2867      245.68041     -958.60625      1569.6299      14.915961      14.915961      14.915961      0              0              0            
    387000   287.3333      -1197.562       212.69402     -984.868        113.89928      15.208565      15.208565      15.208565      0              0              0            
    388000   316.60316     -1198.3607      234.36058     -964.00016      1400.002       15.000157      15.000157      15.000157      0              0              0            
    389000   280.3122      -1234.9728      207.49676     -1027.476       935.0846       14.873421      14.873421      14.873421      0              0              0            
    390000   312.6714      -1179.7465      231.45015     -948.29635      719.06377      14.901054      14.901054      14.901054      0              0              0            
    391000   267.22193     -1219.7045      197.80689     -1021.8976     -1942.8854      15.069227      15.069227      15.069227      0              0              0            
    392000   299.96464     -1226.0521      222.04418     -1004.0079      1052.0569      14.751104      14.751104      14.751104      0              0              0            
    393000   300.35799     -1192.4125      222.33534     -970.07715     -2401.6929      15.151464      15.151464      15.151464      0              0              0            
    394000   321.25549     -1225.0546      237.80439     -987.2502       2593.7198      14.784516      14.784516      14.784516      0              0              0            
    395000   291.33078     -1230.9342      215.65309     -1015.2811     -6.4897704      15.027504      15.027504      15.027504      0              0              0            
    396000   300.28415     -1208.5855      222.28069     -986.30479      531.15798      14.938999      14.938999      14.938999      0              0              0            
    397000   325.74945     -1201.5675      241.13098     -960.43657      227.69797      15.096332      15.096332      15.096332      0              0              0            
    398000   287.7322      -1225.964       212.9893      -1012.9747      644.16396      14.864485      14.864485      14.864485      0              0              0            
    399000   293.27928     -1206.7098      217.09544     -989.61437     -406.08426      14.921538      14.921538      14.921538      0              0              0            
    400000   310.66937     -1244.8571      229.96818     -1014.8889      1491.1282      14.881899      14.881899      14.881899      0              0              0            
    401000   301.9996      -1194.6417      223.55052     -971.09117      1239.1647      15.097883      15.097883      15.097883      0              0              0            
    402000   291.12488     -1185.747       215.50068     -970.24637      1183.7847      15.108275      15.108275      15.108275      0              0              0            
    403000   316.07402     -1181.7717      233.96889     -947.80282     -2164.1956      15.168595      15.168595      15.168595      0              0              0            
    404000   308.67891     -1194.4776      228.49478     -965.98279      1037.4757      14.950746      14.950746      14.950746      0              0              0            
    405000   291.34075     -1181.9474      215.66048     -966.28694      261.71968      15.066262      15.066262      15.066262      0              0              0            
    406000   300.53512     -1196.3759      222.46647     -973.90947      510.42123      15.209724      15.209724      15.209724      0              0              0            
    407000   277.22903     -1212.7962      205.21449     -1007.5817      33.044293      15.2552        15.2552        15.2552        0              0              0            
    408000   297.63223     -1227.5668      220.31764     -1007.2491      439.86282      14.889817      14.889817      14.889817      0              0              0            
    409000   304.50004     -1199.8         225.40144     -974.39855      506.09077      14.883538      14.883538      14.883538      0              0              0            
    410000   300.51083     -1211.4202      222.44848     -988.97171      696.20431      14.846281      14.846281      14.846281      0              0              0            
    411000   315.654       -1214.9427      233.65798     -981.2847       2098.4629      14.952968      14.952968      14.952968      0              0              0            
    412000   295.54851     -1195.216       218.7752      -976.44084      309.02713      15.196721      15.196721      15.196721      0              0              0            
    413000   319.8882      -1208.7758      236.79228     -971.98348      729.87712      14.945814      14.945814      14.945814      0              0              0            
    414000   313.7598      -1235.4374      232.25583     -1003.1815     -536.18111      14.850507      14.850507      14.850507      0              0              0            
    415000   317.26574     -1209.0851      234.85104     -974.2341      -692.31202      15.131634      15.131634      15.131634      0              0              0            
    416000   272.59461     -1240.8219      201.78393     -1039.038      -955.40586      14.787566      14.787566      14.787566      0              0              0            
    417000   308.6528      -1216.1745      228.47545     -987.69904     -1732.3901      15.008423      15.008423      15.008423      0              0              0            
    418000   315.36716     -1224.3246      233.44565     -990.8789      -1536.3582      15.023182      15.023182      15.023182      0              0              0            
    419000   321.56797     -1210.3832      238.03571     -972.34748     -1547.0895      14.950783      14.950783      14.950783      0              0              0            
    420000   314.38226     -1193.3144      232.71659     -960.5978       1769.1022      14.869131      14.869131      14.869131      0              0              0            
    421000   307.65886     -1190.8237      227.7397      -963.08401     -1721.9172      14.947202      14.947202      14.947202      0              0              0            
    422000   285.74619     -1203.7105      211.51918     -992.19131     -608.26743      15.094537      15.094537      15.094537      0              0              0            
    423000   276.44528     -1203.1056      204.63433     -998.47123     -2314.0338      15.203404      15.203404      15.203404      0              0              0            
    424000   312.74598     -1209.1514      231.50537     -977.64607     -1804.4574      15.231274      15.231274      15.231274      0              0              0            
    425000   292.26765     -1209.4606      216.34659     -993.11398     -977.90946      15.153681      15.153681      15.153681      0              0              0            
    426000   287.47204     -1202.7735      212.79672     -989.9768       2312.3158      14.880616      14.880616      14.880616      0              0              0            
    427000   320.53713     -1205.5489      237.27264     -968.27622     -496.2093       15.124117      15.124117      15.124117      0              0              0            
    428000   303.09153     -1179.1286      224.35881     -954.76983     -1102.2911      15.243088      15.243088      15.243088      0              0              0            
    429000   302.33905     -1217.5685      223.80179     -993.76666      268.15644      15.069673      15.069673      15.069673      0              0              0            
    430000   276.31249     -1168.3164      204.53603     -963.78034      413.13159      15.024544      15.024544      15.024544      0              0              0            
    431000   291.49128     -1202.6906      215.7719      -986.91868     -425.45279      14.92892       14.92892       14.92892       0              0              0            
    432000   300.43682     -1210.9066      222.3937      -988.51295     -1282.2573      14.975642      14.975642      14.975642      0              0              0            
    433000   289.68587     -1179.4994      214.43547     -965.06392      952.36745      14.884816      14.884816      14.884816      0              0              0            
    434000   313.00342     -1212.0966      231.69593     -980.40063     -485.10747      14.896231      14.896231      14.896231      0              0              0            
    435000   294.81044     -1201.5975      218.22886     -983.36867     -3085.8686      15.042232      15.042232      15.042232      0              0              0            
    436000   295.15606     -1175.4941      218.4847      -957.00938     -73.691506      14.993669      14.993669      14.993669      0              0              0            
    437000   318.14125     -1188.4415      235.49913     -952.94234      1289.3301      14.953453      14.953453      14.953453      0              0              0            
    438000   316.46696     -1196.742       234.25976     -962.48221     -154.30951      15.280901      15.280901      15.280901      0              0              0            
    439000   272.24875     -1212.0177      201.52792     -1010.4898      906.81307      14.87039       14.87039       14.87039       0              0              0            
    440000   281.86305     -1208.4797      208.64475     -999.83493      903.22201      14.820761      14.820761      14.820761      0              0              0            
    441000   318.01263     -1229.7582      235.40392     -994.35432     -401.59175      14.942113      14.942113      14.942113      0              0              0            
    442000   303.02109     -1200.5641      224.30666     -976.25745     -2383.6073      14.954109      14.954109      14.954109      0              0              0            
    443000   294.65963     -1202.663       218.11722     -984.54581     -1699.1244      15.089389      15.089389      15.089389      0              0              0            
    444000   286.6123      -1192.3762      212.16031     -980.2159       1443.2769      15.334429      15.334429      15.334429      0              0              0            
    445000   293.7748      -1215.03        217.46224     -997.56771     -1658.0204      14.975076      14.975076      14.975076      0              0              0            
    446000   322.78164     -1189.7353      238.9341      -950.80123     -1326.3606      15.145929      15.145929      15.145929      0              0              0            
    447000   309.58437     -1208.3012      229.16503     -979.13619     -111.60333      14.959438      14.959438      14.959438      0              0              0            
    448000   315.20815     -1196.2924      233.32794     -962.96445     -1368.2607      15.247037      15.247037      15.247037      0              0              0            
    449000   308.63515     -1166.5498      228.46239     -938.08745     -908.44046      15.257721      15.257721      15.257721      0              0              0            
    450000   295.77986     -1172.8895      218.94645     -953.94302     -1599.1763      15.246911      15.246911      15.246911      0              0              0            
    451000   302.36595     -1187.7734      223.82171     -963.9517       543.70971      15.278305      15.278305      15.278305      0              0              0            
    452000   275.96356     -1202.1854      204.27775     -997.90766      1510.3859      14.865204      14.865204      14.865204      0              0              0            
    453000   291.04115     -1207.8348      215.4387      -992.39612     -331.54407      15.204462      15.204462      15.204462      0              0              0            
    454000   300.1906      -1194.2769      222.21144     -972.06546      645.66459      15.059048      15.059048      15.059048      0              0              0            
    455000   284.15683     -1201.518       210.34269     -991.17527     -548.91871      15.058122      15.058122      15.058122      0              0              0            
    456000   295.02637     -1204.584       218.3887      -986.19533     -24.424071      15.030026      15.030026      15.030026      0              0              0            
    457000   315.10183     -1217.4167      233.24924     -984.16746      1137.7842      14.820798      14.820798      14.820798      0              0              0            
    458000   299.52441     -1208.36        221.7183      -986.64172      570.85843      14.93579       14.93579       14.93579       0              0              0            
    459000   307.24065     -1196.3892      227.43013     -968.95909     -367.33196      14.755588      14.755588      14.755588      0              0              0            
    460000   324.37643     -1177.9777      240.11462     -937.86303      1355.8748      14.909777      14.909777      14.909777      0              0              0            
    461000   316.15617     -1164.6251      234.0297      -930.59542     -981.10373      14.897794      14.897794      14.897794      0              0              0            
    462000   276.80725     -1175.4637      204.90228     -970.56139     -77.754315      15.318182      15.318182      15.318182      0              0              0            
    463000   307.31868     -1197.1697      227.48789     -969.68177     -180.18679      15.041996      15.041996      15.041996      0              0              0            
    464000   294.01957     -1186.4148      217.64343     -968.77134      1472.72        15.009276      15.009276      15.009276      0              0              0            
    465000   306.28765     -1203.3132      226.72469     -976.58854      188.35911      14.876058      14.876058      14.876058      0              0              0            
    466000   291.16477     -1214.6042      215.53021     -999.07397      541.82469      14.788009      14.788009      14.788009      0              0              0            
    467000   287.76759     -1206.8756      213.0155      -993.86008     -373.28292      14.899804      14.899804      14.899804      0              0              0            
    468000   290.10717     -1197.8551      214.74734     -983.1078       470.17364      15.0233        15.0233        15.0233        0              0              0            
    469000   324.79174     -1175.3843      240.42205     -934.96223      235.15896      14.976865      14.976865      14.976865      0              0              0            
    470000   286.86558     -1202.555       212.34779     -990.2072       939.65061      14.874349      14.874349      14.874349      0              0              0            
    471000   297.94105     -1219.9925      220.54624     -999.4463      -356.01609      14.643454      14.643454      14.643454      0              0              0            
    472000   305.95617     -1181.3779      226.47931     -954.89863     -1622.0551      15.06125       15.06125       15.06125       0              0              0            
    473000   295.31052     -1238.8786      218.59903     -1020.2795     -618.35965      15.154262      15.154262      15.154262      0              0              0            
    474000   277.29788     -1236.7437      205.26546     -1031.4782      793.35796      15.129887      15.129887      15.129887      0              0              0            
    475000   311.78862     -1205.4141      230.79669     -974.6174      -586.4935       15.02838       15.02838       15.02838       0              0              0            
    476000   306.43848     -1219.5867      226.83634     -992.75037     -1642.0185      14.946119      14.946119      14.946119      0              0              0            
    477000   286.35864     -1212.2268      211.97254     -1000.2543      56.200443      15.095986      15.095986      15.095986      0              0              0            
    478000   287.09641     -1223.8919      212.51866     -1011.3732     -100.66149      14.917915      14.917915      14.917915      0              0              0            
    479000   266.42471     -1214.0006      197.21676     -1016.7839     -76.644858      14.89019       14.89019       14.89019       0              0              0            
    480000   282.26821     -1197.5721      208.94467     -988.62742     -604.50576      15.194674      15.194674      15.194674      0              0              0            
    481000   270.39125     -1213.9761      200.15293     -1013.8232     -1361.4502      14.818801      14.818801      14.818801      0              0              0            
    482000   267.44651     -1221.8641      197.97314     -1023.891       1114.7374      14.909265      14.909265      14.909265      0              0              0            
    483000   299.14665     -1244.8292      221.43867     -1023.3905     -1741.2239      15.10984       15.10984       15.10984       0              0              0            
    484000   301.45529     -1194.1008      223.1476      -970.9532      -1273.0696      15.241372      15.241372      15.241372      0              0              0            
    485000   325.73953     -1210.357       241.12363     -969.23339      1901.6911      14.933123      14.933123      14.933123      0              0              0            
    486000   299.21598     -1197.0213      221.48999     -975.53135     -1126.2739      15.188877      15.188877      15.188877      0              0              0            
    487000   285.17208     -1194.9289      211.09421     -983.83468      2270.1679      14.831435      14.831435      14.831435      0              0              0            
    488000   281.12908     -1212.764       208.10144     -1004.6626      60.905499      14.985787      14.985787      14.985787      0              0              0            
    489000   278.53526     -1204.0647      206.18141     -997.88333     -569.87703      14.887589      14.887589      14.887589      0              0              0            
    490000   291.41135     -1176.8171      215.71273     -961.10438     -1518.3969      15.138316      15.138316      15.138316      0              0              0            
    491000   317.08184     -1176.134       234.71492     -941.41913     -682.11961      15.142732      15.142732      15.142732      0              0              0            
    492000   304.89488     -1214.6515      225.69371     -988.95782      372.02231      15.080022      15.080022      15.080022      0              0              0            
    493000   278.17919     -1224.3574      205.91783     -1018.4396      25.887444      14.968547      14.968547      14.968547      0              0              0            
    494000   280.01324     -1232.7023      207.27546     -1025.4268     -1184.0284      14.845815      14.845815      14.845815      0              0              0            
    495000   277.48464     -1224.0989      205.4037      -1018.6952     -885.37857      15.046882      15.046882      15.046882      0              0              0            
    496000   300.26095     -1212.556       222.26352     -990.29252     -854.3932       15.008598      15.008598      15.008598      0              0              0            
    497000   325.87485     -1225.2966      241.2238      -984.07276     -1513.7515      14.981616      14.981616      14.981616      0              0              0            
    498000   309.21943     -1202.5569      228.89489     -973.66203     -1474.6212      14.967009      14.967009      14.967009      0              0              0            
    499000   289.19656     -1206.517       214.07327     -992.44377      617.22648      15.142933      15.142933      15.142933      0              0              0            
    500000   289.04666     -1170.4461      213.96231     -956.48374     -594.60401      15.130446      15.130446      15.130446      0              0              0            
    501000   299.03576     -1172.0713      221.35658     -950.71475     -63.533249      15.239208      15.239208      15.239208      0              0              0            
    502000   275.42985     -1245.9166      203.88268     -1042.034      -756.36592      15.115126      15.115126      15.115126      0              0              0            
    503000   286.13618     -1228.079       211.80787     -1016.2711      1982.7038      14.796667      14.796667      14.796667      0              0              0            
    504000   301.486       -1209.804       223.17034     -986.63362     -2108.2959      14.973609      14.973609      14.973609      0              0              0            
    505000   296.03532     -1219.4291      219.13556     -1000.2935     -1096.3096      15.107944      15.107944      15.107944      0              0              0            
    506000   295.06063     -1222.165       218.41406     -1003.7509      667.57215      14.81462       14.81462       14.81462       0              0              0            
    507000   287.96894     -1181.5608      213.16455     -968.39624      1394.5936      15.138167      15.138167      15.138167      0              0              0            
    508000   324.71562     -1177.0709      240.3657      -936.70524     -954.52613      15.233735      15.233735      15.233735      0              0              0            
    509000   305.05038     -1195.4304      225.80882     -969.62155     -349.88198      15.225826      15.225826      15.225826      0              0              0            
    510000   296.91402     -1177.2876      219.786       -957.5016       1131.155       14.932765      14.932765      14.932765      0              0              0            
    511000   301.84153     -1205.579       223.43352     -982.14547     -187.90066      15.00565       15.00565       15.00565       0              0              0            
    512000   325.63661     -1164.6916      241.04745     -923.64414     -800.4844       15.039025      15.039025      15.039025      0              0              0            
    513000   297.66449     -1208.4389      220.34152     -988.09738      627.64329      14.907385      14.907385      14.907385      0              0              0            
    514000   281.29187     -1192.904       208.22194     -984.68208     -314.54944      14.827472      14.827472      14.827472      0              0              0            
    515000   287.41835     -1201.6004      212.75698     -988.84338      195.06817      15.007948      15.007948      15.007948      0              0              0            
    516000   270.07341     -1220.5128      199.91766     -1020.5951     -905.40653      14.942218      14.942218      14.942218      0              0              0            
    517000   298.11415     -1170.9327      220.67438     -950.25831      2605.0365      15.172107      15.172107      15.172107      0              0              0            
    518000   290.40755     -1201.101       214.96969     -986.13135      591.84864      15.063343      15.063343      15.063343      0              0              0            
    519000   280.10952     -1178.6111      207.34673     -971.26437      378.44849      15.125443      15.125443      15.125443      0              0              0            
    520000   293.5977      -1197.8054      217.33114     -980.4743      -498.62342      15.158037      15.158037      15.158037      0              0              0            
    521000   322.35259     -1196.1512      238.6165      -957.53468      148.46406      15.175954      15.175954      15.175954      0              0              0            
    522000   285.70207     -1183.288       211.48653     -971.80148     -235.76502      15.117844      15.117844      15.117844      0              0              0            
    523000   313.22156     -1216.7933      231.85741     -984.93593      2086.2864      14.724405      14.724405      14.724405      0              0              0            
    524000   287.2842      -1202.8114      212.65768     -990.15371     -1471.782       14.922889      14.922889      14.922889      0              0              0            
    525000   289.64926     -1192.2658      214.40838     -977.8574      -731.00606      15.034066      15.034066      15.034066      0              0              0            
    526000   291.2312      -1208.3212      215.57938     -992.74184      1266.8395      15.080922      15.080922      15.080922      0              0              0            
    527000   301.2871      -1225.4542      223.0231      -1002.4311      3292.099       14.73971       14.73971       14.73971       0              0              0            
    528000   273.05736     -1211.2075      202.12648     -1009.081       107.86611      15.020627      15.020627      15.020627      0              0              0            
    529000   326.85923     -1233.6447      241.95248     -991.69222      123.58286      14.875967      14.875967      14.875967      0              0              0            
    530000   319.04186     -1235.7866      236.16579     -999.62086     -937.9153       14.891378      14.891378      14.891378      0              0              0            
    531000   294.61032     -1199.7301      218.08072     -981.64941     -178.69116      14.899977      14.899977      14.899977      0              0              0            
    532000   273.25248     -1175.342       202.27091     -973.07112     -844.51283      14.946187      14.946187      14.946187      0              0              0            
    533000   297.26503     -1188.5275      220.04583     -968.48166     -106.51244      15.113376      15.113376      15.113376      0              0              0            
    534000   283.39636     -1193.7734      209.77977     -983.99363     -259.19421      15.164589      15.164589      15.164589      0              0              0            
    535000   312.71681     -1181.3721      231.48377     -949.88832     -136.37728      15.020731      15.020731      15.020731      0              0              0            
    536000   289.59902     -1199.1737      214.37119     -984.80251      228.14836      14.968175      14.968175      14.968175      0              0              0            
    537000   340.98806     -1165.0663      252.41113     -912.6552       75.756007      15.220797      15.220797      15.220797      0              0              0            
    538000   297.078       -1168.8209      219.90738     -948.91352      641.40313      14.985321      14.985321      14.985321      0              0              0            
    539000   309.86723     -1212.367       229.37441     -982.99255     -639.27704      15.002773      15.002773      15.002773      0              0              0            
    540000   339.56387     -1245.5337      251.35689     -994.17679      222.99917      14.92233       14.92233       14.92233       0              0              0            
    541000   309.78281     -1183.5727      229.31192     -954.26077     -115.19203      14.95455       14.95455       14.95455       0              0              0            
    542000   310.75334     -1208.368       230.03034     -978.33769     -515.60778      14.907893      14.907893      14.907893      0              0              0            
    543000   311.82232     -1191.6642      230.82163     -960.84254     -1383.268       15.044411      15.044411      15.044411      0              0              0            
    544000   304.05992     -1192.982       225.07564     -967.90639      31.043082      14.844251      14.844251      14.844251      0              0              0            
    545000   286.87969     -1176.3629      212.35825     -964.00466     -235.38796      14.969511      14.969511      14.969511      0              0              0            
    546000   285.83021     -1218.8686      211.58138     -1007.2872     -1204.26        14.77608       14.77608       14.77608       0              0              0            
    547000   315.88463     -1198.4361      233.8287      -964.60738      103.99362      15.14639       15.14639       15.14639       0              0              0            
    548000   291.36205     -1219.1364      215.67624     -1003.4602      2636.8165      14.76032       14.76032       14.76032       0              0              0            
    549000   293.71953     -1211.1738      217.42133     -993.75245      1073.4503      15.127887      15.127887      15.127887      0              0              0            
    550000   300.41874     -1186.0582      222.38031     -963.67789     -323.58001      15.315572      15.315572      15.315572      0              0              0            
    551000   291.68428     -1180.1749      215.91477     -964.26016     -774.82727      15.240389      15.240389      15.240389      0              0              0            
    552000   303.01206     -1157.1053      224.29998     -932.80529     -650.13756      15.157867      15.157867      15.157867      0              0              0            
    553000   333.76456     -1212.3579      247.06404     -965.29382     -733.18601      15.123946      15.123946      15.123946      0              0              0            
    554000   331.00762     -1210.7179      245.02326     -965.69464      1779.9855      14.839368      14.839368      14.839368      0              0              0            
    555000   304.03272     -1159.3027      225.05551     -934.24723     -421.4003       15.367774      15.367774      15.367774      0              0              0            
    556000   285.55235     -1208.7232      211.3757      -997.34748     -253.30923      14.955269      14.955269      14.955269      0              0              0            
    557000   296.15798     -1173.1073      219.22635     -953.88094     -1040.4115      15.03971       15.03971       15.03971       0              0              0            
    558000   304.73978     -1179.206       225.57889     -953.62706      336.45102      15.116722      15.116722      15.116722      0              0              0            
    559000   295.06157     -1208.393       218.41475     -989.97822      1753.6859      14.867889      14.867889      14.867889      0              0              0            
    560000   280.77342     -1174.3223      207.83817     -966.48413     -1516.5912      15.225207      15.225207      15.225207      0              0              0            
    561000   301.15503     -1181.8761      222.92534     -958.95072     -1108.327       15.134249      15.134249      15.134249      0              0              0            
    562000   287.43462     -1200.5084      212.76902     -987.73942     -227.44496      15.147605      15.147605      15.147605      0              0              0            
    563000   331.41864     -1194.8761      245.32751     -949.54856     -1698.4042      14.977535      14.977535      14.977535      0              0              0            
    564000   298.96303     -1206.8479      221.30274     -985.54514     -455.19428      14.929161      14.929161      14.929161      0              0              0            
    565000   304.65525     -1222.7727      225.51633     -997.25634      163.27409      15.078765      15.078765      15.078765      0              0              0            
    566000   321.37613     -1214.0767      237.89369     -976.18303      572.4489       15.174857      15.174857      15.174857      0              0              0            
    567000   287.13247     -1197.9535      212.54536     -985.40815      520.97956      14.922504      14.922504      14.922504      0              0              0            
    568000   309.61961     -1240.1418      229.19112     -1010.9507     -1955.6956      14.826999      14.826999      14.826999      0              0              0            
    569000   296.9745      -1216.8377      219.83077     -997.00692     -405.06979      14.778444      14.778444      14.778444      0              0              0            
    570000   282.10618     -1184.4385      208.82473     -975.61378     -663.97529      15.128637      15.128637      15.128637      0              0              0            
    571000   299.00917     -1205.275       221.3369      -983.93805     -1656.0539      14.940498      14.940498      14.940498      0              0              0            
    572000   280.25017     -1196.9456      207.45085     -989.49478     -1968.7839      14.8853        14.8853        14.8853        0              0              0            
    573000   292.33825     -1206.3747      216.39885     -989.97587     -1413.9475      15.117785      15.117785      15.117785      0              0              0            
    574000   298.96476     -1215.9085      221.30403     -994.60445     -665.89715      15.001443      15.001443      15.001443      0              0              0            
    575000   310.1127      -1230.4099      229.55612     -1000.8538      690.26744      14.798658      14.798658      14.798658      0              0              0            
    576000   336.76245     -1213.8793      249.28318     -964.5961      -1505.501       15.119704      15.119704      15.119704      0              0              0            
    577000   296.0699      -1215.0844      219.16115     -995.92321     -1705.7723      15.05834       15.05834       15.05834       0              0              0            
    578000   301.97256     -1205.6634      223.53051     -982.13293      505.37997      14.92598       14.92598       14.92598       0              0              0            
    579000   294.40786     -1208.7101      217.93085     -990.77924     -490.70948      15.147118      15.147118      15.147118      0              0              0            
    580000   330.13194     -1209.5101      244.37505     -965.13506      1644.4616      14.921609      14.921609      14.921609      0              0              0            
    581000   283.90828     -1201.5189      210.1587      -991.36016     -1889.6215      15.051418      15.051418      15.051418      0              0              0            
    582000   280.7389      -1155.4989      207.81262     -947.68633      1406.0381      15.03307       15.03307       15.03307       0              0              0            
    583000   314.59341     -1191.0234      232.87289     -958.15053     -365.67728      14.934238      14.934238      14.934238      0              0              0            
    584000   311.16932     -1221.1874      230.33826     -990.84911      238.71921      15.002029      15.002029      15.002029      0              0              0            
    585000   291.58998     -1204.2073      215.84496     -988.36238      591.65427      14.9617        14.9617        14.9617        0              0              0            
    586000   316.81624     -1222.5578      234.51831     -988.03948     -2190.6477      14.991403      14.991403      14.991403      0              0              0            
    587000   314.30398     -1191.71        232.65865     -959.05139     -891.44851      14.854197      14.854197      14.854197      0              0              0            
    588000   294.16932     -1196.0968      217.75428     -978.34251      32.469314      15.026534      15.026534      15.026534      0              0              0            
    589000   302.43628     -1209.3939      223.87376     -985.52017     -259.84848      15.153242      15.153242      15.153242      0              0              0            
    590000   322.37864     -1199.0777      238.63579     -960.44193      28.341062      15.086909      15.086909      15.086909      0              0              0            
    591000   280.15106     -1198.5224      207.37748     -991.14497     -364.04945      14.973985      14.973985      14.973985      0              0              0            
    592000   310.73252     -1204.4377      230.01493     -974.42277     -523.42359      15.050075      15.050075      15.050075      0              0              0            
    593000   307.4379      -1200.8526      227.57614     -973.27645      257.74931      14.80489       14.80489       14.80489       0              0              0            
    594000   282.40448     -1249.941       209.04554     -1040.8955     -1861.3745      14.78565       14.78565       14.78565       0              0              0            
    595000   329.19086     -1229.0972      243.67843     -985.41872      403.49155      15.098158      15.098158      15.098158      0              0              0            
    596000   298.42199     -1184.3427      220.90225     -963.44048     -530.82264      15.072175      15.072175      15.072175      0              0              0            
    597000   295.26377     -1181.6483      218.56443     -963.08383     -1238.8618      15.163866      15.163866      15.163866      0              0              0            
    598000   291.8138      -1171.1452      216.01064     -955.13452     -786.89677      15.155972      15.155972      15.155972      0              0              0            
    599000   294.82226     -1198.5077      218.23761     -980.27012     -77.717072      14.81309       14.81309       14.81309       0              0              0            
    600000   292.69        -1208.3743      216.65924     -991.71502      2300.2612      14.831485      14.831485      14.831485      0              0              0            
    601000   280.54994     -1207.69        207.67275     -1000.0172     -489.03652      15.115535      15.115535      15.115535      0              0              0            
    602000   281.49674     -1227.0844      208.3736      -1018.7108      1024.2402      14.733237      14.733237      14.733237      0              0              0            
    603000   305.08026     -1196.0374      225.83093     -970.20651      849.05648      14.764473      14.764473      14.764473      0              0              0            
    604000   301.4343      -1218.1395      223.13207     -995.00746     -1724.3027      14.884129      14.884129      14.884129      0              0              0            
    605000   284.99722     -1213.1809      210.96477     -1002.2161     -2620.7049      14.974415      14.974415      14.974415      0              0              0            
    606000   328.08493     -1212.3856      242.85978     -969.52579      1157.9768      14.778399      14.778399      14.778399      0              0              0            
    607000   301.10839     -1208.2389      222.89082     -985.34813      111.56382      15.017249      15.017249      15.017249      0              0              0            
    608000   302.4031      -1197.7815      223.84921     -973.93233      3639.5266      14.80384       14.80384       14.80384       0              0              0            
    609000   304.01346     -1193.5753      225.04125     -968.53402      2637.7859      14.805571      14.805571      14.805571      0              0              0            
    610000   297.80202     -1231.0387      220.44333     -1010.5953     -906.51798      14.950553      14.950553      14.950553      0              0              0            
    611000   303.82816     -1198.8274      224.90409     -973.92329      512.23751      14.872965      14.872965      14.872965      0              0              0            
    612000   287.55411     -1182.9899      212.85747     -970.13242      575.25745      15.050268      15.050268      15.050268      0              0              0            
    613000   283.9562      -1176.9865      210.19418     -966.79232      614.91484      14.849484      14.849484      14.849484      0              0              0            
    614000   300.35578     -1194.2258      222.33371     -971.89206     -594.97636      14.856483      14.856483      14.856483      0              0              0            
    615000   302.6281      -1183.351       224.01576     -959.3352       1710.9297      15.098684      15.098684      15.098684      0              0              0            
    616000   271.909       -1184.9945      201.27642     -983.71804     -955.97146      15.16108       15.16108       15.16108       0              0              0            
    617000   256.3098      -1176.4414      189.72935     -986.71204      302.37319      15.243659      15.243659      15.243659      0              0              0            
    618000   290.32931     -1213.5897      214.91177     -998.67789     -133.03387      14.932264      14.932264      14.932264      0              0              0            
    619000   316.34485     -1183.817       234.16937     -949.64765      956.11089      14.966423      14.966423      14.966423      0              0              0            
    620000   316.88858     -1199.5006      234.57186     -964.92878      568.93617      15.266665      15.266665      15.266665      0              0              0            
    621000   293.85287     -1190.1056      217.52003     -972.58554      881.95072      15.044535      15.044535      15.044535      0              0              0            
    622000   334.70379     -1189.684       247.75929     -941.92468      1171.4144      14.86264       14.86264       14.86264       0              0              0            
    623000   318.08371     -1192.279       235.45654     -956.82251      1206.191       15.058466      15.058466      15.058466      0              0              0            
    624000   315.21042     -1222.6016      233.32963     -989.272        522.53037      15.108343      15.108343      15.108343      0              0              0            
    625000   292.92322     -1146.5288      216.83187     -929.69694      321.29283      15.114128      15.114128      15.114128      0              0              0            
    626000   282.9563      -1216.6711      209.45401     -1007.217      -939.54762      14.779484      14.779484      14.779484      0              0              0            
    627000   269.1684      -1203.5748      199.24774     -1004.327       527.97589      14.792771      14.792771      14.792771      0              0              0            
    628000   288.73246     -1216.3867      213.72973     -1002.6569     -2121.4551      15.038406      15.038406      15.038406      0              0              0            
    629000   301.07116     -1212.8682      222.86326     -990.00496     -567.81163      15.217616      15.217616      15.217616      0              0              0            
    630000   304.1853      -1193.5232      225.16846     -968.35475      304.29091      15.007484      15.007484      15.007484      0              0              0            
    631000   294.64796     -1193.3813      218.10858     -975.27273     -1705.9126      15.030916      15.030916      15.030916      0              0              0            
    632000   284.94066     -1207.3974      210.9229      -996.47447     -1130.4246      15.102285      15.102285      15.102285      0              0              0            
    633000   308.57738     -1223.7942      228.41962     -995.37461     -264.5974       14.925817      14.925817      14.925817      0              0              0            
    634000   308.61289     -1191.2507      228.44591     -962.80484      831.59216      15.004364      15.004364      15.004364      0              0              0            
    635000   309.02561     -1199.329       228.75142     -970.57763     -571.58829      15.067504      15.067504      15.067504      0              0              0            
    636000   308.63504     -1210.1484      228.4623      -981.68612     -1644.6605      15.051249      15.051249      15.051249      0              0              0            
    637000   299.99872     -1200.3811      222.0694      -978.31174      1152.7392      14.930625      14.930625      14.930625      0              0              0            
    638000   304.1299      -1212.1087      225.12744     -986.98129     -340.21772      15.044852      15.044852      15.044852      0              0              0            
    639000   280.71798     -1207.8994      207.79713     -1000.1023      1065.0858      14.926397      14.926397      14.926397      0              0              0            
    640000   299.3572      -1216.7006      221.59453     -995.10606      2537.0667      14.954088      14.954088      14.954088      0              0              0            
    641000   317.90078     -1178.5272      235.32112     -943.20608      1284.2827      15.08248       15.08248       15.08248       0              0              0            
    642000   294.07808     -1210.7398      217.68674     -993.05306      604.94867      14.980642      14.980642      14.980642      0              0              0            
    643000   318.60808     -1182.6565      235.84469     -946.81183     -1098.9433      15.131802      15.131802      15.131802      0              0              0            
    644000   331.19511     -1194.8714      245.16205     -949.70939      947.15015      14.714173      14.714173      14.714173      0              0              0            
    645000   282.21475     -1213.8874      208.90509     -1004.9823      2346.0723      14.66797       14.66797       14.66797       0              0              0            
    646000   308.13799     -1186.8875      228.09437     -958.79313      796.33318      15.180655      15.180655      15.180655      0              0              0            
    647000   294.42981     -1172.7235      217.9471      -954.77643      1578.7116      14.866607      14.866607      14.866607      0              0              0            
    648000   309.20096     -1221.0744      228.88121     -992.19316      2907.3482      14.77585       14.77585       14.77585       0              0              0            
    649000   307.01704     -1194.8049      227.2646      -967.54027     -167.79645      15.155679      15.155679      15.155679      0              0              0            
    650000   328.4317      -1195.9801      243.11647     -952.86363      1056.143       15.146019      15.146019      15.146019      0              0              0            
    651000   315.69837     -1209.908       233.69083     -976.21718     -2237.7201      14.932331      14.932331      14.932331      0              0              0            
    652000   283.71257     -1153.3701      210.01383     -943.3563      -326.84735      15.126768      15.126768      15.126768      0              0              0            
    653000   305.99356     -1184.039       226.50699     -957.53201      193.03251      15.015297      15.015297      15.015297      0              0              0            
    654000   293.92071     -1207.8247      217.57025     -990.25448     -419.12077      14.986843      14.986843      14.986843      0              0              0            
    655000   304.40398     -1208.6621      225.33033     -983.33182      608.00078      14.851238      14.851238      14.851238      0              0              0            
    656000   293.44751     -1186.9266      217.21997     -969.70659     -2337.1306      15.044003      15.044003      15.044003      0              0              0            
    657000   308.43568     -1209.4135      228.31473     -981.09873     -750.764        15.11511       15.11511       15.11511       0              0              0            
    658000   279.26697     -1207.9001      206.72305     -1001.1771      615.06022      14.971666      14.971666      14.971666      0              0              0            
    659000   310.4705      -1214.4182      229.82098     -984.59721     -474.206        14.97338       14.97338       14.97338       0              0              0            
    660000   312.73963     -1215.3644      231.50067     -983.86371      542.52324      14.856536      14.856536      14.856536      0              0              0            
    661000   303.29496     -1205.0157      224.50939     -980.50626     -1241.5797      14.823568      14.823568      14.823568      0              0              0            
    662000   300.22961     -1200.5841      222.24031     -978.34383     -134.32999      14.930342      14.930342      14.930342      0              0              0            
    663000   307.1784      -1186.6332      227.38405     -959.24915      260.90292      15.059553      15.059553      15.059553      0              0              0            
    664000   299.46652     -1208.2586      221.67544     -986.58316      212.54126      15.088768      15.088768      15.088768      0              0              0            
    665000   284.97311     -1185.7209      210.94693     -974.77399     -124.86104      15.177996      15.177996      15.177996      0              0              0            
    666000   308.66415     -1214.7737      228.48385     -986.28983     -2515.6296      15.027882      15.027882      15.027882      0              0              0            
    667000   313.14892     -1217.8481      231.80363     -986.04444      998.29537      14.838664      14.838664      14.838664      0              0              0            
    668000   276.07563     -1214.4229      204.3607      -1010.0622     -371.29043      14.795696      14.795696      14.795696      0              0              0            
    669000   269.94019     -1212.164       199.81904     -1012.3449     -1295.6456      14.920583      14.920583      14.920583      0              0              0            
    670000   333.96199     -1205.2945      247.21019     -958.08429     -2466.4587      14.813799      14.813799      14.813799      0              0              0            
    671000   293.70379     -1205.3852      217.40968     -987.97555     -1038.1054      14.84968       14.84968       14.84968       0              0              0            
    672000   305.04321     -1221.9284      225.80351     -996.1249      -687.41312      15.025108      15.025108      15.025108      0              0              0            
    673000   311.36385     -1188.9752      230.48226     -958.49297      2527.1914      15.126704      15.126704      15.126704      0              0              0            
    674000   299.57902     -1193.6335      221.75872     -971.87482     -366.57666      15.163462      15.163462      15.163462      0              0              0            
    675000   289.31745     -1207.8251      214.16275     -993.66237      1369.3018      14.897631      14.897631      14.897631      0              0              0            
    676000   284.81225     -1231.2152      210.82785     -1020.3873      1413.5539      14.893327      14.893327      14.893327      0              0              0            
    677000   312.66854     -1176.0337      231.44804     -944.58563      263.57698      15.066498      15.066498      15.066498      0              0              0            
    678000   303.26265     -1186.4345      224.48547     -961.94907     -348.0411       15.174315      15.174315      15.174315      0              0              0            
    679000   302.24979     -1208.8932      223.73572     -985.15744     -2267.7363      15.246509      15.246509      15.246509      0              0              0            
    680000   322.35772     -1190.451       238.6203      -951.83073      647.19505      14.889235      14.889235      14.889235      0              0              0            
    681000   300.91691     -1200.5167      222.74908     -977.76763      1319.5509      14.996498      14.996498      14.996498      0              0              0            
    682000   322.53472     -1211.5116      238.75132     -972.76023     -287.531        14.725599      14.725599      14.725599      0              0              0            
    683000   301.20932     -1196.9501      222.96553     -973.9846       285.01915      15.168786      15.168786      15.168786      0              0              0            
    684000   303.22926     -1201.5873      224.46076     -977.12652     -708.66078      15.091065      15.091065      15.091065      0              0              0            
    685000   316.05439     -1182.8445      233.95436     -948.89012      38.893494      15.032171      15.032171      15.032171      0              0              0            
    686000   330.17769     -1217.0315      244.40891     -972.62255      1808.1577      14.90885       14.90885       14.90885       0              0              0            
    687000   300.02577     -1182.0137      222.08942     -959.92424     -931.11478      15.144647      15.144647      15.144647      0              0              0            
    688000   284.78699     -1209.7179      210.80916     -998.90871      706.98951      14.843321      14.843321      14.843321      0              0              0            
    689000   288.22815     -1230.8296      213.35642     -1017.4731     -1263.704       14.928558      14.928558      14.928558      0              0              0            
    690000   295.36897     -1228.7239      218.6423      -1010.0816      142.47793      14.907692      14.907692      14.907692      0              0              0            
    691000   279.56523     -1177.8666      206.94383     -970.92278      796.55003      15.089784      15.089784      15.089784      0              0              0            
    692000   273.26305     -1194.8293      202.27874     -992.55056      529.0782       15.065655      15.065655      15.065655      0              0              0            
    693000   285.16644     -1217.728       211.09004     -1006.638       1635.8021      14.985811      14.985811      14.985811      0              0              0            
    694000   282.18644     -1223.6767      208.88414     -1014.7926     -1115.8357      14.70762       14.70762       14.70762       0              0              0            
    695000   293.21827     -1206.3052      217.05028     -989.25495      1840.0731      14.859621      14.859621      14.859621      0              0              0            
    696000   289.89873     -1207.9787      214.59304     -993.38567     -2402.379       15.072567      15.072567      15.072567      0              0              0            
    697000   297.99859     -1199.156       220.58884     -978.56721      924.53178      14.986686      14.986686      14.986686      0              0              0            
    698000   315.79936     -1217.2503      233.76558     -983.48471      113.03828      14.95825       14.95825       14.95825       0              0              0            
    699000   305.63597     -1211.9977      226.24229     -985.75537      239.70335      14.841948      14.841948      14.841948      0              0              0            
    700000   293.34751     -1171.205       217.14595     -954.05904     -2451.746       15.497552      15.497552      15.497552      0              0              0            
    701000   310.71046     -1178.0797      229.9986      -948.08115     -1296.6629      15.38118       15.38118       15.38118       0              0              0            
    702000   327.25142     -1208.5261      242.24279     -966.28326     -61.720863      15.119551      15.119551      15.119551      0              0              0            
    703000   324.0616      -1203.6693      239.88157     -963.78774     -443.1369       15.024878      15.024878      15.024878      0              0              0            
    704000   290.67113     -1209.7224      215.1648      -994.55758      365.7538       14.81376       14.81376       14.81376       0              0              0            
    705000   318.34395     -1203.0871      235.64917     -967.43788     -1337.2434      15.047398      15.047398      15.047398      0              0              0            
    706000   299.83462     -1202.3222      221.94793     -980.37432      1179.5197      14.786544      14.786544      14.786544      0              0              0            
    707000   301.26419     -1224.2008      223.00614     -1001.1947      1832.7588      14.989368      14.989368      14.989368      0              0              0            
    708000   334.94792     -1203.2008      247.94        -955.26082     -1530.1953      14.974882      14.974882      14.974882      0              0              0            
    709000   290.99402     -1215.9439      215.40382     -1000.5401     -721.50343      15.079501      15.079501      15.079501      0              0              0            
    710000   313.9617      -1224.1147      232.40528     -991.70943     -1679.523       14.900023      14.900023      14.900023      0              0              0            
    711000   315.82443     -1208.9451      233.78414     -975.16095     -230.78002      15.008221      15.008221      15.008221      0              0              0            
    712000   291.09803     -1189.8375      215.4808      -974.35671      14.462625      15.091515      15.091515      15.091515      0              0              0            
    713000   308.48691     -1195.579       228.35265     -967.22639     -1949.1551      15.171783      15.171783      15.171783      0              0              0            
    714000   309.9827      -1192.6036      229.45989     -963.14367      1800.8383      15.166922      15.166922      15.166922      0              0              0            
    715000   297.84476     -1222.4527      220.47497     -1001.9778      1146.2883      15.030042      15.030042      15.030042      0              0              0            
    716000   280.78939     -1194.6676      207.84999     -986.81765      938.0016       15.144435      15.144435      15.144435      0              0              0            
    717000   293.69758     -1192.5304      217.40508     -975.12529     -1616.4214      15.146053      15.146053      15.146053      0              0              0            
    718000   300.66957     -1211.5889      222.56599     -989.02288      270.37258      14.964606      14.964606      14.964606      0              0              0            
    719000   295.58552     -1200.6684      218.8026      -981.86578      177.75737      15.00545       15.00545       15.00545       0              0              0            
    720000   302.5074      -1207.3696      223.92641     -983.44316      1808.2087      14.942446      14.942446      14.942446      0              0              0            
    721000   338.18854     -1203.9459      250.33882     -953.60705     -198.76777      14.887492      14.887492      14.887492      0              0              0            
    722000   303.08811     -1218.7558      224.35627     -994.39948      583.06609      14.726843      14.726843      14.726843      0              0              0            
    723000   269.78337     -1218.7565      199.70296     -1019.0536      1184.9069      14.827107      14.827107      14.827107      0              0              0            
    724000   278.67059     -1224.169       206.28158     -1017.8874      297.38579      14.961838      14.961838      14.961838      0              0              0            
    725000   287.90268     -1203.7989      213.1155      -990.68336     -235.71445      14.923777      14.923777      14.923777      0              0              0            
    726000   310.44795     -1227.9588      229.80428     -998.15449      2140.5398      14.780045      14.780045      14.780045      0              0              0            
    727000   286.28917     -1204.7113      211.92112     -992.79018      133.02884      14.961711      14.961711      14.961711      0              0              0            
    728000   287.35286     -1191.1641      212.7085      -978.45562     -72.033572      15.017521      15.017521      15.017521      0              0              0            
    729000   298.54232     -1216.4269      220.99132     -995.43556     -696.73515      14.896682      14.896682      14.896682      0              0              0            
    730000   295.62996     -1218.3837      218.8355      -999.54819      510.00763      14.757381      14.757381      14.757381      0              0              0            
    731000   313.90942     -1240.1132      232.36658     -1007.7466     -330.91888      15.130593      15.130593      15.130593      0              0              0            
    732000   287.71295     -1215.789       212.97505     -1002.8139     -1535.354       14.98209       14.98209       14.98209       0              0              0            
    733000   304.51719     -1203.6848      225.41413     -978.27063     -1438.708       14.7243        14.7243        14.7243        0              0              0            
    734000   324.80481     -1200.6955      240.43173     -960.26377      564.14397      14.805107      14.805107      14.805107      0              0              0            
    735000   316.3744      -1194.7813      234.19125     -960.59007      1560.2348      14.797288      14.797288      14.797288      0              0              0            
    736000   286.41479     -1193.5631      212.01411     -981.54898     -374.05255      15.043499      15.043499      15.043499      0              0              0            
    737000   289.94275     -1197.9182      214.62563     -983.29259      948.34458      15.083265      15.083265      15.083265      0              0              0            
    738000   311.9562      -1202.0237      230.92074     -971.10296      1424.7182      14.759633      14.759633      14.759633      0              0              0            
    739000   302.72438     -1206.5889      224.08703     -982.50191      1004.2174      14.813981      14.813981      14.813981      0              0              0            
    740000   307.67153     -1177.6482      227.74908     -949.89915      343.7996       14.804768      14.804768      14.804768      0              0              0            
    741000   312.49591     -1151.7302      231.32025     -920.40999     -2271.9426      15.036451      15.036451      15.036451      0              0              0            
    742000   278.22019     -1218.6009      205.94818     -1012.6527     -428.56435      15.006566      15.006566      15.006566      0              0              0            
    743000   304.00716     -1221.5759      225.03658     -996.53928     -882.51883      15.043988      15.043988      15.043988      0              0              0            
    744000   310.902       -1207.7992      230.14038     -977.65884      1400.0755      14.899636      14.899636      14.899636      0              0              0            
    745000   276.34397     -1173.8829      204.55934     -969.32355     -2331.2932      15.236799      15.236799      15.236799      0              0              0            
    746000   305.80212     -1209.1957      226.36528     -982.83042     -1625.3786      15.171084      15.171084      15.171084      0              0              0            
    747000   304.03696     -1172.3261      225.05865     -947.26747      328.5316       15.243699      15.243699      15.243699      0              0              0            
    748000   311.64432     -1220.9556      230.68988     -990.26571     -1067.6506      15.044069      15.044069      15.044069      0              0              0            
    749000   283.11602     -1187.9462      209.57225     -978.37398     -2235.5481      15.102406      15.102406      15.102406      0              0              0            
    750000   286.4753      -1237.573       212.0589      -1025.5141      510.35872      14.915026      14.915026      14.915026      0              0              0            
    751000   282.07114     -1229.4365      208.79879     -1020.6377      305.27672      14.967862      14.967862      14.967862      0              0              0            
    752000   289.31689     -1209.4335      214.16234     -995.27114     -593.58207      14.986632      14.986632      14.986632      0              0              0            
    753000   295.10845     -1236.7646      218.44946     -1018.3152      1113.1699      14.736669      14.736669      14.736669      0              0              0            
    754000   313.64627     -1207.8451      232.17179     -975.67335      984.46762      15.034779      15.034779      15.034779      0              0              0            
    755000   308.20049     -1177.717       228.14063     -949.57641      82.374423      15.103365      15.103365      15.103365      0              0              0            
    756000   295.36463     -1201.3421      218.63909     -982.70299     -1409.0552      15.105392      15.105392      15.105392      0              0              0            
    757000   309.23553     -1238.8786      228.90681     -1009.9718     -735.93789      14.897428      14.897428      14.897428      0              0              0            
    758000   295.98596     -1199.7277      219.09902     -980.62872     -273.96376      15.035148      15.035148      15.035148      0              0              0            
    759000   279.44537     -1204.1896      206.8551      -997.33454     -959.46946      14.979092      14.979092      14.979092      0              0              0            
    760000   303.38092     -1191.0287      224.57302     -966.45567      568.11658      14.88569       14.88569       14.88569       0              0              0            
    761000   303.5416      -1155.2356      224.69196     -930.54365     -378.31844      14.854985      14.854985      14.854985      0              0              0            
    762000   289.65173     -1208.0801      214.4102      -993.66991      2201.6898      14.776204      14.776204      14.776204      0              0              0            
    763000   290.60808     -1212.8851      215.11812     -997.76701     -173.86254      14.80424       14.80424       14.80424       0              0              0            
    764000   291.41167     -1220.1176      215.71297     -1004.4046      1762.8217      14.664876      14.664876      14.664876      0              0              0            
    765000   303.4124      -1199.9395      224.59633     -975.3432       1624.7852      14.766784      14.766784      14.766784      0              0              0            
    766000   311.48964     -1184.6257      230.57538     -954.05033      1758.5808      14.973025      14.973025      14.973025      0              0              0            
    767000   299.48111     -1165.1241      221.68625     -943.43789     -310.81979      15.077859      15.077859      15.077859      0              0              0            
    768000   321.54835     -1190.664       238.02118     -952.64282     -55.954413      15.007156      15.007156      15.007156      0              0              0            
    769000   284.84567     -1215.4079      210.85259     -1004.5553      1080.9012      14.86449       14.86449       14.86449       0              0              0            
    770000   283.73271     -1200.7228      210.02874     -990.69404     -299.09914      14.836591      14.836591      14.836591      0              0              0            
    771000   273.30223     -1214.382       202.30774     -1012.0742      498.8976       14.983123      14.983123      14.983123      0              0              0            
    772000   288.52688     -1189.552       213.57755     -975.97442     -810.51862      14.981842      14.981842      14.981842      0              0              0            
    773000   302.06028     -1211.5066      223.59544     -987.91119     -1505.2396      14.938118      14.938118      14.938118      0              0              0            
    774000   296.87198     -1206.1589      219.75488     -986.40403      557.73479      14.970697      14.970697      14.970697      0              0              0            
    775000   306.16868     -1167.2527      226.63662     -940.6161      -1326.2389      15.121855      15.121855      15.121855      0              0              0            
    776000   305.41909     -1193.5255      226.08175     -967.44376     -434.29576      15.019727      15.019727      15.019727      0              0              0            
    777000   310.73309     -1213.0835      230.01535     -983.06811      468.17716      14.980253      14.980253      14.980253      0              0              0            
    778000   277.00363     -1195.3337      205.04765     -990.28601      407.12939      14.973871      14.973871      14.973871      0              0              0            
    779000   299.72796     -1214.4574      221.86897     -992.58842      231.25746      14.745913      14.745913      14.745913      0              0              0            
    780000   281.26421     -1200.2306      208.20147     -992.02909      560.67518      14.835868      14.835868      14.835868      0              0              0            
    781000   298.36942     -1200.9248      220.86334     -980.06151      396.28905      14.958246      14.958246      14.958246      0              0              0            
    782000   301.96171     -1222.3781      223.52247     -998.85567     -212.20895      14.85444       14.85444       14.85444       0              0              0            
    783000   287.51854     -1195.8289      212.83114     -982.99776      86.7419        14.903564      14.903564      14.903564      0              0              0            
    784000   297.79521     -1198.1533      220.43829     -977.71503     -1335.7789      15.235099      15.235099      15.235099      0              0              0            
    785000   296.76829     -1220.4704      219.67813     -1000.7923     -804.65694      14.875247      14.875247      14.875247      0              0              0            
    786000   322.2265      -1222.127       238.52317     -983.60382     -350.87489      14.989209      14.989209      14.989209      0              0              0            
    787000   285.31094     -1205.935       211.197       -994.73797      393.52566      14.765911      14.765911      14.765911      0              0              0            
    788000   312.81332     -1226.2712      231.55521     -994.71599     -1857.0645      14.967145      14.967145      14.967145      0              0              0            
    789000   303.16286     -1219.3366      224.41161     -994.92498     -507.93715      14.945535      14.945535      14.945535      0              0              0            
    790000   303.14163     -1180.4057      224.39589     -956.00979     -162.1377       15.288471      15.288471      15.288471      0              0              0            
    791000   293.60734     -1167.0675      217.33828     -949.72922      313.74741      14.904884      14.904884      14.904884      0              0              0            
    792000   302.05235     -1204.6825      223.58957     -981.09294      1544.6026      14.982982      14.982982      14.982982      0              0              0            
    793000   309.54867     -1191.8719      229.1386      -962.7333       1098.3732      14.874249      14.874249      14.874249      0              0              0            
    794000   335.74045     -1203.2044      248.52666     -954.67773     -102.44979      15.235089      15.235089      15.235089      0              0              0            
    795000   298.39555     -1202.7643      220.88268     -981.88162      154.68336      14.982867      14.982867      14.982867      0              0              0            
    796000   305.72815     -1221.0277      226.31053     -994.71721     -668.99026      14.93798       14.93798       14.93798       0              0              0            
    797000   323.20922     -1221.3562      239.25062     -982.10559     -1215.1061      14.86977       14.86977       14.86977       0              0              0            
    798000   312.71916     -1208.6732      231.48551     -977.18773     -1556.9285      15.202684      15.202684      15.202684      0              0              0            
    799000   276.31827     -1201.0057      204.54031     -996.46535      2295.8555      14.790628      14.790628      14.790628      0              0              0            
    800000   293.07937     -1221.0395      216.94746     -1004.0921      1277.6732      14.588512      14.588512      14.588512      0              0              0            
    801000   277.75884     -1217.4346      205.60668     -1011.8279     -963.58713      15.131751      15.131751      15.131751      0              0              0            
    802000   303.71281     -1244.3366      224.8187      -1019.5179      219.51573      14.847168      14.847168      14.847168      0              0              0            
    803000   312.0879      -1220.1637      231.01823     -989.14546      922.41253      14.776605      14.776605      14.776605      0              0              0            
    804000   303.37164     -1189.0353      224.56615     -964.46916     -1053.251       14.965353      14.965353      14.965353      0              0              0            
    805000   281.29679     -1222.5175      208.22559     -1014.2919      614.49808      14.996979      14.996979      14.996979      0              0              0            
    806000   305.67118     -1201.6643      226.26835     -975.39592     -1474.5708      15.154636      15.154636      15.154636      0              0              0            
    807000   295.74488     -1211.9214      218.92056     -993.00085     -1479.8339      15.053365      15.053365      15.053365      0              0              0            
    808000   316.6899      -1204.5291      234.42479     -970.10433      34.405561      14.802297      14.802297      14.802297      0              0              0            
    809000   309.88121     -1213.0875      229.38476     -983.70271     -768.766        15.049765      15.049765      15.049765      0              0              0            
    810000   290.2437      -1225.8548      214.8484      -1011.0064     -669.41198      15.060069      15.060069      15.060069      0              0              0            
    811000   299.31607     -1214.7897      221.56408     -993.22559      1114.1597      15.077516      15.077516      15.077516      0              0              0            
    812000   302.00465     -1223.096       223.55426     -999.54176     -15.812178      14.735386      14.735386      14.735386      0              0              0            
    813000   295.90031     -1174.5646      219.03561     -955.52903     -578.61436      15.02493       15.02493       15.02493       0              0              0            
    814000   280.27422     -1223.1885      207.46864     -1015.7198     -572.71407      14.756766      14.756766      14.756766      0              0              0            
    815000   306.31932     -1196.1914      226.74813     -969.44329     -1274.4956      15.271844      15.271844      15.271844      0              0              0            
    816000   286.44317     -1184.4185      212.03512     -972.38336      6.0935403      15.077287      15.077287      15.077287      0              0              0            
    817000   311.73671     -1183.0195      230.75827     -952.26124      1852.9813      14.806566      14.806566      14.806566      0              0              0            
    818000   307.61993     -1259.0691      227.71089     -1031.3583      3235.4056      14.954072      14.954072      14.954072      0              0              0            
    819000   309.97831     -1239.0193      229.45663     -1009.5627      1263.2832      14.666374      14.666374      14.666374      0              0              0            
    820000   301.11883     -1192.8275      222.89854     -969.92897     -417.4401       15.003873      15.003873      15.003873      0              0              0            
    821000   302.79326     -1188.2316      224.13802     -964.0936       268.70949      15.160093      15.160093      15.160093      0              0              0            
    822000   299.78147     -1218.5639      221.90859     -996.65529     -1385.8354      14.745226      14.745226      14.745226      0              0              0            
    823000   277.84148     -1215.6255      205.66785     -1009.9576     -1447.4394      14.960582      14.960582      14.960582      0              0              0            
    824000   287.13098     -1187.0016      212.54426     -974.45734      293.43374      15.095029      15.095029      15.095029      0              0              0            
    825000   270.57175     -1210.6461      200.28654     -1010.3596     -1487.6919      15.100292      15.100292      15.100292      0              0              0            
    826000   292.37402     -1218.3338      216.42533     -1001.9085      1834.0203      14.719819      14.719819      14.719819      0              0              0            
    827000   290.89593     -1230.3728      215.3312      -1015.0416     -943.94016      14.990385      14.990385      14.990385      0              0              0            
    828000   293.43738     -1208.7445      217.21247     -991.53201      364.16883      14.997032      14.997032      14.997032      0              0              0            
    829000   271.18466     -1196.0938      200.74024     -995.35355      1673.3508      14.825327      14.825327      14.825327      0              0              0            
    830000   299.02478     -1233.5288      221.34845     -1012.1803      1915.9474      14.59615       14.59615       14.59615       0              0              0            
    831000   299.42723     -1229.3648      221.64636     -1007.7185     -603.71158      14.880061      14.880061      14.880061      0              0              0            
    832000   310.98976     -1184.8536      230.20535     -954.64824     -156.4579       15.129586      15.129586      15.129586      0              0              0            
    833000   323.80547     -1216.9908      239.69198     -977.29884      255.27947      14.926227      14.926227      14.926227      0              0              0            
    834000   319.41359     -1196.062       236.44096     -959.62108      183.88356      15.260709      15.260709      15.260709      0              0              0            
    835000   307.55286     -1211.777       227.66124     -984.11574     -2663.3269      15.370792      15.370792      15.370792      0              0              0            
    836000   279.59577     -1215.5471      206.96643     -1008.5807      1769.5805      14.913142      14.913142      14.913142      0              0              0            
    837000   323.09759     -1218.6607      239.16798     -979.49268      609.64377      15.196488      15.196488      15.196488      0              0              0            
    838000   323.15605     -1229.5935      239.21125     -990.38225      2111.5932      14.800824      14.800824      14.800824      0              0              0            
    839000   323.43879     -1225.5758      239.42055     -986.15523     -136.19828      15.074589      15.074589      15.074589      0              0              0            
    840000   276.07723     -1207.2355      204.36189     -1002.8736     -466.24778      15.188787      15.188787      15.188787      0              0              0            
    841000   317.34282     -1202.2578      234.90811     -967.34973      1267.8964      14.942536      14.942536      14.942536      0              0              0            
    842000   273.09876     -1206.82        202.15712     -1004.6629      1728.399       14.929707      14.929707      14.929707      0              0              0            
    843000   292.65103     -1253.4249      216.63039     -1036.7945     -1300.6214      14.955525      14.955525      14.955525      0              0              0            
    844000   318.70018     -1214.9248      235.91287     -979.01192     -167.18867      14.993909      14.993909      14.993909      0              0              0            
    845000   301.09421     -1209.2946      222.88032     -986.4143      -503.83769      14.812183      14.812183      14.812183      0              0              0            
    846000   305.78729     -1192.0144      226.3543      -965.66009     -1414.2823      15.052378      15.052378      15.052378      0              0              0            
    847000   296.99599     -1211.4327      219.84668     -991.58605     -2457.3331      15.109626      15.109626      15.109626      0              0              0            
    848000   291.98732     -1207.9777      216.13908     -991.83857      2181.4455      14.71172       14.71172       14.71172       0              0              0            
    849000   297.90967     -1206.5884      220.52302     -986.06541     -1045.9003      14.899483      14.899483      14.899483      0              0              0            
    850000   332.41233     -1186.1664      246.06307     -940.1033       107.92947      15.001094      15.001094      15.001094      0              0              0            
    851000   294.56029     -1184.8637      218.04369     -966.82005      306.07908      15.152935      15.152935      15.152935      0              0              0            
    852000   298.13391     -1191.3374      220.689       -970.64842     -1237.3087      15.020853      15.020853      15.020853      0              0              0            
    853000   286.92056     -1194.6348      212.3885      -982.24635     -1895.9772      15.074039      15.074039      15.074039      0              0              0            
    854000   315.67095     -1220.8669      233.67053     -987.19638      650.00878      14.921808      14.921808      14.921808      0              0              0            
    855000   335.13951     -1207.5304      248.08182     -959.44854      735.03509      14.986085      14.986085      14.986085      0              0              0            
    856000   320.97587     -1201.7483      237.59741     -964.15089      834.38356      15.139455      15.139455      15.139455      0              0              0            
    857000   317.21595     -1219.4074      234.81419     -984.59321      921.28845      15.056371      15.056371      15.056371      0              0              0            
    858000   285.39403     -1187.5218      211.25851     -976.26333      1212.7677      14.935496      14.935496      14.935496      0              0              0            
    859000   313.97511     -1208.7717      232.41521     -976.35652     -1139.5671      14.907611      14.907611      14.907611      0              0              0            
    860000   322.77451     -1185.5164      238.92882     -946.58758      25.044878      15.17524       15.17524       15.17524       0              0              0            
    861000   286.14588     -1177.0602      211.81505     -965.24519      92.018007      15.383007      15.383007      15.383007      0              0              0            
    862000   294.56875     -1205.077       218.04995     -987.02709     -1350.8245      15.100125      15.100125      15.100125      0              0              0            
    863000   318.35993     -1203.5509      235.661       -967.88988      2286.0027      14.868252      14.868252      14.868252      0              0              0            
    864000   296.81897     -1208.1308      219.71564     -988.4152      -1153.1702      14.929736      14.929736      14.929736      0              0              0            
    865000   312.23715     -1189.4165      231.12871     -958.28779     -710.06591      14.908713      14.908713      14.908713      0              0              0            
    866000   306.87973     -1153.4489      227.16296     -926.28589     -1504.4339      15.285811      15.285811      15.285811      0              0              0            
    867000   284.87106     -1209.839       210.87138     -998.96759      611.13784      14.88919       14.88919       14.88919       0              0              0            
    868000   298.65191     -1202.2296      221.07245     -981.15713      617.1257       14.914884      14.914884      14.914884      0              0              0            
    869000   294.58536     -1176.5291      218.06225     -958.46682      2910.4043      14.988858      14.988858      14.988858      0              0              0            
    870000   296.98977     -1177.0768      219.84207     -957.2347      -2224.1748      15.202767      15.202767      15.202767      0              0              0            
    871000   298.002       -1216.6688      220.59136     -996.07741     -969.68651      14.847898      14.847898      14.847898      0              0              0            
    872000   306.6056      -1201.0364      226.96004     -974.0764      -776.26471      14.85734       14.85734       14.85734       0              0              0            
    873000   286.87169     -1204.3819      212.35232     -992.02956      493.90516      15.038262      15.038262      15.038262      0              0              0            
    874000   294.45101     -1219.8173      217.9628      -1001.8545     -478.0553       14.969495      14.969495      14.969495      0              0              0            
    875000   293.51947     -1178.9162      217.27324     -961.64294      1077.5693      14.932265      14.932265      14.932265      0              0              0            
    876000   257.86293     -1193.7603      190.87903     -1002.8812      137.47934      15.012683      15.012683      15.012683      0              0              0            
    877000   306.25243     -1220.725       226.69861     -994.02643      292.88393      15.00728       15.00728       15.00728       0              0              0            
    878000   302.81931     -1205.6774      224.1573      -981.5201      -1047.2941      14.728268      14.728268      14.728268      0              0              0            
    879000   290.34476     -1188.0415      214.92321     -973.11831      1967.1243      14.700962      14.700962      14.700962      0              0              0            
    880000   295.3         -1216.5906      218.59125     -997.99936     -227.07137      14.824266      14.824266      14.824266      0              0              0            
    881000   311.69217     -1241.771       230.7253      -1011.0457      330.81994      14.656934      14.656934      14.656934      0              0              0            
    882000   286.1725      -1217.4734      211.83476     -1005.6387      1969.8429      14.987398      14.987398      14.987398      0              0              0            
    883000   315.02492     -1164.0838      233.19231     -930.89152      1400.9328      15.380173      15.380173      15.380173      0              0              0            
    884000   302.31486     -1206.8312      223.78389     -983.0473       580.97396      15.154076      15.154076      15.154076      0              0              0            
    885000   274.76589     -1186.6696      203.39119     -983.27841     -43.434182      15.114448      15.114448      15.114448      0              0              0            
    886000   315.75849     -1192.1947      233.73532     -958.4594      -801.63292      14.957754      14.957754      14.957754      0              0              0            
    887000   295.14678     -1208.9974      218.47782     -990.51957     -341.69875      15.090619      15.090619      15.090619      0              0              0            
    888000   315.78417     -1226.0206      233.75434     -992.26626      352.56352      14.944145      14.944145      14.944145      0              0              0            
    889000   307.72141     -1228.5835      227.786       -1000.7975      1377.9687      14.827979      14.827979      14.827979      0              0              0            
    890000   287.88623     -1213.8249      213.10332     -1000.7216      777.58014      15.046879      15.046879      15.046879      0              0              0            
    891000   312.57922     -1181.5881      231.38192     -950.20615     -505.78807      15.068639      15.068639      15.068639      0              0              0            
    892000   291.51437     -1211.1814      215.78899     -995.39236     -512.0154       14.921703      14.921703      14.921703      0              0              0            
    893000   305.52489     -1200.3946      226.16007     -974.23453      1524.1721      14.944034      14.944034      14.944034      0              0              0            
    894000   307.63953     -1197.3286      227.7254      -969.60321      1922.3346      15.066443      15.066443      15.066443      0              0              0            
    895000   299.52549     -1194.9503      221.7191      -973.2312       698.3781       14.993344      14.993344      14.993344      0              0              0            
    896000   298.33076     -1219.5862      220.83472     -998.75149      687.74973      15.218345      15.218345      15.218345      0              0              0            
    897000   303.87898     -1183.9451      224.9417      -959.00344      3271.8263      15.097397      15.097397      15.097397      0              0              0            
    898000   265.68911     -1205.1016      196.67225     -1008.4294     -1336.7471      15.229408      15.229408      15.229408      0              0              0            
    899000   303.19082     -1219.4129      224.4323      -994.98056      67.774948      14.887005      14.887005      14.887005      0              0              0            
    900000   309.05676     -1206.0163      228.77448     -977.24185      2138.3981      14.913298      14.913298      14.913298      0              0              0            
    901000   307.18242     -1223.2904      227.38702     -995.90334      320.69047      14.714691      14.714691      14.714691      0              0              0            
    902000   292.66147     -1192.2397      216.63812     -975.60154      63.234982      15.016751      15.016751      15.016751      0              0              0            
    903000   279.76499     -1227.8368      207.0917      -1020.7451      1712.0603      14.708532      14.708532      14.708532      0              0              0            
    904000   267.31939     -1194.7865      197.87903     -996.90746     -1528.4495      15.265506      15.265506      15.265506      0              0              0            
    905000   306.60204     -1168.3469      226.95741     -941.38952      1335.065       15.120715      15.120715      15.120715      0              0              0            
    906000   314.32453     -1204.361       232.67386     -971.68716     -97.238814      14.756356      14.756356      14.756356      0              0              0            
    907000   307.66206     -1200.6985      227.74207     -972.95642      566.73535      14.816448      14.816448      14.816448      0              0              0            
    908000   293.04216     -1188.1344      216.91991     -971.21446      1014.0103      14.707816      14.707816      14.707816      0              0              0            
    909000   290.34919     -1195.6334      214.92648     -980.70691     -313.81215      15.05099       15.05099       15.05099       0              0              0            
    910000   306.601       -1181.8448      226.95664     -954.88818     -229.10008      15.154696      15.154696      15.154696      0              0              0            
    911000   307.94159     -1197.966       227.94899     -970.01704     -585.31229      14.967352      14.967352      14.967352      0              0              0            
    912000   293.52493     -1172.0403      217.27728     -954.76298      552.50825      15.217614      15.217614      15.217614      0              0              0            
    913000   314.07346     -1192.5024      232.48801     -960.01438     -541.49203      14.908322      14.908322      14.908322      0              0              0            
    914000   321.05103     -1200.2944      237.65305     -962.64131     -733.55718      14.872744      14.872744      14.872744      0              0              0            
    915000   296.655       -1181.357       219.59427     -961.76274      116.22515      14.86422       14.86422       14.86422       0              0              0            
    916000   302.2993      -1203.0981      223.77237     -979.32574     -1446.0091      15.131955      15.131955      15.131955      0              0              0            
    917000   279.97564     -1190.0429      207.24762     -982.79526      647.5233       14.945948      14.945948      14.945948      0              0              0            
    918000   300.21931     -1216.7082      222.23269     -994.47546      282.89993      14.900837      14.900837      14.900837      0              0              0            
    919000   301.92991     -1225.3122      223.49894     -1001.8133      252.74655      14.894568      14.894568      14.894568      0              0              0            
    920000   311.1227      -1241.8615      230.30376     -1011.5578      2011.6354      14.959788      14.959788      14.959788      0              0              0            
    921000   280.9559      -1236.6509      207.97325     -1028.6776      1802.0934      15.020395      15.020395      15.020395      0              0              0            
    922000   296.1082      -1187.0368      219.1895      -967.8473      -1041.6511      15.030293      15.030293      15.030293      0              0              0            
    923000   293.20443     -1213.4081      217.04004     -996.36809      29.376476      15.217207      15.217207      15.217207      0              0              0            
    924000   312.23024     -1221.9934      231.12359     -990.86984     -620.9706       15.065859      15.065859      15.065859      0              0              0            
    925000   293.74202     -1204.7807      217.43797     -987.34269      1302.2808      14.97142       14.97142       14.97142       0              0              0            
    926000   300.99354     -1214.0079      222.8058      -991.20209      1730.9625      15.090373      15.090373      15.090373      0              0              0            
    927000   304.88233     -1205.0755      225.68442     -979.39104     -992.29015      15.256331      15.256331      15.256331      0              0              0            
    928000   311.52989     -1189.2157      230.60517     -958.61056      392.95175      15.113008      15.113008      15.113008      0              0              0            
    929000   290.50651     -1205.7205      215.04294     -990.67756      1659.7373      14.921566      14.921566      14.921566      0              0              0            
    930000   283.28134     -1215.6053      209.69462     -1005.9107     -1166.1528      14.870172      14.870172      14.870172      0              0              0            
    931000   277.36895     -1182.3696      205.31807     -977.0515      -1100.6342      15.133759      15.133759      15.133759      0              0              0            
    932000   332.59693     -1179.7617      246.19972     -933.56198      282.1846       15.127617      15.127617      15.127617      0              0              0            
    933000   294.62499     -1201.1694      218.09158     -983.07779     -289.32955      15.136899      15.136899      15.136899      0              0              0            
    934000   303.61072     -1221.8616      224.74313     -997.11844      1201.2016      14.909864      14.909864      14.909864      0              0              0            
    935000   307.45186     -1200.5591      227.58647     -972.97264     -989.68883      15.156192      15.156192      15.156192      0              0              0            
    936000   310.79098     -1200.2504      230.0582      -970.19216      205.18733      15.108267      15.108267      15.108267      0              0              0            
    937000   292.10192     -1179.1794      216.22392     -962.9555      -618.20138      15.036995      15.036995      15.036995      0              0              0            
    938000   290.68563     -1228.2771      215.17553     -1013.1016     -979.43673      14.97157       14.97157       14.97157       0              0              0            
    939000   308.52087     -1175.6081      228.37779     -947.23033     -1110.4133      15.18411       15.18411       15.18411       0              0              0            
    940000   303.1753      -1194.6809      224.42082     -970.26011     -468.20092      15.365423      15.365423      15.365423      0              0              0            
    941000   310.24661     -1210.9538      229.65525     -981.29853     -628.58635      14.895122      14.895122      14.895122      0              0              0            
    942000   305.84594     -1219.9559      226.39772     -993.55817      415.14921      14.927422      14.927422      14.927422      0              0              0            
    943000   281.401       -1185.6835      208.30273     -977.38082      602.97657      14.824798      14.824798      14.824798      0              0              0            
    944000   304.98113     -1197.9616      225.75755     -972.20402     -3401.8646      15.128207      15.128207      15.128207      0              0              0            
    945000   293.8694      -1197.7449      217.53227     -980.21261     -2896.4821      15.123674      15.123674      15.123674      0              0              0            
    946000   315.94555     -1205.9704      233.8738      -972.09663      1673.7076      14.876485      14.876485      14.876485      0              0              0            
    947000   292.56193     -1194.8131      216.56443     -978.24862     -31.576729      15.133505      15.133505      15.133505      0              0              0            
    948000   291.2843      -1179.1276      215.61869     -963.50894      927.46484      15.050846      15.050846      15.050846      0              0              0            
    949000   298.39721     -1237.8901      220.88391     -1017.0062     -920.98841      15.054817      15.054817      15.054817      0              0              0            
    950000   332.95625     -1213.6268      246.4657      -967.16107     -702.84194      14.978707      14.978707      14.978707      0              0              0            
    951000   293.77352     -1187.5131      217.46129     -970.0518      -33.691797      15.091992      15.091992      15.091992      0              0              0            
    952000   324.5296      -1218.1733      240.228       -977.94528      160.1571       14.722017      14.722017      14.722017      0              0              0            
    953000   307.95044     -1212.1861      227.95554     -984.23054     -868.00304      14.951645      14.951645      14.951645      0              0              0            
    954000   315.08084     -1218.8635      233.23371     -985.62981     -1687.7129      14.942456      14.942456      14.942456      0              0              0            
    955000   288.24986     -1202.2612      213.37249     -988.88872      1125.8167      14.716498      14.716498      14.716498      0              0              0            
    956000   300.12089     -1177.7296      222.15984     -955.56975      1567.1832      14.945776      14.945776      14.945776      0              0              0            
    957000   304.21774     -1237.9823      225.19246     -1012.7899      1314.071       14.65333       14.65333       14.65333       0              0              0            
    958000   293.06711     -1249.5291      216.93838     -1032.5908     -460.3795       14.954741      14.954741      14.954741      0              0              0            
    959000   310.97901     -1214.3         230.19739     -984.10261      67.63434       14.771718      14.771718      14.771718      0              0              0            
    960000   300.99222     -1200.0556      222.80482     -977.25078      1563.1442      14.762043      14.762043      14.762043      0              0              0            
    961000   300.3568      -1232.2394      222.33447     -1009.905      -2125.076       14.798837      14.798837      14.798837      0              0              0            
    962000   302.54187     -1201.1314      223.95193     -977.17943     -5.0774362      15.011212      15.011212      15.011212      0              0              0            
    963000   290.73845     -1207.8964      215.21463     -992.68178      135.16831      14.906595      14.906595      14.906595      0              0              0            
    964000   284.17932     -1197.9888      210.35933     -987.62947     -841.51643      15.03002       15.03002       15.03002       0              0              0            
    965000   310.17744     -1186.9927      229.60404     -957.38861      441.6138       14.981298      14.981298      14.981298      0              0              0            
    966000   310.14285     -1206.3714      229.57844     -976.79299     -727.81816      14.949825      14.949825      14.949825      0              0              0            
    967000   305.57218     -1203.249       226.19507     -977.05389      845.08492      14.848308      14.848308      14.848308      0              0              0            
    968000   317.97449     -1211.3283      235.37569     -975.95266      623.19892      14.960905      14.960905      14.960905      0              0              0            
    969000   304.67699     -1187.028       225.53242     -961.49562     -2095.4496      15.113025      15.113025      15.113025      0              0              0            
    970000   303.19582     -1182.6867      224.43601     -958.25067      2101.1132      15.076676      15.076676      15.076676      0              0              0            
    971000   291.49915     -1215.4781      215.77772     -999.70036     -435.66153      14.897211      14.897211      14.897211      0              0              0            
    972000   316.04095     -1187.5582      233.94442     -953.61375     -81.13144       15.119761      15.119761      15.119761      0              0              0            
    973000   294.10303     -1180.2856      217.70521     -962.58035     -618.44256      14.901118      14.901118      14.901118      0              0              0            
    974000   271.28754     -1193.2119      200.81639     -992.39551     -1899.9407      15.083984      15.083984      15.083984      0              0              0            
    975000   345.69726     -1202.4936      255.89704     -946.59657      1615.2513      15.015666      15.015666      15.015666      0              0              0            
    976000   288.99421     -1213.2206      213.92349     -999.29715      1197.7013      14.726752      14.726752      14.726752      0              0              0            
    977000   297.21582     -1232.4508      220.0094      -1012.4414      3629.9718      14.814861      14.814861      14.814861      0              0              0            
    978000   311.29624     -1210.3659      230.43222     -979.93373      995.45751      14.866648      14.866648      14.866648      0              0              0            
    979000   309.91143     -1198.4038      229.40713     -968.99671      89.422875      15.144423      15.144423      15.144423      0              0              0            
    980000   286.30566     -1210.3211      211.93333     -998.38775     -1256.6427      15.159922      15.159922      15.159922      0              0              0            
    981000   306.68153     -1208.2006      227.01625     -981.18435     -983.61854      15.240846      15.240846      15.240846      0              0              0            
    982000   280.41665     -1161.4234      207.57408     -953.84929      504.91107      15.166366      15.166366      15.166366      0              0              0            
    983000   270.36699     -1190.3936      200.13497     -990.25863     -1093.9793      15.150704      15.150704      15.150704      0              0              0            
    984000   297.12657     -1248.1941      219.94334     -1028.2508     -925.09104      14.845155      14.845155      14.845155      0              0              0            
    985000   302.8698      -1206.1089      224.19467     -981.91425      33.8021        15.026856      15.026856      15.026856      0              0              0            
    986000   324.87257     -1196.2917      240.48189     -955.8098       68.876663      14.921894      14.921894      14.921894      0              0              0            
    987000   306.48494     -1197.2046      226.87073     -970.33382     -144.24904      15.02466       15.02466       15.02466       0              0              0            
    988000   272.83874     -1175.3019      201.96465     -973.33729      131.54245      15.236371      15.236371      15.236371      0              0              0            
    989000   308.60945     -1198.5681      228.44336     -970.12475     -205.11113      15.019823      15.019823      15.019823      0              0              0            
    990000   292.46822     -1208.1186      216.49507     -991.62356      3174.0307      14.925412      14.925412      14.925412      0              0              0            
    991000   286.35228     -1209.5723      211.96783     -997.60448      934.25332      14.638338      14.638338      14.638338      0              0              0            
    992000   299.70116     -1226.1331      221.84914     -1004.2839      2153.5137      14.715696      14.715696      14.715696      0              0              0            
    993000   290.50231     -1225.4166      215.03983     -1010.3768      1515.1144      14.72502       14.72502       14.72502       0              0              0            
    994000   282.75352     -1203.9299      209.30391     -994.62602      240.74628      14.85094       14.85094       14.85094       0              0              0            
    995000   294.59463     -1197.0487      218.0691      -978.97962     -802.23767      15.082773      15.082773      15.082773      0              0              0            
    996000   318.53053     -1239.342       235.78728     -1003.5547     -1986.2456      14.912551      14.912551      14.912551      0              0              0            
    997000   301.64387     -1195.6805      223.2872      -972.39333      59.833545      15.096764      15.096764      15.096764      0              0              0            
    998000   310.43123     -1215.9579      229.79191     -986.16601      350.02051      14.753508      14.753508      14.753508      0              0              0            
    999000   318.77006     -1214.9895      235.96459     -979.02486      399.80339      15.085386      15.085386      15.085386      0              0              0            
   1000000   318.36201     -1224.2401      235.66254     -988.57753      1064.2863      14.640875      14.640875      14.640875      0              0              0            
Loop time of 212.261 on 12 procs for 1000000 steps with 320 atoms

Performance: 814.094 ns/day, 0.029 hours/ns, 4711.190 timesteps/s, 1.508 Matom-step/s
89.1% CPU use with 12 MPI tasks x 1 OpenMP threads

MPI task timing breakdown:
Section |  min time  |  avg time  |  max time  |%varavg| %total
---------------------------------------------------------------
Pair    | 22.729     | 24.628     | 26.01      |  23.1 | 11.60
Bond    | 0.65497    | 0.67582    | 0.71141    |   1.8 |  0.32
Kspace  | 82.22      | 84.046     | 87.541     |  15.7 | 39.60
Neigh   | 4.9077     | 5.0176     | 5.209      |   4.9 |  2.36
Comm    | 24.725     | 26.49      | 28.39      |  20.5 | 12.48
Output  | 12.779     | 13.71      | 16.36      |  24.4 |  6.46
Modify  | 52.033     | 56.16      | 57.918     |  20.0 | 26.46
Other   |            | 1.533      |            |       |  0.72

Nlocal:        26.6667 ave          32 max          21 min
Histogram: 1 1 1 2 1 2 1 0 0 3
Nghost:        841.917 ave         887 max         801 min
Histogram: 1 0 3 1 1 2 1 2 0 1
Neighs:              0 ave           0 max           0 min
Histogram: 12 0 0 0 0 0 0 0 0 0

Total # of neighbors = 0
Ave neighs/atom = 0
Ave special neighs/atom = 1.9875
Neighbor list builds = 74131
Dangerous builds = 5359


Total wall time: 0:03:32
