LAMMPS Description

1800  atoms
1200  bonds
600  angles
0  dihedrals
0  impropers

2  atom types
1  bond types
1  angle types
0  dihedral types
0  improper types

0.0 30 xlo xhi
0.0 30 ylo yhi
0.0 30 zlo zhi

Masses

1 15.9994  # O
2 1.008  # H

Atoms

1 1 1 -0.8476 1.641393 25.686055 4.521359
2 1 2 0.4238 1.297216 26.223520 5.208512
3 1 2 0.4238 1.964062 26.258632 3.762947
4 2 1 -0.8476 1.982895 3.311512 25.977723
5 2 2 0.4238 1.538347 2.956225 25.232302
6 2 2 0.4238 2.420808 4.181824 25.737022
7 3 1 -0.8476 13.002640 4.362617 24.112197
8 3 2 0.4238 13.903682 4.613196 24.042637
9 3 2 0.4238 12.567333 4.845324 24.876821
10 4 1 -0.8476 24.894029 1.449871 2.726003
11 4 2 0.4238 25.223000 1.157279 3.554057
12 4 2 0.4238 23.952870 1.783591 2.825992
13 5 1 -0.8476 20.994715 18.852960 24.841179
14 5 2 0.4238 21.620316 19.061415 25.508018
15 5 2 0.4238 20.526346 19.685582 24.533739
16 6 1 -0.8476 16.664069 7.375775 25.884721
17 6 2 0.4238 16.896828 6.926199 26.674157
18 6 2 0.4238 15.719443 7.709697 25.942400
19 7 1 -0.8476 28.478994 23.524642 16.023037
20 7 2 0.4238 28.739805 22.625764 16.082203
21 7 2 0.4238 27.918752 23.775312 16.817041
22 8 1 -0.8476 9.308283 23.151420 7.157809
23 8 2 0.4238 8.428646 23.460862 7.257756
24 8 2 0.4238 9.525094 23.033389 6.185075
25 9 1 -0.8476 11.889930 21.203925 5.617544
26 9 2 0.4238 12.765632 21.539394 5.628114
27 9 2 0.4238 11.655323 20.878135 4.697778
28 10 1 -0.8476 12.895662 20.446103 11.868848
29 10 2 0.4238 13.424995 20.219456 11.128617
30 10 2 0.4238 12.643262 21.416617 11.829527
31 11 1 -0.8476 22.692147 21.752701 19.693853
32 11 2 0.4238 22.867664 20.927062 19.285174
33 11 2 0.4238 23.168157 22.488754 19.205193
34 12 1 -0.8476 26.826312 8.433070 16.770037
35 12 2 0.4238 27.507163 8.495608 16.128137
36 12 2 0.4238 26.579027 9.347190 17.102275
37 13 1 -0.8476 28.170935 13.412320 26.264802
38 13 2 0.4238 28.492071 14.237016 25.954555
39 13 2 0.4238 28.476390 13.254644 27.207661
40 14 1 -0.8476 24.889863 20.596552 28.313055
41 14 2 0.4238 24.475574 20.218008 27.561674
42 14 2 0.4238 24.288817 21.283494 28.730192
43 15 1 -0.8476 9.052874 20.886607 24.425900
44 15 2 0.4238 8.126542 20.797519 24.541993
45 15 2 0.4238 9.287626 20.819224 23.452504
46 16 1 -0.8476 6.899262 26.601244 23.287049
47 16 2 0.4238 7.818973 26.486625 23.143875
48 16 2 0.4238 6.712462 26.708789 24.267196
49 17 1 -0.8476 16.829647 21.076025 26.697753
50 17 2 0.4238 15.995511 20.749690 26.975651
51 17 2 0.4238 16.737444 21.562698 25.824944
52 18 1 -0.8476 22.410092 28.964347 4.619164
53 18 2 0.4238 22.325849 28.979381 3.685257
54 18 2 0.4238 22.009629 29.794552 5.016074
55 19 1 -0.8476 8.311503 29.446459 23.768969
56 19 2 0.4238 8.486472 28.545312 23.577068
57 19 2 0.4238 7.478989 29.526758 24.323604
58 20 1 -0.8476 18.869474 8.644156 17.618396
59 20 2 0.4238 19.540002 9.115715 17.162842
60 20 2 0.4238 19.022312 8.695675 18.608919
61 21 1 -0.8476 10.187705 8.399657 22.592854
62 21 2 0.4238 10.388958 7.986375 23.410290
63 21 2 0.4238 10.461414 7.808345 21.829584
64 22 1 -0.8476 25.194753 23.015568 20.185816
65 22 2 0.4238 25.274443 23.691564 19.540693
66 22 2 0.4238 26.069272 22.535159 20.293387
67 23 1 -0.8476 1.561549 5.061000 9.662250
68 23 2 0.4238 1.039323 5.820927 9.833412
69 23 2 0.4238 1.257775 4.615977 8.815595
70 24 1 -0.8476 21.832565 12.080244 19.027846
71 24 2 0.4238 21.734162 11.166026 19.212310
72 24 2 0.4238 21.763713 12.613533 19.875201
73 25 1 -0.8476 8.133792 24.091695 27.296632
74 25 2 0.4238 7.373274 24.131867 26.749362
75 25 2 0.4238 7.893382 24.330931 28.241151
76 26 1 -0.8476 23.912263 5.676342 5.687471
77 26 2 0.4238 24.256439 4.940972 5.218132
78 26 2 0.4238 24.221277 5.652982 6.641993
79 27 1 -0.8476 14.555249 17.469626 24.782537
80 27 2 0.4238 14.856984 17.935647 25.538371
81 27 2 0.4238 13.666384 17.829274 24.486358
82 28 1 -0.8476 10.483391 4.303133 14.430312
83 28 2 0.4238 10.273069 5.207849 14.559765
84 28 2 0.4238 10.490507 4.086359 13.450461
85 29 1 -0.8476 23.635014 15.086098 10.513925
86 29 2 0.4238 22.770389 15.417438 10.662728
87 29 2 0.4238 24.098056 14.922140 11.389058
88 30 1 -0.8476 5.404369 22.854972 22.735314
89 30 2 0.4238 5.425072 22.072719 22.218441
90 30 2 0.4238 4.648455 23.445137 22.439598
91 31 1 -0.8476 19.019972 14.291423 27.151378
92 31 2 0.4238 19.510757 15.077238 27.006017
93 31 2 0.4238 18.924593 14.120160 28.135614
94 32 1 -0.8476 28.727419 3.376415 3.271507
95 32 2 0.4238 28.245279 4.175471 3.179020
96 32 2 0.4238 29.588957 3.430963 2.759720
97 33 1 -0.8476 6.539520 5.559170 15.238637
98 33 2 0.4238 6.213355 5.268446 14.408817
99 33 2 0.4238 7.512898 5.792231 15.165394
100 34 1 -0.8476 3.967531 11.254051 18.398241
101 34 2 0.4238 3.477111 10.818520 17.727938
102 34 2 0.4238 4.070971 12.226879 18.174514
103 35 1 -0.8476 20.737870 5.769701 14.552355
104 35 2 0.4238 20.802417 5.847029 13.619960
105 35 2 0.4238 20.180801 4.971153 14.795549
106 36 1 -0.8476 24.370131 8.808486 18.831086
107 36 2 0.4238 25.300041 8.853476 18.943988
108 36 2 0.4238 24.135755 8.085411 18.175817
109 37 1 -0.8476 1.921876 22.700332 1.795403
110 37 2 0.4238 2.245698 22.886259 0.935126
111 37 2 0.4238 0.948955 22.938408 1.857793
112 38 1 -0.8476 28.161371 22.089100 5.115500
113 38 2 0.4238 28.524837 22.845588 4.697024
114 38 2 0.4238 28.839920 21.350267 5.144585
115 39 1 -0.8476 12.290592 7.230806 26.541455
116 39 2 0.4238 12.832341 6.465350 26.531951
117 39 2 0.4238 11.920086 7.381031 27.461948
118 40 1 -0.8476 25.511731 11.719604 26.822627
119 40 2 0.4238 24.938234 12.429009 27.040226
120 40 2 0.4238 25.778440 11.223140 27.653012
121 41 1 -0.8476 26.685124 16.366436 23.767197
122 41 2 0.4238 25.856101 16.598569 24.139139
123 41 2 0.4238 26.744898 16.697264 22.821614
124 42 1 -0.8476 18.544991 27.748841 4.339154
125 42 2 0.4238 18.421029 28.492095 3.780843
126 42 2 0.4238 17.662980 27.439970 4.704947
127 43 1 -0.8476 10.679541 0.015170 25.003155
128 43 2 0.4238 9.742551 -0.000754 24.967099
129 43 2 0.4238 10.991874 0.806171 25.535991
130 44 1 -0.8476 5.706306 12.513838 29.508178
131 44 2 0.4238 5.778944 11.703622 29.974846
132 44 2 0.4238 6.183164 13.243506 30.005512
133 45 1 -0.8476 3.319208 1.817712 8.766145
134 45 2 0.4238 2.461806 1.945041 9.124130
135 45 2 0.4238 3.918496 2.580319 9.023890
136 46 1 -0.8476 26.653153 21.301577 9.212132
137 46 2 0.4238 27.409958 21.408958 9.755474
138 46 2 0.4238 25.864890 21.024006 9.767779
139 47 1 -0.8476 25.608941 16.890890 8.649572
140 47 2 0.4238 24.949665 16.880285 9.316465
141 47 2 0.4238 25.227413 17.244878 7.791506
142 48 1 -0.8476 9.135126 5.277226 9.404579
143 48 2 0.4238 8.524542 5.877586 9.022140
144 48 2 0.4238 9.130924 5.369107 10.403923
145 49 1 -0.8476 12.675398 29.382578 9.622008
146 49 2 0.4238 12.178309 30.000794 10.122225
147 49 2 0.4238 13.319520 29.862464 9.020373
148 50 1 -0.8476 8.705496 29.326964 13.865341
149 50 2 0.4238 8.596702 29.301747 12.934195
150 50 2 0.4238 7.810002 29.349556 14.317810
151 51 1 -0.8476 9.670949 0.382765 12.312535
152 51 2 0.4238 10.223454 1.065077 12.642221
153 51 2 0.4238 8.708747 0.593619 12.504515
154 52 1 -0.8476 20.199949 19.851149 14.212014
155 52 2 0.4238 19.690455 20.638493 14.209013
156 52 2 0.4238 20.235472 19.465570 15.137873
157 53 1 -0.8476 3.311789 2.364853 17.200590
158 53 2 0.4238 2.381048 2.252953 17.227116
159 53 2 0.4238 3.629836 2.393478 16.249183
160 54 1 -0.8476 6.450571 12.417047 1.576853
161 54 2 0.4238 7.256778 12.732261 1.937651
162 54 2 0.4238 6.575965 12.171493 0.611903
163 55 1 -0.8476 11.511035 10.394304 6.605010
164 55 2 0.4238 11.118261 11.074277 7.117719
165 55 2 0.4238 12.426058 10.673972 6.302246
166 56 1 -0.8476 17.218624 27.025330 19.194361
167 56 2 0.4238 18.110372 26.772133 19.052298
168 56 2 0.4238 17.081657 27.286114 20.153725
169 57 1 -0.8476 11.346416 27.386621 8.670549
170 57 2 0.4238 11.080893 27.878353 9.423677
171 57 2 0.4238 11.792144 27.989365 8.003334
172 58 1 -0.8476 23.785908 11.216567 20.720784
173 58 2 0.4238 24.194767 10.752587 21.425811
174 58 2 0.4238 23.804572 10.661834 19.884679
175 59 1 -0.8476 15.991671 12.885521 0.742715
176 59 2 0.4238 15.291747 13.329016 0.303486
177 59 2 0.4238 16.681455 12.584877 0.078666
178 60 1 -0.8476 25.343752 26.489219 6.464928
179 60 2 0.4238 26.053614 26.522933 5.852994
180 60 2 0.4238 24.598959 25.924165 6.100036
181 61 1 -0.8476 10.865693 6.641374 9.242252
182 61 2 0.4238 11.608763 6.213009 9.621534
183 61 2 0.4238 11.000083 6.757371 8.254511
184 62 1 -0.8476 15.780643 8.380803 8.706617
185 62 2 0.4238 14.935264 8.764613 8.574219
186 62 2 0.4238 16.474769 9.098712 8.806329
187 63 1 -0.8476 10.100499 0.852382 16.229637
188 63 2 0.4238 10.457338 -0.000455 16.387243
189 63 2 0.4238 10.709972 1.376867 15.629130
190 64 1 -0.8476 18.598750 14.927490 19.349703
191 64 2 0.4238 19.497490 15.154671 19.491686
192 64 2 0.4238 18.399312 14.902778 18.366462
193 65 1 -0.8476 7.158523 17.800843 0.289706
194 65 2 0.4238 7.809986 17.141691 0.146114
195 65 2 0.4238 6.993260 17.915564 1.272903
196 66 1 -0.8476 26.221247 6.487444 15.643065
197 66 2 0.4238 27.033807 6.031488 15.749626
198 66 2 0.4238 26.005420 6.586545 14.668003
199 67 1 -0.8476 24.586611 1.929841 14.856889
200 67 2 0.4238 24.006584 1.702494 15.557879
201 67 2 0.4238 25.363440 1.295010 14.830917
202 68 1 -0.8476 9.487555 13.657694 24.394352
203 68 2 0.4238 8.959105 14.222482 23.864013
204 68 2 0.4238 9.121687 13.617574 25.327990
205 69 1 -0.8476 9.984515 13.065809 5.137942
206 69 2 0.4238 10.270652 12.955124 6.024158
207 69 2 0.4238 10.758753 12.958732 4.508468
208 70 1 -0.8476 15.336480 3.749703 21.721592
209 70 2 0.4238 15.641378 2.895415 21.483404
210 70 2 0.4238 14.787407 4.140819 20.978158
211 71 1 -0.8476 12.403386 9.455823 16.383326
212 71 2 0.4238 12.465948 10.387884 16.466118
213 71 2 0.4238 13.144661 9.012561 16.894382
214 72 1 -0.8476 28.563465 6.640153 2.984220
215 72 2 0.4238 28.642424 6.968697 2.109390
216 72 2 0.4238 28.752419 7.370245 3.646346
217 73 1 -0.8476 16.363044 4.456346 13.908562
218 73 2 0.4238 15.892983 4.826045 13.186156
219 73 2 0.4238 15.863173 4.615056 14.764183
220 74 1 -0.8476 21.708307 23.164976 26.452400
221 74 2 0.4238 20.973608 23.594445 26.846454
222 74 2 0.4238 21.933119 22.328700 26.959598
223 75 1 -0.8476 4.149577 23.742256 19.232321
224 75 2 0.4238 3.377234 23.260141 19.457168
225 75 2 0.4238 4.790392 23.748858 20.004630
226 76 1 -0.8476 22.367644 7.220222 14.930664
227 76 2 0.4238 22.599925 7.757986 15.663030
228 76 2 0.4238 22.832048 7.544510 14.102222
229 77 1 -0.8476 28.744941 17.678265 25.218822
230 77 2 0.4238 28.046971 18.265983 25.002191
231 77 2 0.4238 28.832316 17.597257 26.215292
232 78 1 -0.8476 2.972602 15.599722 8.184792
233 78 2 0.4238 3.303374 16.334808 7.705476
234 78 2 0.4238 2.521831 15.909758 9.026119
235 79 1 -0.8476 8.939602 12.315351 12.784647
236 79 2 0.4238 8.441001 11.963578 12.072497
237 79 2 0.4238 8.629054 11.919741 13.653094
238 80 1 -0.8476 23.746248 25.088127 3.803542
239 80 2 0.4238 23.675325 25.996273 4.026577
240 80 2 0.4238 24.601642 24.919734 3.306458
241 81 1 -0.8476 14.204374 30.089316 21.629412
242 81 2 0.4238 14.642916 30.030731 20.802519
243 81 2 0.4238 14.779328 29.700523 22.354269
244 82 1 -0.8476 16.343787 10.361180 17.516101
245 82 2 0.4238 17.261739 10.170801 17.541106
246 82 2 0.4238 15.851564 9.629241 17.037427
247 83 1 -0.8476 3.439008 17.180186 28.453288
248 83 2 0.4238 3.866261 17.549829 29.201836
249 83 2 0.4238 3.328387 17.876515 27.739118
250 84 1 -0.8476 26.118012 19.806854 12.378532
251 84 2 0.4238 26.005812 20.731199 12.490351
252 84 2 0.4238 26.140043 19.576647 11.401973
253 85 1 -0.8476 12.306126 6.276273 20.320023
254 85 2 0.4238 11.504759 6.740815 20.173336
255 85 2 0.4238 12.875022 6.298240 19.493572
256 86 1 -0.8476 7.090399 11.438758 16.452006
257 86 2 0.4238 7.458992 10.591865 16.289476
258 86 2 0.4238 6.904923 11.907671 15.584327
259 87 1 -0.8476 17.300114 26.808005 27.805244
260 87 2 0.4238 17.878816 26.146326 28.132031
261 87 2 0.4238 16.440774 26.802773 28.323564
262 88 1 -0.8476 15.326935 14.244675 11.261952
263 88 2 0.4238 15.338826 13.691332 10.504869
264 88 2 0.4238 14.995964 13.732984 12.059309
265 89 1 -0.8476 15.459659 11.070030 28.676095
266 89 2 0.4238 14.662321 10.840057 29.112982
267 89 2 0.4238 16.040338 11.619730 29.282552
268 90 1 -0.8476 27.703762 1.146847 7.309367
269 90 2 0.4238 27.692034 0.323650 6.860242
270 90 2 0.4238 27.368787 1.875158 6.705627
271 91 1 -0.8476 17.422501 4.556638 7.006745
272 91 2 0.4238 16.900402 4.817590 7.740789
273 91 2 0.4238 16.842139 4.148315 6.297096
274 92 1 -0.8476 21.900799 18.201190 10.643615
275 92 2 0.4238 22.732677 18.211549 11.076486
276 92 2 0.4238 22.020666 18.359657 9.659913
277 93 1 -0.8476 5.864044 5.355598 20.234305
278 93 2 0.4238 6.767618 5.214411 20.441967
279 93 2 0.4238 5.305726 4.600221 20.587624
280 94 1 -0.8476 3.956574 29.650883 23.155679
281 94 2 0.4238 3.719726 28.829826 22.769320
282 94 2 0.4238 3.755920 29.641255 24.138936
283 95 1 -0.8476 15.793704 20.410153 19.622457
284 95 2 0.4238 16.072924 19.970020 18.842826
285 95 2 0.4238 15.924139 21.400544 19.526228
286 96 1 -0.8476 1.872325 5.533297 12.927625
287 96 2 0.4238 1.922856 6.329761 13.420167
288 96 2 0.4238 0.928403 5.192653 12.916555
289 97 1 -0.8476 28.317546 11.585237 12.038094
290 97 2 0.4238 27.630730 11.055970 11.680792
291 97 2 0.4238 29.086825 11.633845 11.395447
292 98 1 -0.8476 7.133360 20.552300 12.467714
293 98 2 0.4238 6.346297 20.044470 12.514039
294 98 2 0.4238 7.018613 21.414693 12.967973
295 99 1 -0.8476 22.017654 8.016947 11.458485
296 99 2 0.4238 22.953852 7.971579 11.427192
297 99 2 0.4238 21.727417 8.756645 12.071475
298 100 1 -0.8476 4.838557 12.424093 12.456173
299 100 2 0.4238 4.418936 13.074245 12.986010
300 100 2 0.4238 5.065238 12.805073 11.555830
301 101 1 -0.8476 12.159456 21.078420 8.841299
302 101 2 0.4238 12.609849 21.575685 9.496569
303 101 2 0.4238 11.924166 20.170057 9.197198
304 102 1 -0.8476 5.246372 25.799383 5.586719
305 102 2 0.4238 4.406044 25.650940 5.197721
306 102 2 0.4238 5.261074 25.443378 6.524905
307 103 1 -0.8476 1.340979 6.957138 27.092307
308 103 2 0.4238 0.712565 7.643795 26.977836
309 103 2 0.4238 1.427057 6.725547 28.064986
310 104 1 -0.8476 6.977728 21.757231 26.801973
311 104 2 0.4238 7.915481 21.759178 26.812885
312 104 2 0.4238 6.629821 20.872644 27.123866
313 105 1 -0.8476 1.257489 3.815303 28.105600
314 105 2 0.4238 1.894741 4.044882 28.754220
315 105 2 0.4238 0.411006 4.333697 28.253529
316 106 1 -0.8476 6.011263 23.995804 12.800741
317 106 2 0.4238 5.138294 24.264044 13.013996
318 106 2 0.4238 6.451261 24.682806 12.216294
319 107 1 -0.8476 20.692441 23.490604 0.977400
320 107 2 0.4238 20.274646 22.796520 0.504960
321 107 2 0.4238 21.597524 23.679044 0.586934
322 108 1 -0.8476 8.743768 8.530879 7.689751
323 108 2 0.4238 9.427562 9.116099 7.426218
324 108 2 0.4238 9.058487 7.580064 7.626105
325 109 1 -0.8476 19.549710 3.594884 13.192080
326 109 2 0.4238 20.185918 2.910359 13.270624
327 109 2 0.4238 18.702275 3.235395 12.792366
328 110 1 -0.8476 -0.002456 3.174095 11.159531
329 110 2 0.4238 0.748880 3.732126 11.219537
330 110 2 0.4238 0.279212 2.237691 10.933791
331 111 1 -0.8476 22.056520 14.476108 6.488766
332 111 2 0.4238 21.167980 14.407738 6.780872
333 111 2 0.4238 22.120673 14.234988 5.516709
334 112 1 -0.8476 23.176725 -0.004568 4.945006
335 112 2 0.4238 22.879011 0.052545 4.057533
336 112 2 0.4238 23.606135 0.859118 5.222138
337 113 1 -0.8476 28.433288 10.135887 19.057660
338 113 2 0.4238 28.505925 10.696101 19.806251
339 113 2 0.4238 27.722394 9.444273 19.210786
340 114 1 -0.8476 11.185118 20.370914 13.723464
341 114 2 0.4238 10.904042 20.743423 14.536937
342 114 2 0.4238 10.931893 19.400731 13.681381
343 115 1 -0.8476 2.922394 1.403929 27.512050
344 115 2 0.4238 3.641294 0.802899 27.550138
345 115 2 0.4238 2.205411 1.127071 28.157366
346 116 1 -0.8476 24.988478 3.244813 25.724444
347 116 2 0.4238 25.271372 2.357022 25.830762
348 116 2 0.4238 25.216835 3.780899 26.541520
349 117 1 -0.8476 21.881639 25.965386 8.117439
350 117 2 0.4238 21.100126 25.565880 7.787081
351 117 2 0.4238 22.406083 26.373494 7.365406
352 118 1 -0.8476 25.558519 25.542108 27.972940
353 118 2 0.4238 25.715104 26.230722 28.590027
354 118 2 0.4238 25.216579 25.922455 27.109481
355 119 1 -0.8476 23.237395 24.627168 10.388208
356 119 2 0.4238 23.162878 24.436666 11.303447
357 119 2 0.4238 23.254351 23.775397 9.857788
358 120 1 -0.8476 20.667757 23.014673 19.284774
359 120 2 0.4238 20.449277 22.465129 20.012629
360 120 2 0.4238 21.028833 23.892641 19.610263
361 121 1 -0.8476 1.775350 4.666453 19.448636
362 121 2 0.4238 0.878917 4.573561 19.189246
363 121 2 0.4238 2.285950 5.177368 18.751929
364 122 1 -0.8476 16.834431 14.470595 16.250096
365 122 2 0.4238 17.767074 14.394018 16.311876
366 122 2 0.4238 16.531238 15.338937 16.651600
367 123 1 -0.8476 21.260430 13.429138 13.962693
368 123 2 0.4238 21.286896 14.366167 13.990626
369 123 2 0.4238 20.339872 13.102028 14.192301
370 124 1 -0.8476 28.559562 3.364506 13.418550
371 124 2 0.4238 28.857437 4.161106 13.023324
372 124 2 0.4238 28.314321 3.525099 14.378349
373 125 1 -0.8476 29.230973 20.706309 7.213968
374 125 2 0.4238 29.996081 21.229628 7.071660
375 125 2 0.4238 29.263502 20.286463 8.124913
376 126 1 -0.8476 7.621464 18.810036 4.804351
377 126 2 0.4238 7.689300 17.893240 4.618913
378 126 2 0.4238 8.479169 19.147027 5.201752
379 127 1 -0.8476 27.895785 0.141990 12.424276
380 127 2 0.4238 27.028568 0.467341 12.571196
381 127 2 0.4238 28.113365 0.166946 11.444896
382 128 1 -0.8476 16.389958 24.713964 24.200458
383 128 2 0.4238 16.680858 25.467254 24.677361
384 128 2 0.4238 15.756039 24.988829 23.472623
385 129 1 -0.8476 26.346338 9.218383 1.734615
386 129 2 0.4238 26.282851 8.478485 1.161881
387 129 2 0.4238 26.093455 10.057324 1.245354
388 130 1 -0.8476 17.512320 27.944204 25.937340
389 130 2 0.4238 16.735725 28.296823 26.327293
390 130 2 0.4238 17.438338 27.967623 24.936777
391 131 1 -0.8476 21.454147 22.470466 11.177277
392 131 2 0.4238 20.893594 23.055423 10.704930
393 131 2 0.4238 21.303607 22.568790 12.164605
394 132 1 -0.8476 4.784376 1.009367 19.359824
395 132 2 0.4238 5.679882 0.837742 19.140464
396 132 2 0.4238 4.174298 0.534040 18.720279
397 133 1 -0.8476 4.880285 8.421662 14.881783
398 133 2 0.4238 4.135965 8.406044 15.452088
399 133 2 0.4238 4.603353 8.703037 13.959132
400 134 1 -0.8476 6.463173 3.818347 12.772658
401 134 2 0.4238 7.233672 4.345983 12.686427
402 134 2 0.4238 6.540490 3.221790 13.575957
403 135 1 -0.8476 16.187124 6.058524 22.299597
404 135 2 0.4238 16.631495 5.308878 22.646109
405 135 2 0.4238 16.823924 6.829493 22.214512
406 136 1 -0.8476 26.622146 29.438925 6.642567
407 136 2 0.4238 25.687420 29.514069 6.654601
408 136 2 0.4238 26.898526 28.514697 6.919272
409 137 1 -0.8476 2.981078 25.688377 1.792652
410 137 2 0.4238 2.085153 25.815203 1.546200
411 137 2 0.4238 3.516106 25.375679 1.003277
412 138 1 -0.8476 13.466135 18.255482 13.877890
413 138 2 0.4238 14.211903 18.033465 13.354398
414 138 2 0.4238 13.176995 19.197221 13.686383
415 139 1 -0.8476 1.287943 17.763426 5.708587
416 139 2 0.4238 1.333362 18.685585 5.544074
417 139 2 0.4238 1.302783 17.587076 6.696427
418 140 1 -0.8476 19.006302 20.534099 5.992918
419 140 2 0.4238 18.625734 19.685436 6.113103
420 140 2 0.4238 19.145084 20.715800 5.015743
421 141 1 -0.8476 18.151455 16.850849 27.726419
422 141 2 0.4238 18.356776 17.722857 27.449021
423 141 2 0.4238 18.712355 16.599014 28.519589
424 142 1 -0.8476 6.008154 7.142712 10.208301
425 142 2 0.4238 6.393098 6.417137 9.755682
426 142 2 0.4238 6.600724 7.949417 10.135924
427 143 1 -0.8476 10.942311 14.580037 27.648589
428 143 2 0.4238 10.302088 14.543322 26.964286
429 143 2 0.4238 11.303695 15.512319 27.734611
430 144 1 -0.8476 12.419866 22.953056 23.875341
431 144 2 0.4238 12.333868 23.608814 24.540240
432 144 2 0.4238 12.908097 23.326602 23.082094
433 145 1 -0.8476 4.394527 1.628676 0.129048
434 145 2 0.4238 5.080738 1.003248 -0.003086
435 145 2 0.4238 4.076380 1.597412 1.080338
436 146 1 -0.8476 6.238550 2.710027 17.114364
437 146 2 0.4238 5.535221 2.702261 17.734665
438 146 2 0.4238 6.426213 3.649609 16.815840
439 147 1 -0.8476 25.903908 17.957390 19.447985
440 147 2 0.4238 26.476607 18.314542 18.796860
441 147 2 0.4238 25.809171 16.966600 19.319502
442 148 1 -0.8476 18.900133 27.689778 29.590786
443 148 2 0.4238 18.988275 28.562003 29.923893
444 148 2 0.4238 18.119798 27.231117 30.024208
445 149 1 -0.8476 9.563816 0.756495 20.192430
446 149 2 0.4238 9.975897 -0.003189 20.556536
447 149 2 0.4238 9.600655 0.723170 19.190092
448 150 1 -0.8476 5.115036 4.844795 23.519517
449 150 2 0.4238 5.559543 5.189691 22.769207
450 150 2 0.4238 5.714693 4.211620 24.016156
451 151 1 -0.8476 11.033792 29.162829 13.367062
452 151 2 0.4238 11.446248 30.002514 13.301383
453 151 2 0.4238 11.558945 28.566404 13.979957
454 152 1 -0.8476 6.186641 7.022399 13.079921
455 152 2 0.4238 6.770567 7.122389 12.352915
456 152 2 0.4238 6.593680 7.417986 13.907556
457 153 1 -0.8476 8.846639 9.496075 0.482612
458 153 2 0.4238 8.834423 8.639131 0.101820
459 153 2 0.4238 9.327826 9.476594 1.363083
460 154 1 -0.8476 24.066750 17.429207 14.276958
461 154 2 0.4238 24.505529 17.030846 13.550125
462 154 2 0.4238 23.436649 18.140117 13.953343
463 155 1 -0.8476 16.945884 27.907826 6.796348
464 155 2 0.4238 16.754280 26.990831 6.752604
465 155 2 0.4238 16.495656 28.317672 7.594139
466 156 1 -0.8476 24.519295 13.985093 19.233965
467 156 2 0.4238 23.719601 13.610476 18.918280
468 156 2 0.4238 25.043196 14.374974 18.471949
469 157 1 -0.8476 24.916077 4.093559 21.240431
470 157 2 0.4238 24.225532 4.275129 21.848447
471 157 2 0.4238 24.537769 3.934728 20.324568
472 158 1 -0.8476 23.925477 5.274621 18.291590
473 158 2 0.4238 24.673962 5.678567 17.896491
474 158 2 0.4238 23.743915 5.685556 19.188984
475 159 1 -0.8476 11.665961 1.624250 18.934431
476 159 2 0.4238 11.746058 1.010472 19.638964
477 159 2 0.4238 12.192986 1.310072 18.140274
478 160 1 -0.8476 2.533105 25.282459 20.950010
479 160 2 0.4238 3.072937 26.012784 21.183916
480 160 2 0.4238 2.472164 25.203053 19.951446
481 161 1 -0.8476 1.089017 10.406223 27.113535
482 161 2 0.4238 1.981142 10.263291 27.364910
483 161 2 0.4238 0.865571 11.382902 27.171139
484 162 1 -0.8476 6.180755 29.657692 29.159403
485 162 2 0.4238 5.777624 29.750767 30.001025
486 162 2 0.4238 5.518527 29.863365 28.433937
487 163 1 -0.8476 4.412627 12.790749 6.114164
488 163 2 0.4238 4.755748 11.932959 5.953015
489 163 2 0.4238 4.412487 12.983935 7.098962
490 164 1 -0.8476 27.089839 9.216453 13.433204
491 164 2 0.4238 27.923404 9.296488 13.855423
492 164 2 0.4238 27.212998 8.968255 12.468643
493 165 1 -0.8476 16.409147 7.566083 14.331208
494 165 2 0.4238 16.607453 6.660281 14.190847
495 165 2 0.4238 16.401500 7.770361 15.313736
496 166 1 -0.8476 18.143238 2.490495 14.916350
497 166 2 0.4238 17.867225 1.919830 15.607482
498 166 2 0.4238 18.638695 3.277152 15.294294
499 167 1 -0.8476 13.006991 26.549349 6.506721
500 167 2 0.4238 13.931363 26.608607 6.653457
501 167 2 0.4238 12.810593 26.573846 5.522864
502 168 1 -0.8476 3.086894 19.577048 22.936531
503 168 2 0.4238 2.214095 19.451392 22.617255
504 168 2 0.4238 3.171296 19.209685 23.866622
505 169 1 -0.8476 14.237687 27.603318 21.991050
506 169 2 0.4238 15.170375 27.522286 22.046114
507 169 2 0.4238 13.964078 27.818525 21.049789
508 170 1 -0.8476 20.742945 20.482282 27.013569
509 170 2 0.4238 20.067230 21.130763 26.964713
510 170 2 0.4238 20.587479 19.879236 27.800534
511 171 1 -0.8476 10.134098 0.311583 27.684490
512 171 2 0.4238 9.201463 0.409131 27.671016
513 171 2 0.4238 10.464038 0.270693 28.631388
514 172 1 -0.8476 19.092809 21.240936 11.006193
515 172 2 0.4238 19.954138 20.872419 10.963608
516 172 2 0.4238 18.979565 21.938985 10.294117
517 173 1 -0.8476 0.795750 15.476433 12.017161
518 173 2 0.4238 -0.005928 15.805392 11.658550
519 173 2 0.4238 0.802232 15.592561 13.013966
520 174 1 -0.8476 10.836040 4.709013 19.380760
521 174 2 0.4238 10.101454 5.214813 19.090839
522 174 2 0.4238 10.833639 4.637836 20.381798
523 175 1 -0.8476 7.781761 25.833611 20.498485
524 175 2 0.4238 7.754189 26.667723 20.926273
525 175 2 0.4238 8.343052 25.191742 21.027733
526 176 1 -0.8476 7.011040 18.791959 19.846623
527 176 2 0.4238 6.148148 18.524538 20.098432
528 176 2 0.4238 7.580327 18.934834 20.660655
529 177 1 -0.8476 27.851516 13.265994 13.743821
530 177 2 0.4238 26.928882 13.185601 13.596213
531 177 2 0.4238 28.081246 12.961231 14.671987
532 178 1 -0.8476 14.109995 7.847173 10.480902
533 178 2 0.4238 13.489974 7.409220 9.930197
534 178 2 0.4238 13.652888 8.206724 11.298780
535 179 1 -0.8476 6.712734 -0.005459 20.890525
536 179 2 0.4238 6.103359 0.011567 21.603180
537 179 2 0.4238 7.528497 0.532174 21.119936
538 180 1 -0.8476 25.331675 21.844701 14.935230
539 180 2 0.4238 26.102047 21.311120 14.898834
540 180 2 0.4238 25.086632 22.161755 14.015133
541 181 1 -0.8476 25.514203 7.499571 22.513463
542 181 2 0.4238 26.413305 7.607411 22.757373
543 181 2 0.4238 24.914730 7.849054 23.238474
544 182 1 -0.8476 22.305392 11.046347 15.403943
545 182 2 0.4238 22.349824 11.451728 14.559433
546 182 2 0.4238 21.902579 11.679085 16.070676
547 183 1 -0.8476 28.373800 23.084133 19.888974
548 183 2 0.4238 29.232420 22.708655 19.853012
549 183 2 0.4238 27.966800 23.105391 18.971888
550 184 1 -0.8476 2.361264 10.018829 2.921546
551 184 2 0.4238 2.494104 10.281578 3.811951
552 184 2 0.4238 1.603875 10.538210 2.516881
553 185 1 -0.8476 20.428904 9.753438 20.908699
554 185 2 0.4238 19.937578 9.077288 21.334051
555 185 2 0.4238 21.411467 9.612057 21.056113
556 186 1 -0.8476 8.137242 14.458485 16.984515
557 186 2 0.4238 7.448057 15.030832 16.707121
558 186 2 0.4238 8.152358 14.395158 17.985969
559 187 1 -0.8476 1.155035 17.406366 0.500696
560 187 2 0.4238 2.051702 17.678744 0.536785
561 187 2 0.4238 1.088287 16.487665 0.102348
562 188 1 -0.8476 4.249516 26.015172 28.932194
563 188 2 0.4238 4.014112 26.030831 28.024535
564 188 2 0.4238 3.502731 25.623907 29.476594
565 189 1 -0.8476 26.921365 26.658749 1.117010
566 189 2 0.4238 26.908513 27.579998 1.292054
567 189 2 0.4238 26.908749 26.494475 0.127059
568 190 1 -0.8476 3.909812 8.564775 3.968466
569 190 2 0.4238 4.477912 7.831996 3.827748
570 190 2 0.4238 3.561881 8.557056 4.909759
571 191 1 -0.8476 13.955997 1.342028 19.885381
572 191 2 0.4238 14.288147 0.646216 20.419260
573 191 2 0.4238 14.342522 1.283648 18.961077
574 192 1 -0.8476 2.893845 8.258275 18.926049
575 192 2 0.4238 2.537398 7.926492 18.124568
576 192 2 0.4238 2.592826 7.693039 19.698735
577 193 1 -0.8476 1.487558 24.916961 28.681888
578 193 2 0.4238 0.915733 25.642752 28.842350
579 193 2 0.4238 1.586519 24.766146 27.694665
580 194 1 -0.8476 25.171838 8.038243 12.575286
581 194 2 0.4238 24.747209 7.235193 12.808323
582 194 2 0.4238 25.145583 8.167459 11.580418
583 195 1 -0.8476 7.702784 2.735392 9.925082
584 195 2 0.4238 8.111124 3.265501 9.268007
585 195 2 0.4238 8.195144 2.822599 10.795211
586 196 1 -0.8476 11.935458 10.710996 20.064013
587 196 2 0.4238 11.099691 10.837221 20.470295
588 196 2 0.4238 12.141325 9.731321 19.993264
589 197 1 -0.8476 13.881066 19.858463 21.301289
590 197 2 0.4238 14.797342 19.751113 21.469870
591 197 2 0.4238 13.721418 19.972711 20.317110
592 198 1 -0.8476 4.778752 7.636771 21.298532
593 198 2 0.4238 5.702303 7.490640 21.370673
594 198 2 0.4238 4.580036 8.204713 20.495349
595 199 1 -0.8476 4.153874 25.290681 10.997514
596 199 2 0.4238 4.119807 24.355797 11.063351
597 199 2 0.4238 3.977930 25.577571 10.052059
598 200 1 -0.8476 20.824766 24.250762 14.689722
599 200 2 0.4238 20.441335 23.403168 14.808333
600 200 2 0.4238 20.939388 24.444862 13.711798
601 201 1 -0.8476 3.385037 14.554765 20.011042
602 201 2 0.4238 3.144449 14.692443 19.115126
603 201 2 0.4238 3.395319 13.573159 20.219589
604 202 1 -0.8476 9.849922 22.265471 9.457236
605 202 2 0.4238 9.515916 23.140606 9.502874
606 202 2 0.4238 10.574087 22.135509 10.139763
607 203 1 -0.8476 8.241923 8.512116 14.899391
608 203 2 0.4238 8.655583 8.079289 15.621230
609 203 2 0.4238 8.891019 8.617875 14.141342
610 204 1 -0.8476 22.150398 0.383038 23.165732
611 204 2 0.4238 23.045276 0.208251 23.385160
612 204 2 0.4238 22.010644 0.282619 22.177029
613 205 1 -0.8476 0.249170 25.705361 26.143582
614 205 2 0.4238 0.211314 25.741776 25.207235
615 205 2 0.4238 0.712739 26.519642 26.503024
616 206 1 -0.8476 6.216237 9.284308 4.294269
617 206 2 0.4238 6.050795 10.205609 4.352043
618 206 2 0.4238 6.291745 9.005969 3.333033
619 207 1 -0.8476 15.401583 15.577191 1.155777
620 207 2 0.4238 16.018408 16.193221 1.501521
621 207 2 0.4238 15.094704 14.952154 1.878482
622 208 1 -0.8476 20.942612 7.652476 19.849599
623 208 2 0.4238 21.140068 6.845053 20.283862
624 208 2 0.4238 20.941187 7.519013 18.854946
625 209 1 -0.8476 19.568572 1.676911 11.377254
626 209 2 0.4238 19.744875 0.760362 11.468683
627 209 2 0.4238 19.873005 1.999679 10.477093
628 210 1 -0.8476 23.781807 15.614769 7.437084
629 210 2 0.4238 24.418903 14.929018 7.495040
630 210 2 0.4238 23.335145 15.748057 8.325834
631 211 1 -0.8476 16.750439 23.799877 15.924762
632 211 2 0.4238 17.574796 23.424057 15.682482
633 211 2 0.4238 16.826174 24.799514 15.971028
634 212 1 -0.8476 24.325009 4.719936 15.695079
635 212 2 0.4238 23.860496 5.528683 15.596794
636 212 2 0.4238 24.938750 4.576351 14.914148
637 213 1 -0.8476 6.005281 11.237883 27.450281
638 213 2 0.4238 5.165715 11.654631 27.419375
639 213 2 0.4238 6.004947 10.509884 28.141052
640 214 1 -0.8476 12.478070 25.802663 26.625534
641 214 2 0.4238 12.218962 24.938849 26.368253
642 214 2 0.4238 11.964607 26.090170 27.438457
643 215 1 -0.8476 12.574118 29.716561 29.594372
644 215 2 0.4238 12.450965 29.440600 28.706575
645 215 2 0.4238 13.355786 29.235972 30.000793
646 216 1 -0.8476 11.518491 6.450936 17.491452
647 216 2 0.4238 11.212590 7.280537 17.804009
648 216 2 0.4238 11.989923 6.564687 16.612839
649 217 1 -0.8476 11.454042 12.022444 29.922384
650 217 2 0.4238 12.223501 11.938805 29.392817
651 217 2 0.4238 11.085806 12.953430 29.852988
652 218 1 -0.8476 12.637400 10.283310 9.644909
653 218 2 0.4238 13.266520 10.958428 9.812029
654 218 2 0.4238 12.499502 10.175841 8.656687
655 219 1 -0.8476 15.175004 15.686330 4.008714
656 219 2 0.4238 15.752135 16.309527 4.406270
657 219 2 0.4238 15.025363 14.909975 4.626799
658 220 1 -0.8476 17.241849 10.797337 11.155258
659 220 2 0.4238 16.524473 10.219871 10.978033
660 220 2 0.4238 18.014113 10.282635 11.537146
661 221 1 -0.8476 26.442960 26.171483 15.838407
662 221 2 0.4238 27.370130 26.059247 15.923634
663 221 2 0.4238 26.217316 26.498548 14.916852
664 222 1 -0.8476 18.351146 2.060029 27.680611
665 222 2 0.4238 17.864785 2.860996 27.718171
666 222 2 0.4238 18.060413 1.443851 28.417461
667 223 1 -0.8476 22.527748 22.649697 23.833812
668 223 2 0.4238 23.084576 22.075050 23.344702
669 223 2 0.4238 21.823990 23.041765 23.235351
670 224 1 -0.8476 11.501387 7.790029 14.831457
671 224 2 0.4238 10.673850 7.392295 15.022496
672 224 2 0.4238 11.504452 8.149350 13.894426
673 225 1 -0.8476 13.793369 16.660783 11.679326
674 225 2 0.4238 13.514741 15.796893 11.915048
675 225 2 0.4238 13.760454 16.775075 10.682831
676 226 1 -0.8476 5.708997 28.130353 8.862149
677 226 2 0.4238 5.693288 28.973150 8.451112
678 226 2 0.4238 5.482385 28.216115 9.836028
679 227 1 -0.8476 24.249117 13.101555 24.900744
680 227 2 0.4238 23.918887 12.933707 24.039187
681 227 2 0.4238 23.489233 13.228077 25.543952
682 228 1 -0.8476 10.389213 28.481190 29.809881
683 228 2 0.4238 10.293497 29.412647 29.862151
684 228 2 0.4238 10.327534 28.180126 28.854526
685 229 1 -0.8476 18.786504 22.590371 2.317102
686 229 2 0.4238 18.898118 21.674288 2.483951
687 229 2 0.4238 18.592489 23.076834 3.173175
688 230 1 -0.8476 27.329480 5.391048 5.818859
689 230 2 0.4238 26.745197 6.044824 5.486150
690 230 2 0.4238 26.866723 4.835286 6.514654
691 231 1 -0.8476 24.309149 10.325771 11.266577
692 231 2 0.4238 25.204226 10.588330 11.363556
693 231 2 0.4238 23.871480 10.249662 12.166467
694 232 1 -0.8476 23.229177 9.673915 0.053143
695 232 2 0.4238 24.115813 9.368433 0.061026
696 232 2 0.4238 22.901345 9.808763 0.992020
697 233 1 -0.8476 22.963547 18.373235 27.132466
698 233 2 0.4238 22.879034 18.715265 28.001591
699 233 2 0.4238 22.363653 17.577474 27.013974
700 234 1 -0.8476 6.674064 2.912676 21.118843
701 234 2 0.4238 6.008630 2.401749 21.537956
702 234 2 0.4238 7.572028 2.703130 21.514947
703 235 1 -0.8476 20.448380 1.208219 7.600004
704 235 2 0.4238 19.788488 1.788170 7.271820
705 235 2 0.4238 20.734209 1.493821 8.518634
706 236 1 -0.8476 6.483656 1.544112 24.360275
707 236 2 0.4238 7.319794 1.948846 24.231556
708 236 2 0.4238 6.184550 1.091805 23.515822
709 237 1 -0.8476 17.812678 29.737505 20.193832
710 237 2 0.4238 16.942215 29.890077 20.507714
711 237 2 0.4238 18.474889 29.857385 20.938313
712 238 1 -0.8476 12.941622 7.656418 23.833740
713 238 2 0.4238 12.387188 7.017230 23.429330
714 238 2 0.4238 12.400618 8.256961 24.428560
715 239 1 -0.8476 18.713418 4.641702 1.836669
716 239 2 0.4238 18.909850 4.144025 2.606888
717 239 2 0.4238 18.306571 4.049160 1.136300
718 240 1 -0.8476 9.657243 11.714194 16.981097
719 240 2 0.4238 9.222922 12.312289 16.403904
720 240 2 0.4238 10.605559 11.573831 16.684207
721 241 1 -0.8476 27.969633 22.146798 26.736189
722 241 2 0.4238 28.293723 22.736205 27.389695
723 241 2 0.4238 28.620127 22.082985 25.974655
724 242 1 -0.8476 3.545476 5.573996 15.982326
725 242 2 0.4238 3.955003 4.747995 16.154126
726 242 2 0.4238 3.598134 5.789337 15.003549
727 243 1 -0.8476 26.854105 5.618465 21.003292
728 243 2 0.4238 26.641814 5.815794 20.111385
729 243 2 0.4238 27.070138 4.643197 21.099882
730 244 1 -0.8476 28.685469 26.839743 3.129617
731 244 2 0.4238 29.455888 27.193143 2.728285
732 244 2 0.4238 28.757261 26.899839 4.128808
733 245 1 -0.8476 3.866818 19.101931 1.737407
734 245 2 0.4238 3.166720 19.725775 1.723715
735 245 2 0.4238 4.049701 18.766701 0.809332
736 246 1 -0.8476 6.898355 14.286465 26.182729
737 246 2 0.4238 5.982354 14.424619 26.036574
738 246 2 0.4238 7.050155 13.919376 27.104331
739 247 1 -0.8476 9.288717 23.462542 0.118540
740 247 2 0.4238 8.540579 23.803787 0.569479
741 247 2 0.4238 9.376824 22.477739 0.290438
742 248 1 -0.8476 3.510456 18.803285 4.335642
743 248 2 0.4238 2.911482 18.127271 4.083174
744 248 2 0.4238 4.455443 18.505682 4.175706
745 249 1 -0.8476 24.587373 9.501115 14.904020
746 249 2 0.4238 23.751319 9.615246 14.494762
747 249 2 0.4238 24.902904 8.555468 14.788522
748 250 1 -0.8476 11.187598 2.967243 25.144821
749 250 2 0.4238 12.081693 2.701387 25.241872
750 250 2 0.4238 10.953531 3.045387 24.172065
751 251 1 -0.8476 1.869452 0.421032 15.637308
752 251 2 0.4238 1.106129 0.123344 15.180992
753 251 2 0.4238 2.565942 0.727805 14.983136
754 252 1 -0.8476 9.809821 26.016391 26.412300
755 252 2 0.4238 9.291742 25.812172 25.657718
756 252 2 0.4238 10.248161 26.912023 26.298940
757 253 1 -0.8476 24.010207 27.141860 9.145947
758 253 2 0.4238 24.577634 27.176879 9.891806
759 253 2 0.4238 24.293889 26.402208 8.529841
760 254 1 -0.8476 6.454387 16.057334 3.759054
761 254 2 0.4238 6.159280 16.561203 3.025207
762 254 2 0.4238 7.091448 15.343923 3.455168
763 255 1 -0.8476 8.051851 5.494702 25.154568
764 255 2 0.4238 8.285457 4.694516 24.724876
765 255 2 0.4238 7.377830 5.997533 24.606840
766 256 1 -0.8476 10.334983 8.151125 4.696959
767 256 2 0.4238 10.659830 8.731989 4.036219
768 256 2 0.4238 10.522580 8.525211 5.609108
769 257 1 -0.8476 7.006186 26.183541 8.239390
770 257 2 0.4238 7.580255 25.510618 7.927741
771 257 2 0.4238 7.240842 26.428463 9.183900
772 258 1 -0.8476 29.360476 14.845556 14.372729
773 258 2 0.4238 28.901087 15.232432 13.652455
774 258 2 0.4238 28.897470 15.064080 15.235875
775 259 1 -0.8476 3.833681 14.902824 1.049282
776 259 2 0.4238 4.670218 14.526767 1.244964
777 259 2 0.4238 3.747227 15.059459 0.061790
778 260 1 -0.8476 21.245531 27.322237 19.171096
779 260 2 0.4238 20.425576 26.880117 19.279300
780 260 2 0.4238 21.935282 26.688666 18.810569
781 261 1 -0.8476 12.871884 6.024774 13.807944
782 261 2 0.4238 13.574752 5.970268 13.189470
783 261 2 0.4238 12.569748 5.104432 14.070304
784 262 1 -0.8476 3.602881 26.233206 25.225400
785 262 2 0.4238 4.257830 25.623030 25.505100
786 262 2 0.4238 3.307076 26.801526 25.997838
787 263 1 -0.8476 10.747467 28.234952 21.741248
788 263 2 0.4238 11.650702 28.320109 21.503719
789 263 2 0.4238 10.659617 28.129591 22.735396
790 264 1 -0.8476 6.372644 1.065995 7.616123
791 264 2 0.4238 6.514842 0.635552 6.795146
792 264 2 0.4238 5.724567 1.823677 7.501828
793 265 1 -0.8476 14.352249 17.839615 5.259488
794 265 2 0.4238 13.770885 17.106644 5.324855
795 265 2 0.4238 14.222175 18.455177 6.041352
796 266 1 -0.8476 5.672056 20.192438 6.053225
797 266 2 0.4238 5.983201 21.063071 6.210365
798 266 2 0.4238 4.690143 20.208001 5.846454
799 267 1 -0.8476 21.365326 13.426586 11.481400
800 267 2 0.4238 21.035199 12.560739 11.625723
801 267 2 0.4238 22.341699 13.467133 11.709873
802 268 1 -0.8476 15.542548 13.296368 7.306924
803 268 2 0.4238 15.525380 13.467605 6.385030
804 268 2 0.4238 15.988084 14.054010 7.791304
805 269 1 -0.8476 16.009596 19.948697 24.449887
806 269 2 0.4238 16.868128 19.667916 24.702058
807 269 2 0.4238 15.925970 19.950388 23.449811
808 270 1 -0.8476 6.423933 16.007941 23.610186
809 270 2 0.4238 6.397418 15.655473 22.741527
810 270 2 0.4238 5.703307 15.594784 24.173344
811 271 1 -0.8476 9.184039 16.398961 19.531376
812 271 2 0.4238 8.886783 15.581096 19.881007
813 271 2 0.4238 8.686873 17.158947 19.958454
814 272 1 -0.8476 21.935340 26.757859 22.709496
815 272 2 0.4238 21.452401 27.443684 23.128923
816 272 2 0.4238 22.614695 27.147085 22.081700
817 273 1 -0.8476 0.918028 18.339867 2.738012
818 273 2 0.4238 0.152741 18.770868 2.409260
819 273 2 0.4238 0.744781 17.356549 2.839101
820 274 1 -0.8476 8.190124 13.470839 29.067847
821 274 2 0.4238 8.001341 12.556774 28.976467
822 274 2 0.4238 9.170405 13.636977 28.931481
823 275 1 -0.8476 1.122395 10.810705 17.051163
824 275 2 0.4238 0.597928 10.807794 17.828615
825 275 2 0.4238 0.935125 11.635234 16.510580
826 276 1 -0.8476 20.809694 1.327601 28.270396
827 276 2 0.4238 21.541834 0.838478 28.593248
828 276 2 0.4238 20.251628 0.755179 27.663730
829 277 1 -0.8476 10.105741 15.234031 12.656951
830 277 2 0.4238 9.478887 15.927985 12.727568
831 277 2 0.4238 10.418515 15.145627 11.707475
832 278 1 -0.8476 23.052447 3.259761 24.463543
833 278 2 0.4238 22.159676 3.065178 24.674736
834 278 2 0.4238 23.205773 3.153496 23.477466
835 279 1 -0.8476 1.642775 22.041802 8.940699
836 279 2 0.4238 1.487815 21.820069 8.042742
837 279 2 0.4238 0.862499 21.761145 9.505986
838 280 1 -0.8476 0.659286 8.778433 5.270207
839 280 2 0.4238 0.846518 9.696766 5.236830
840 280 2 0.4238 1.196729 8.290360 4.577323
841 281 1 -0.8476 20.649472 14.526597 17.039860
842 281 2 0.4238 21.197614 15.257168 16.826997
843 281 2 0.4238 20.470832 13.977379 16.219131
844 282 1 -0.8476 1.525688 27.612191 15.895009
845 282 2 0.4238 0.751159 27.087108 15.957439
846 282 2 0.4238 1.804406 27.927318 16.806141
847 283 1 -0.8476 0.425274 26.188418 13.572109
848 283 2 0.4238 0.001113 25.500187 14.047431
849 283 2 0.4238 0.001523 27.071615 13.790160
850 284 1 -0.8476 2.865209 14.760532 13.300008
851 284 2 0.4238 2.867673 14.827512 12.364587
852 284 2 0.4238 3.434670 15.483551 13.700140
853 285 1 -0.8476 3.422124 22.621614 15.862544
854 285 2 0.4238 2.822361 23.339198 15.792822
855 285 2 0.4238 3.800313 22.575761 16.790994
856 286 1 -0.8476 12.708915 2.357678 22.689976
857 286 2 0.4238 12.249575 3.116877 22.386447
858 286 2 0.4238 13.659143 2.376376 22.367691
859 287 1 -0.8476 10.592598 10.837823 12.864892
860 287 2 0.4238 9.868104 10.300394 12.608412
861 287 2 0.4238 10.886963 11.411668 12.095997
862 288 1 -0.8476 4.741740 17.727184 13.686801
863 288 2 0.4238 5.082374 18.600665 13.709242
864 288 2 0.4238 4.455056 17.491481 12.754382
865 289 1 -0.8476 27.588093 20.969205 17.310441
866 289 2 0.4238 27.311707 20.145760 16.956811
867 289 2 0.4238 27.860613 20.859650 18.270065
868 290 1 -0.8476 23.336352 5.479395 25.790161
869 290 2 0.4238 23.164770 5.851561 26.633699
870 290 2 0.4238 23.765899 6.161242 25.192062
871 291 1 -0.8476 0.704911 17.415558 26.592372
872 291 2 0.4238 0.002041 17.805794 26.109470
873 291 2 0.4238 1.252613 16.827149 25.991585
874 292 1 -0.8476 5.701970 10.035072 0.610268
875 292 2 0.4238 6.537538 9.896750 1.013006
876 292 2 0.4238 5.119711 10.595614 1.205177
877 293 1 -0.8476 10.945459 12.150845 9.249708
878 293 2 0.4238 11.039541 12.630939 10.049810
879 293 2 0.4238 10.649597 11.211486 9.442628
880 294 1 -0.8476 14.613218 24.730393 21.254843
881 294 2 0.4238 14.117763 23.972057 21.012037
882 294 2 0.4238 13.996442 25.491732 21.471867
883 295 1 -0.8476 18.281050 2.555444 9.055681
884 295 2 0.4238 18.387798 3.423450 8.717045
885 295 2 0.4238 17.837801 1.969463 8.372084
886 296 1 -0.8476 14.392581 27.687851 28.829250
887 296 2 0.4238 13.912076 26.894142 28.965795
888 296 2 0.4238 14.509734 27.856730 27.846955
889 297 1 -0.8476 14.854960 10.292731 19.190145
890 297 2 0.4238 14.766317 11.170214 18.871286
891 297 2 0.4238 14.422063 10.206753 20.091454
892 298 1 -0.8476 3.583902 9.743894 28.830561
893 298 2 0.4238 4.273184 9.192145 28.514384
894 298 2 0.4238 3.966426 10.509485 29.354674
895 299 1 -0.8476 17.704064 6.444823 17.062453
896 299 2 0.4238 18.245503 5.897807 17.598291
897 299 2 0.4238 16.827025 5.992054 16.880925
898 300 1 -0.8476 21.551276 4.423654 8.975316
899 300 2 0.4238 20.710007 4.255922 8.596322
900 300 2 0.4238 21.924850 3.582138 9.374619
901 301 1 -0.8476 2.341520 2.425412 3.764169
902 301 2 0.4238 2.196563 1.857354 4.496155
903 301 2 0.4238 2.777208 3.276894 4.067982
904 302 1 -0.8476 3.995539 21.280910 20.236828
905 302 2 0.4238 3.677343 21.237861 21.117965
906 302 2 0.4238 4.816319 20.712100 20.137209
907 303 1 -0.8476 29.927402 24.358925 25.285416
908 303 2 0.4238 30.000007 24.562688 24.372884
909 303 2 0.4238 28.962062 24.334189 25.558646
910 304 1 -0.8476 21.390479 9.627747 5.383072
911 304 2 0.4238 21.148077 10.496361 5.640473
912 304 2 0.4238 21.287255 9.519472 4.390716
913 305 1 -0.8476 19.867866 24.810951 21.456335
914 305 2 0.4238 20.515573 25.441923 21.207630
915 305 2 0.4238 19.791298 24.769402 22.456115
916 306 1 -0.8476 9.863210 26.684070 18.799572
917 306 2 0.4238 9.079270 27.122035 18.529148
918 306 2 0.4238 10.031772 25.884891 18.216436
919 307 1 -0.8476 14.576025 2.362671 14.797070
920 307 2 0.4238 14.509072 2.925383 14.049824
921 307 2 0.4238 14.769915 2.902600 15.620498
922 308 1 -0.8476 18.657786 11.818633 23.666752
923 308 2 0.4238 17.832380 11.942070 24.094505
924 308 2 0.4238 19.218204 12.646912 23.750612
925 309 1 -0.8476 16.777662 13.883222 2.912230
926 309 2 0.4238 17.714344 13.929319 2.909556
927 309 2 0.4238 16.455812 13.433079 3.749447
928 310 1 -0.8476 8.437908 2.471070 28.057666
929 310 2 0.4238 9.327979 2.599484 28.323726
930 310 2 0.4238 8.300146 2.824382 27.128504
931 311 1 -0.8476 4.257404 9.237395 8.779204
932 311 2 0.4238 4.826413 9.321235 9.519950
933 311 2 0.4238 3.307081 9.129992 9.083340
934 312 1 -0.8476 28.579830 17.874139 1.439025
935 312 2 0.4238 28.032149 17.179845 1.126766
936 312 2 0.4238 28.142805 18.337371 2.214636
937 313 1 -0.8476 3.071017 9.676000 22.848748
938 313 2 0.4238 3.588542 9.310145 22.157501
939 313 2 0.4238 3.619998 10.319892 23.388352
940 314 1 -0.8476 4.817638 4.206599 2.328063
941 314 2 0.4238 5.609952 4.015797 1.864017
942 314 2 0.4238 4.213843 3.404991 2.325938
943 315 1 -0.8476 20.687542 28.217810 27.626032
944 315 2 0.4238 21.047226 28.333285 28.484402
945 315 2 0.4238 19.721164 28.488314 27.616587
946 316 1 -0.8476 18.144338 21.656670 21.111506
947 316 2 0.4238 18.678291 20.939164 20.829398
948 316 2 0.4238 18.212926 22.416342 20.459324
949 317 1 -0.8476 15.500893 23.949981 18.455885
950 317 2 0.4238 15.378722 24.503322 19.203142
951 317 2 0.4238 16.437739 23.590468 18.441069
952 318 1 -0.8476 18.926015 7.538250 15.579445
953 318 2 0.4238 19.729894 7.266562 15.978780
954 318 2 0.4238 18.701370 6.935538 14.809107
955 319 1 -0.8476 26.411313 11.927585 30.033277
956 319 2 0.4238 26.986613 12.056758 29.303998
957 319 2 0.4238 25.457269 11.909777 29.722420
958 320 1 -0.8476 18.106071 11.976833 4.385807
959 320 2 0.4238 18.474028 11.114584 4.411091
960 320 2 0.4238 17.627211 12.173986 5.245442
961 321 1 -0.8476 26.832807 27.498678 9.411198
962 321 2 0.4238 26.907689 26.831909 8.755976
963 321 2 0.4238 26.318353 28.281464 9.051013
964 322 1 -0.8476 26.529649 4.084277 17.939637
965 322 2 0.4238 27.253246 4.207352 18.523388
966 322 2 0.4238 26.509933 3.137328 17.607905
967 323 1 -0.8476 20.361723 12.430683 2.443196
968 323 2 0.4238 19.545695 11.970878 2.396469
969 323 2 0.4238 20.720447 12.593496 1.520181
970 324 1 -0.8476 7.572724 26.346529 29.060871
971 324 2 0.4238 6.848749 26.363049 28.464974
972 324 2 0.4238 7.244238 26.418264 30.006439
973 325 1 -0.8476 29.232505 1.073874 25.907819
974 325 2 0.4238 29.012266 0.729640 25.063720
975 325 2 0.4238 29.137083 2.072893 25.909690
976 326 1 -0.8476 24.290967 27.420247 1.528702
977 326 2 0.4238 24.740725 28.241078 1.587519
978 326 2 0.4238 24.144537 27.174118 0.566867
979 327 1 -0.8476 2.866358 14.932773 22.989221
980 327 2 0.4238 3.713389 15.335201 22.979425
981 327 2 0.4238 2.555722 14.757507 22.051172
982 328 1 -0.8476 23.472297 7.577524 8.940013
983 328 2 0.4238 23.849797 6.817652 9.339504
984 328 2 0.4238 23.129098 7.352536 8.024184
985 329 1 -0.8476 7.964850 27.061079 2.244900
986 329 2 0.4238 7.240698 27.539728 1.889929
987 329 2 0.4238 8.828116 27.517378 2.013139
988 330 1 -0.8476 19.164819 6.598479 23.674038
989 330 2 0.4238 18.815412 7.257088 23.105132
990 330 2 0.4238 18.880785 5.687270 23.363922
991 331 1 -0.8476 26.181702 19.888539 21.365774
992 331 2 0.4238 25.974835 19.974183 20.455073
993 331 2 0.4238 27.170320 19.987959 21.506834
994 332 1 -0.8476 7.711294 4.385193 3.920322
995 332 2 0.4238 6.902731 4.729504 3.592940
996 332 2 0.4238 8.474810 4.687147 3.343247
997 333 1 -0.8476 7.018183 10.981621 6.335630
998 333 2 0.4238 6.378086 10.371494 6.647919
999 333 2 0.4238 6.831359 11.897003 6.702129
1000 334 1 -0.8476 20.706590 17.282604 13.784739
1001 334 2 0.4238 20.238560 17.408454 12.981859
1002 334 2 0.4238 20.075974 17.330399 14.563961
1003 335 1 -0.8476 18.247810 20.458701 16.299717
1004 335 2 0.4238 17.637971 20.299518 15.605267
1005 335 2 0.4238 18.435118 19.607670 16.797524
1006 336 1 -0.8476 7.390028 6.514582 1.467955
1007 336 2 0.4238 6.621298 5.984164 1.383012
1008 336 2 0.4238 7.718991 6.794589 0.562125
1009 337 1 -0.8476 17.105291 1.287692 4.539470
1010 337 2 0.4238 17.045994 0.390188 4.274000
1011 337 2 0.4238 17.561276 1.355408 5.430896
1012 338 1 -0.8476 11.421606 19.057378 6.003138
1013 338 2 0.4238 10.544999 19.279060 6.251979
1014 338 2 0.4238 11.437271 18.714121 5.060229
1015 339 1 -0.8476 16.306159 20.942853 11.196098
1016 339 2 0.4238 15.426457 21.237158 11.333992
1017 339 2 0.4238 16.914141 21.727336 11.047467
1018 340 1 -0.8476 26.835929 2.174809 23.704649
1019 340 2 0.4238 27.306977 1.588726 23.144179
1020 340 2 0.4238 25.987639 2.472900 23.258897
1021 341 1 -0.8476 26.328783 16.634248 27.246592
1022 341 2 0.4238 25.995771 16.514083 26.378163
1023 341 2 0.4238 26.888717 17.465934 27.290414
1024 342 1 -0.8476 5.714073 26.878967 13.276778
1025 342 2 0.4238 5.423027 26.274595 13.932165
1026 342 2 0.4238 6.703572 26.787328 13.136624
1027 343 1 -0.8476 29.296791 0.934460 1.395671
1028 343 2 0.4238 29.103281 0.017837 1.352545
1029 343 2 0.4238 29.146881 1.276250 2.327259
1030 344 1 -0.8476 25.979715 2.219079 20.771599
1031 344 2 0.4238 25.803063 2.156358 19.852706
1032 344 2 0.4238 26.313868 1.339444 21.120501
1033 345 1 -0.8476 20.560716 28.739573 25.073841
1034 345 2 0.4238 21.134812 29.184264 25.667278
1035 345 2 0.4238 19.642578 29.142847 25.113115
1036 346 1 -0.8476 7.921065 10.438273 9.337709
1037 346 2 0.4238 7.901560 10.550973 8.406890
1038 346 2 0.4238 7.270024 11.063953 9.775681
1039 347 1 -0.8476 29.585040 1.264394 8.443847
1040 347 2 0.4238 30.005576 1.617848 7.683764
1041 347 2 0.4238 29.995254 0.381377 8.687062
1042 348 1 -0.8476 18.391400 10.466898 15.418811
1043 348 2 0.4238 18.340866 11.264555 14.928204
1044 348 2 0.4238 18.683378 9.712956 14.824279
1045 349 1 -0.8476 20.172071 1.889661 2.716806
1046 349 2 0.4238 20.651181 2.430277 3.314880
1047 349 2 0.4238 20.761432 1.611446 1.953655
1048 350 1 -0.8476 3.320843 7.874064 11.041827
1049 350 2 0.4238 2.815201 7.267084 10.536449
1050 350 2 0.4238 3.120213 7.762336 12.018767
1051 351 1 -0.8476 16.408493 21.801465 6.602457
1052 351 2 0.4238 16.486806 21.445542 5.738344
1053 351 2 0.4238 16.975267 21.278545 7.244694
1054 352 1 -0.8476 14.098663 14.366828 24.993653
1055 352 2 0.4238 13.730452 15.072006 24.497015
1056 352 2 0.4238 13.462000 13.591449 25.018030
1057 353 1 -0.8476 2.575377 13.020074 4.321308
1058 353 2 0.4238 2.036871 12.526287 4.909263
1059 353 2 0.4238 2.963801 13.815854 4.793546
1060 354 1 -0.8476 14.207753 1.549155 8.510331
1061 354 2 0.4238 15.009997 1.176012 8.821256
1062 354 2 0.4238 13.742999 2.038432 9.253136
1063 355 1 -0.8476 14.273638 20.300363 0.991117
1064 355 2 0.4238 13.721871 20.934573 1.406852
1065 355 2 0.4238 14.268388 20.436008 -0.003228
1066 356 1 -0.8476 0.890761 19.751438 28.113874
1067 356 2 0.4238 0.006468 19.758411 28.426095
1068 356 2 0.4238 1.274607 18.826720 28.182479
1069 357 1 -0.8476 21.753180 10.699403 9.907416
1070 357 2 0.4238 22.225573 9.894261 9.997397
1071 357 2 0.4238 22.278296 11.348215 9.350240
1072 358 1 -0.8476 12.286363 15.839402 14.985417
1073 358 2 0.4238 13.086353 16.328793 14.989669
1074 358 2 0.4238 11.873429 15.843474 15.900085
1075 359 1 -0.8476 26.393345 16.348817 3.604885
1076 359 2 0.4238 26.480912 17.258845 3.813898
1077 359 2 0.4238 26.299934 15.808253 4.445249
1078 360 1 -0.8476 28.553076 25.013925 10.259336
1079 360 2 0.4238 28.820673 24.657147 9.434347
1080 360 2 0.4238 29.330466 25.040085 10.893472
1081 361 1 -0.8476 17.791534 10.041050 21.451287
1082 361 2 0.4238 17.545350 9.271370 20.975377
1083 361 2 0.4238 18.073303 9.796436 22.382908
1084 362 1 -0.8476 4.831660 21.379683 13.476386
1085 362 2 0.4238 4.043738 20.970743 13.778798
1086 362 2 0.4238 4.989846 22.236535 13.974312
1087 363 1 -0.8476 17.005153 23.316095 12.818587
1088 363 2 0.4238 16.431816 24.057790 12.844615
1089 363 2 0.4238 16.863312 22.740574 13.628405
1090 364 1 -0.8476 6.867639 17.108268 13.218823
1091 364 2 0.4238 7.352774 17.127658 14.021177
1092 364 2 0.4238 7.353091 16.558003 12.534211
1093 365 1 -0.8476 26.647740 0.340938 29.246465
1094 365 2 0.4238 26.890333 0.839343 30.002934
1095 365 2 0.4238 25.709982 -0.002729 29.344710
1096 366 1 -0.8476 23.358065 28.072222 13.680891
1097 366 2 0.4238 22.787133 27.892255 12.958981
1098 366 2 0.4238 24.119720 27.418822 13.690861
1099 367 1 -0.8476 7.814601 28.716129 17.609671
1100 367 2 0.4238 7.538846 29.608202 17.697251
1101 367 2 0.4238 7.446889 28.321849 16.763220
1102 368 1 -0.8476 20.588241 28.706204 21.531197
1103 368 2 0.4238 20.180205 27.888917 21.318941
1104 368 2 0.4238 20.086888 29.161100 22.272050
1105 369 1 -0.8476 20.452936 12.585038 27.719544
1106 369 2 0.4238 21.250438 12.439806 27.247950
1107 369 2 0.4238 20.109277 11.719265 28.093021
1108 370 1 -0.8476 27.801093 23.880958 13.925241
1109 370 2 0.4238 28.076430 24.755964 14.120328
1110 370 2 0.4238 27.035997 23.895660 13.275965
1111 371 1 -0.8476 28.785654 18.159191 13.939974
1112 371 2 0.4238 28.830122 18.766393 13.226650
1113 371 2 0.4238 28.084611 17.464132 13.759474
1114 372 1 -0.8476 7.539585 13.443847 4.817206
1115 372 2 0.4238 7.638301 12.554571 4.536227
1116 372 2 0.4238 7.918568 13.559445 5.739246
1117 373 1 -0.8476 6.448327 10.664847 22.311030
1118 373 2 0.4238 5.673225 10.893666 21.835254
1119 373 2 0.4238 6.203966 10.249264 23.191216
1120 374 1 -0.8476 23.520668 19.526774 7.045008
1121 374 2 0.4238 23.425796 19.807888 6.155357
1122 374 2 0.4238 24.372145 19.889106 7.433403
1123 375 1 -0.8476 1.322823 29.250174 11.707064
1124 375 2 0.4238 0.693951 29.943803 11.653183
1125 375 2 0.4238 1.249356 28.784619 12.593072
1126 376 1 -0.8476 7.280228 14.173160 9.552108
1127 376 2 0.4238 7.018953 13.479520 10.126655
1128 376 2 0.4238 8.149177 14.569212 9.860685
1129 377 1 -0.8476 4.566711 12.851947 23.670919
1130 377 2 0.4238 4.646080 13.417110 24.415094
1131 377 2 0.4238 5.317160 13.021085 23.026429
1132 378 1 -0.8476 5.655577 4.706978 29.153599
1133 378 2 0.4238 5.110500 4.770274 29.914118
1134 378 2 0.4238 6.117000 5.582055 28.984848
1135 379 1 -0.8476 20.641023 17.301225 5.370459
1136 379 2 0.4238 20.203593 16.514645 5.106922
1137 379 2 0.4238 21.609012 17.263224 5.108348
1138 380 1 -0.8476 21.246803 28.549221 16.518432
1139 380 2 0.4238 20.843645 27.892360 17.052755
1140 380 2 0.4238 20.587371 29.275384 16.306335
1141 381 1 -0.8476 25.771337 18.086475 29.894833
1142 381 2 0.4238 26.664314 18.351283 30.004252
1143 381 2 0.4238 25.531929 18.071189 28.920359
1144 382 1 -0.8476 25.205355 16.021260 16.361779
1145 382 2 0.4238 25.464543 15.119971 16.359557
1146 382 2 0.4238 25.130896 16.357520 17.304399
1147 383 1 -0.8476 12.292118 26.214078 20.232296
1148 383 2 0.4238 11.397040 26.324674 20.489414
1149 383 2 0.4238 12.412912 25.331226 19.770638
1150 384 1 -0.8476 20.193830 13.118727 5.216527
1151 384 2 0.4238 20.777662 12.531593 4.776163
1152 384 2 0.4238 19.715767 12.640019 5.957771
1153 385 1 -0.8476 13.305606 11.523985 13.744715
1154 385 2 0.4238 13.889217 11.624132 14.471952
1155 385 2 0.4238 12.369981 11.365436 14.071236
1156 386 1 -0.8476 16.911943 16.685161 19.313731
1157 386 2 0.4238 16.102611 17.158462 19.335466
1158 386 2 0.4238 17.136440 16.341463 20.229494
1159 387 1 -0.8476 28.826998 10.646989 9.411850
1160 387 2 0.4238 28.380365 9.987800 9.907323
1161 387 2 0.4238 28.172923 11.159168 8.848816
1162 388 1 -0.8476 9.227672 7.448992 20.015659
1163 388 2 0.4238 8.630723 8.152603 19.848065
1164 388 2 0.4238 8.725719 6.633546 20.316059
1165 389 1 -0.8476 19.212347 23.832454 12.102536
1166 389 2 0.4238 19.199956 24.723877 12.393597
1167 389 2 0.4238 19.201476 23.211045 12.890496
1168 390 1 -0.8476 11.242551 20.334488 2.595755
1169 390 2 0.4238 10.377392 20.326265 2.957607
1170 390 2 0.4238 11.260921 20.882880 1.755471
1171 391 1 -0.8476 26.114482 11.703049 18.064038
1172 391 2 0.4238 27.027176 11.492102 18.019365
1173 391 2 0.4238 25.945935 12.354186 18.808862
1174 392 1 -0.8476 14.166063 21.349808 7.798544
1175 392 2 0.4238 14.718899 21.294801 8.554091
1176 392 2 0.4238 14.216516 20.498083 7.270181
1177 393 1 -0.8476 5.976069 28.197146 26.098837
1178 393 2 0.4238 5.099889 28.481806 25.923390
1179 393 2 0.4238 6.146218 28.190613 27.087854
1180 394 1 -0.8476 20.598488 18.761821 20.609117
1181 394 2 0.4238 21.088596 19.401806 21.088408
1182 394 2 0.4238 20.714267 18.904997 19.622586
1183 395 1 -0.8476 20.559106 22.024392 6.708964
1184 395 2 0.4238 21.478104 22.201944 6.650461
1185 395 2 0.4238 20.277127 21.973396 7.670752
1186 396 1 -0.8476 13.978994 7.576170 21.043270
1187 396 2 0.4238 13.644523 8.445068 21.155743
1188 396 2 0.4238 14.108506 7.137011 21.936306
1189 397 1 -0.8476 12.314671 20.329134 28.482257
1190 397 2 0.4238 12.169735 21.148666 28.914536
1191 397 2 0.4238 12.799425 19.696997 29.092637
1192 398 1 -0.8476 25.593526 21.937801 18.171007
1193 398 2 0.4238 25.359300 21.905441 17.263485
1194 398 2 0.4238 24.998887 21.329687 18.703687
1195 399 1 -0.8476 14.038794 29.889804 26.499750
1196 399 2 0.4238 13.203829 29.485975 26.360972
1197 399 2 0.4238 14.209376 30.002934 27.482222
1198 400 1 -0.8476 17.222548 8.684828 28.736536
1199 400 2 0.4238 17.296203 9.466661 29.249192
1200 400 2 0.4238 17.437445 8.879559 27.775783
1201 401 1 -0.8476 2.905998 3.245300 23.466111
1202 401 2 0.4238 2.962923 2.478293 22.929487
1203 401 2 0.4238 3.667853 3.268113 24.118954
1204 402 1 -0.8476 20.157673 4.623608 10.738796
1205 402 2 0.4238 19.257242 4.383357 10.843714
1206 402 2 0.4238 20.749697 3.955602 11.197516
1207 403 1 -0.8476 15.953666 -0.002653 14.804140
1208 403 2 0.4238 15.054384 0.031046 14.540205
1209 403 2 0.4238 16.024012 0.067736 15.802762
1210 404 1 -0.8476 15.135011 25.910786 13.497707
1211 404 2 0.4238 15.874712 25.894370 14.073970
1212 404 2 0.4238 14.559793 25.102654 13.650003
1213 405 1 -0.8476 4.566533 5.010563 11.805768
1214 405 2 0.4238 3.940243 5.645208 11.515093
1215 405 2 0.4238 4.605006 4.996545 12.808500
1216 406 1 -0.8476 13.089296 24.069104 17.417175
1217 406 2 0.4238 12.521293 24.781032 17.640862
1218 406 2 0.4238 13.164895 23.987035 16.419830
1219 407 1 -0.8476 23.644354 9.544324 26.870793
1220 407 2 0.4238 22.962046 10.165020 27.040197
1221 407 2 0.4238 24.338088 9.948511 26.268700
1222 408 1 -0.8476 1.440547 3.220908 1.513231
1223 408 2 0.4238 2.032149 2.494008 1.546820
1224 408 2 0.4238 0.533886 2.915369 1.210310
1225 409 1 -0.8476 22.405747 22.355227 29.109072
1226 409 2 0.4238 22.662448 23.254330 29.181344
1227 409 2 0.4238 22.384083 21.927584 30.016707
1228 410 1 -0.8476 11.608518 13.643825 14.515509
1229 410 2 0.4238 10.819538 14.141121 14.614059
1230 410 2 0.4238 11.977281 13.397999 15.415915
1231 411 1 -0.8476 11.986996 24.514962 9.027062
1232 411 2 0.4238 11.532909 24.696114 9.827370
1233 411 2 0.4238 11.827376 23.564828 8.746142
1234 412 1 -0.8476 23.262960 20.465875 10.759203
1235 412 2 0.4238 23.970014 19.978965 10.381715
1236 412 2 0.4238 23.496189 20.746021 11.694227
1237 413 1 -0.8476 14.665415 25.717332 3.482257
1238 413 2 0.4238 15.108146 24.890753 3.498432
1239 413 2 0.4238 14.921968 26.231176 2.659279
1240 414 1 -0.8476 15.394181 13.338615 27.009835
1241 414 2 0.4238 16.088413 13.044617 27.567608
1242 414 2 0.4238 15.612859 13.139276 26.050881
1243 415 1 -0.8476 8.445300 19.169914 14.899558
1244 415 2 0.4238 9.019073 18.483162 14.619091
1245 415 2 0.4238 8.239185 19.071083 15.876746
1246 416 1 -0.8476 3.740834 23.762802 27.816965
1247 416 2 0.4238 4.649777 23.566782 27.939048
1248 416 2 0.4238 3.228036 23.562844 28.656133
1249 417 1 -0.8476 0.832320 14.400389 9.294757
1250 417 2 0.4238 -0.000497 13.988910 9.165896
1251 417 2 0.4238 1.191411 14.177103 10.204892
1252 418 1 -0.8476 25.576678 5.140072 24.162622
1253 418 2 0.4238 26.356721 4.801491 23.767147
1254 418 2 0.4238 24.988388 5.557790 23.465074
1255 419 1 -0.8476 22.183672 6.127478 2.879830
1256 419 2 0.4238 23.076888 5.883485 2.731046
1257 419 2 0.4238 21.713516 6.269756 2.004696
1258 420 1 -0.8476 11.605177 10.720069 22.712795
1259 420 2 0.4238 12.061337 9.910102 22.588793
1260 420 2 0.4238 10.614647 10.572884 22.646951
1261 421 1 -0.8476 0.777874 9.676398 11.273181
1262 421 2 0.4238 1.706270 9.616758 11.154737
1263 421 2 0.4238 0.534051 9.443831 12.218491
1264 422 1 -0.8476 8.658445 2.923836 19.501746
1265 422 2 0.4238 8.889091 3.226084 18.644451
1266 422 2 0.4238 9.460412 2.948223 20.104575
1267 423 1 -0.8476 12.312218 24.062926 6.538625
1268 423 2 0.4238 12.901914 24.404535 5.894368
1269 423 2 0.4238 11.423767 24.525141 6.474120
1270 424 1 -0.8476 20.018637 9.698679 24.503709
1271 424 2 0.4238 19.149668 9.359868 24.405709
1272 424 2 0.4238 20.008145 10.514014 25.088745
1273 425 1 -0.8476 12.952140 20.559639 23.182694
1274 425 2 0.4238 13.024389 19.872547 23.816877
1275 425 2 0.4238 12.019528 20.593082 22.813554
1276 426 1 -0.8476 18.049158 5.407702 28.505861
1277 426 2 0.4238 17.125594 5.497469 28.369932
1278 426 2 0.4238 18.478468 4.990499 27.700390
1279 427 1 -0.8476 17.582695 15.427328 13.541517
1280 427 2 0.4238 17.128046 15.538947 12.728904
1281 427 2 0.4238 16.950947 15.551591 14.311323
1282 428 1 -0.8476 26.596188 23.870027 5.265620
1283 428 2 0.4238 27.234089 24.526503 5.469646
1284 428 2 0.4238 26.433824 23.841211 4.275692
1285 429 1 -0.8476 12.034352 16.419015 24.928988
1286 429 2 0.4238 11.139147 16.158419 24.827982
1287 429 2 0.4238 12.253758 16.533402 25.901575
1288 430 1 -0.8476 14.758260 22.949446 24.337611
1289 430 2 0.4238 15.158933 22.983324 25.184853
1290 430 2 0.4238 15.077186 22.140755 23.836162
1291 431 1 -0.8476 25.000055 29.405369 15.217928
1292 431 2 0.4238 24.865481 29.605610 14.311673
1293 431 2 0.4238 25.925502 29.674240 15.497936
1294 432 1 -0.8476 9.527549 21.218759 11.972015
1295 432 2 0.4238 9.922389 20.379106 11.835672
1296 432 2 0.4238 9.374904 21.374332 12.951630
1297 433 1 -0.8476 20.246340 4.086186 5.701276
1298 433 2 0.4238 19.511077 3.555094 5.939676
1299 433 2 0.4238 20.097600 4.497607 4.798083
1300 434 1 -0.8476 1.290621 20.804201 16.977880
1301 434 2 0.4238 1.716026 20.881171 17.810112
1302 434 2 0.4238 0.728676 21.616465 16.800133
1303 435 1 -0.8476 16.730865 15.150140 27.614897
1304 435 2 0.4238 16.168629 15.890867 27.736221
1305 435 2 0.4238 16.847299 14.960780 26.636258
1306 436 1 -0.8476 12.925510 3.603296 3.395473
1307 436 2 0.4238 12.037472 3.337327 3.253510
1308 436 2 0.4238 13.155294 3.535811 4.370046
1309 437 1 -0.8476 17.023106 1.682194 13.092192
1310 437 2 0.4238 16.099978 1.597793 13.234374
1311 437 2 0.4238 17.223403 1.679147 12.108820
1312 438 1 -0.8476 10.291156 19.938866 26.964579
1313 438 2 0.4238 10.213727 20.642988 26.349988
1314 438 2 0.4238 10.031325 19.071582 26.531617
1315 439 1 -0.8476 4.190596 15.720550 3.832072
1316 439 2 0.4238 3.921149 15.909510 4.710250
1317 439 2 0.4238 3.395550 15.472974 3.271933
1318 440 1 -0.8476 16.673877 1.076513 19.034424
1319 440 2 0.4238 17.564121 1.045809 19.327728
1320 440 2 0.4238 16.641670 1.169999 18.035739
1321 441 1 -0.8476 11.974594 16.645828 6.553404
1322 441 2 0.4238 11.593565 17.184020 7.220241
1323 441 2 0.4238 11.351717 16.572721 5.769932
1324 442 1 -0.8476 17.368339 29.969599 22.838161
1325 442 2 0.4238 17.096782 29.106083 22.593005
1326 442 2 0.4238 18.189300 29.923813 23.413551
1327 443 1 -0.8476 1.040546 1.393141 22.793528
1328 443 2 0.4238 0.698760 2.240132 23.006351
1329 443 2 0.4238 1.075412 0.817724 23.615006
1330 444 1 -0.8476 13.637349 14.308279 22.123727
1331 444 2 0.4238 13.156851 13.801764 22.749881
1332 444 2 0.4238 13.402026 15.279957 22.210983
1333 445 1 -0.8476 3.802616 7.369490 0.164205
1334 445 2 0.4238 3.325512 7.090197 0.921749
1335 445 2 0.4238 4.559770 7.970272 0.434256
1336 446 1 -0.8476 26.630323 16.571899 11.122300
1337 446 2 0.4238 26.080558 15.842298 10.910297
1338 446 2 0.4238 26.070374 17.362146 11.385200
1339 447 1 -0.8476 17.264991 18.460639 3.037932
1340 447 2 0.4238 17.727439 17.877711 2.467107
1341 447 2 0.4238 17.796667 18.620351 3.873972
1342 448 1 -0.8476 14.245539 27.138069 8.923705
1343 448 2 0.4238 13.664952 27.251365 9.651433
1344 448 2 0.4238 14.445888 28.025265 8.499568
1345 449 1 -0.8476 14.721817 21.969467 28.504563
1346 449 2 0.4238 14.499414 22.832742 28.213361
1347 449 2 0.4238 14.826735 21.957294 29.502557
1348 450 1 -0.8476 22.365564 22.185584 16.136100
1349 450 2 0.4238 21.448933 22.047858 16.278663
1350 450 2 0.4238 22.562802 22.210487 15.152421
1351 451 1 -0.8476 13.710400 9.039998 14.191198
1352 451 2 0.4238 14.156900 8.216810 14.241231
1353 451 2 0.4238 13.763263 9.406121 13.258295
1354 452 1 -0.8476 28.108571 12.989575 3.263130
1355 452 2 0.4238 28.200397 13.884156 2.997051
1356 452 2 0.4238 27.784469 12.942298 4.211745
1357 453 1 -0.8476 23.626496 2.485998 17.734000
1358 453 2 0.4238 24.220169 3.199201 17.598358
1359 453 2 0.4238 23.515282 2.310365 18.715801
1360 454 1 -0.8476 27.711596 13.087142 0.876238
1361 454 2 0.4238 27.536110 12.166205 0.900408
1362 454 2 0.4238 27.414582 13.473024 -0.001274
1363 455 1 -0.8476 18.877385 7.056087 5.804383
1364 455 2 0.4238 18.518688 6.576349 5.082792
1365 455 2 0.4238 18.467545 6.743604 6.665507
1366 456 1 -0.8476 15.700844 24.469819 26.880948
1367 456 2 0.4238 16.280565 23.796584 27.181252
1368 456 2 0.4238 15.193531 24.859774 27.654070
1369 457 1 -0.8476 8.686919 30.014272 3.001109
1370 457 2 0.4238 8.507328 29.851662 3.907095
1371 457 2 0.4238 8.028998 29.522723 2.424336
1372 458 1 -0.8476 7.018818 18.303655 25.733278
1373 458 2 0.4238 7.902835 18.587292 25.865825
1374 458 2 0.4238 6.813865 18.257086 24.751965
1375 459 1 -0.8476 6.769389 13.283899 13.108392
1376 459 2 0.4238 6.922278 13.844490 12.372276
1377 459 2 0.4238 6.566692 13.831855 13.924362
1378 460 1 -0.8476 8.129975 7.604954 3.376698
1379 460 2 0.4238 8.555006 8.439208 3.430303
1380 460 2 0.4238 7.743166 7.355794 4.268576
1381 461 1 -0.8476 1.561397 29.727591 18.807987
1382 461 2 0.4238 1.900226 28.853342 18.827706
1383 461 2 0.4238 1.362267 30.000229 17.862914
1384 462 1 -0.8476 16.101896 22.548197 1.457482
1385 462 2 0.4238 15.180443 22.577944 1.629366
1386 462 2 0.4238 16.584012 23.207833 2.040228
1387 463 1 -0.8476 29.057452 10.553457 4.921352
1388 463 2 0.4238 28.350172 10.911790 5.422209
1389 463 2 0.4238 29.743022 10.147900 5.531815
1390 464 1 -0.8476 18.707856 27.298348 22.866287
1391 464 2 0.4238 18.212145 26.546174 22.605501
1392 464 2 0.4238 19.173760 27.120702 23.737220
1393 465 1 -0.8476 2.505684 18.567868 19.186386
1394 465 2 0.4238 1.860065 17.990611 18.826587
1395 465 2 0.4238 2.330408 18.717141 20.163189
1396 466 1 -0.8476 15.581921 3.117417 10.138866
1397 466 2 0.4238 14.952096 3.449489 10.749237
1398 466 2 0.4238 16.491647 3.088715 10.561623
1399 467 1 -0.8476 27.624455 28.605340 24.964806
1400 467 2 0.4238 27.836586 28.896384 24.098897
1401 467 2 0.4238 27.039013 27.791328 24.922488
1402 468 1 -0.8476 22.790171 5.162209 11.347082
1403 468 2 0.4238 23.606400 5.282000 10.901071
1404 468 2 0.4238 22.949728 4.799709 12.269190
1405 469 1 -0.8476 13.040425 26.708825 13.697440
1406 469 2 0.4238 13.323733 27.436371 13.177903
1407 469 2 0.4238 12.083556 26.487862 13.490738
1408 470 1 -0.8476 12.688185 14.946507 5.094486
1409 470 2 0.4238 12.932893 14.041287 5.108627
1410 470 2 0.4238 12.604489 15.267518 4.147334
1411 471 1 -0.8476 12.175077 26.967459 1.967814
1412 471 2 0.4238 12.193615 27.571536 2.684927
1413 471 2 0.4238 11.885466 26.060960 2.286458
1414 472 1 -0.8476 19.376054 7.468968 11.633224
1415 472 2 0.4238 20.115634 6.924454 11.823042
1416 472 2 0.4238 18.792028 7.554529 12.444853
1417 473 1 -0.8476 21.566727 23.005333 4.584671
1418 473 2 0.4238 22.016988 23.102447 3.767763
1419 473 2 0.4238 20.631992 22.675635 4.427453
1420 474 1 -0.8476 10.253852 24.862608 12.106539
1421 474 2 0.4238 9.350759 25.020596 12.303940
1422 474 2 0.4238 10.560637 24.013937 12.545617
1423 475 1 -0.8476 28.543528 15.465101 17.638017
1424 475 2 0.4238 27.738801 15.068022 17.365534
1425 475 2 0.4238 28.390599 16.427483 17.877977
1426 476 1 -0.8476 9.020202 7.072444 12.562193
1427 476 2 0.4238 8.954039 7.291937 11.652825
1428 476 2 0.4238 9.173602 6.086531 12.669862
1429 477 1 -0.8476 0.691128 2.627670 7.991393
1430 477 2 0.4238 0.287107 3.114611 7.299179
1431 477 2 0.4238 -0.001871 2.322828 8.650159
1432 478 1 -0.8476 6.368055 23.749261 1.593884
1433 478 2 0.4238 5.510173 23.711608 1.970880
1434 478 2 0.4238 6.332242 23.487825 0.625630
1435 479 1 -0.8476 17.490501 15.111824 5.108277
1436 479 2 0.4238 17.397650 15.421179 5.988722
1437 479 2 0.4238 18.442480 15.209182 4.805945
1438 480 1 -0.8476 2.832208 10.497199 14.302963
1439 480 2 0.4238 3.508329 10.784053 13.719800
1440 480 2 0.4238 2.841731 11.048433 15.141532
1441 481 1 -0.8476 14.573080 4.313387 28.170941
1442 481 2 0.4238 14.689868 3.389474 28.060254
1443 481 2 0.4238 14.893029 4.596209 29.079122
1444 482 1 -0.8476 1.677735 24.162784 24.189104
1445 482 2 0.4238 2.479047 24.648893 24.155906
1446 482 2 0.4238 1.610100 23.552594 23.395226
1447 483 1 -0.8476 29.223355 23.002716 8.051939
1448 483 2 0.4238 29.530357 22.667728 8.872328
1449 483 2 0.4238 28.276237 22.711901 7.892121
1450 484 1 -0.8476 13.748623 12.951777 2.502487
1451 484 2 0.4238 13.253495 12.165566 2.375106
1452 484 2 0.4238 14.728923 12.740652 2.542330
1453 485 1 -0.8476 18.678458 13.548951 12.127916
1454 485 2 0.4238 18.860760 13.331657 11.234018
1455 485 2 0.4238 19.144783 14.401457 12.378758
1456 486 1 -0.8476 6.648470 11.227209 25.110835
1457 486 2 0.4238 7.334236 11.461531 25.706086
1458 486 2 0.4238 5.816916 11.749385 25.318198
1459 487 1 -0.8476 2.531945 1.907219 12.313083
1460 487 2 0.4238 2.674595 0.981624 12.362360
1461 487 2 0.4238 2.508469 2.203106 11.354413
1462 488 1 -0.8476 21.939876 1.955913 6.163786
1463 488 2 0.4238 21.978646 2.759097 6.646380
1464 488 2 0.4238 21.328381 2.055809 5.374328
1465 489 1 -0.8476 17.289065 12.585660 21.041769
1466 489 2 0.4238 17.963633 12.243062 21.595925
1467 489 2 0.4238 17.686288 13.191514 20.347289
1468 490 1 -0.8476 21.326834 16.276416 20.055636
1469 490 2 0.4238 21.939600 15.575747 19.941244
1470 490 2 0.4238 21.170289 16.443047 21.032814
1471 491 1 -0.8476 18.571300 25.331471 10.169577
1472 491 2 0.4238 17.797288 25.789137 10.435946
1473 491 2 0.4238 18.325275 24.473773 9.710259
1474 492 1 -0.8476 2.822843 7.216401 24.309699
1475 492 2 0.4238 2.981881 7.405587 23.405034
1476 492 2 0.4238 2.088586 6.537928 24.397387
1477 493 1 -0.8476 1.331146 10.327687 8.867461
1478 493 2 0.4238 1.926166 10.647573 8.216978
1479 493 2 0.4238 1.133592 9.356750 8.708076
1480 494 1 -0.8476 4.763359 21.186529 0.661860
1481 494 2 0.4238 5.030062 20.972030 1.534995
1482 494 2 0.4238 5.268765 20.628048 -0.001322
1483 495 1 -0.8476 20.505327 7.255238 8.154140
1484 495 2 0.4238 20.058660 6.473641 8.417008
1485 495 2 0.4238 20.601433 7.279570 7.155481
1486 496 1 -0.8476 20.304684 9.591930 27.517955
1487 496 2 0.4238 19.545509 9.470920 28.055090
1488 496 2 0.4238 20.331586 8.896209 26.795184
1489 497 1 -0.8476 3.545813 22.854317 25.125796
1490 497 2 0.4238 2.737750 22.403257 24.973859
1491 497 2 0.4238 4.292604 22.402679 24.630342
1492 498 1 -0.8476 20.253067 18.067664 29.275248
1493 498 2 0.4238 20.006836 18.665940 29.954174
1494 498 2 0.4238 21.248533 17.940489 29.270446
1495 499 1 -0.8476 5.334756 15.022517 8.172768
1496 499 2 0.4238 5.456885 15.323234 9.052630
1497 499 2 0.4238 5.512261 15.767868 7.524622
1498 500 1 -0.8476 25.200468 28.960212 29.893529
1499 500 2 0.4238 24.336349 29.317877 29.823670
1500 500 2 0.4238 25.386890 28.351861 29.117447
1501 501 1 -0.8476 25.255502 6.471881 1.051897
1502 501 2 0.4238 25.860714 6.140699 1.687146
1503 501 2 0.4238 24.445832 5.880845 1.004389
1504 502 1 -0.8476 17.638376 4.369175 19.939752
1505 502 2 0.4238 16.876416 4.828627 20.236107
1506 502 2 0.4238 17.545570 4.135797 18.968120
1507 503 1 -0.8476 24.476704 7.530455 28.322191
1508 503 2 0.4238 24.411681 7.506545 27.386934
1509 503 2 0.4238 24.194031 6.649631 28.711283
1510 504 1 -0.8476 27.017070 12.046328 21.968431
1511 504 2 0.4238 27.512091 12.679846 21.485613
1512 504 2 0.4238 26.736868 11.294088 21.366127
1513 505 1 -0.8476 19.375480 3.154005 21.586187
1514 505 2 0.4238 19.846997 3.401346 20.814178
1515 505 2 0.4238 18.732363 3.879280 21.846042
1516 506 1 -0.8476 22.298603 21.032055 8.719644
1517 506 2 0.4238 22.718721 21.866457 8.801973
1518 506 2 0.4238 21.581862 20.935427 9.415412
1519 507 1 -0.8476 2.904180 0.175418 6.680818
1520 507 2 0.4238 2.535654 1.016338 6.489646
1521 507 2 0.4238 2.828811 -0.020343 7.662217
1522 508 1 -0.8476 12.312436 22.417235 20.432408
1523 508 2 0.4238 11.625377 21.889596 20.791647
1524 508 2 0.4238 11.979916 22.918015 19.628792
1525 509 1 -0.8476 25.913311 22.498716 7.520674
1526 509 2 0.4238 25.102180 22.675976 7.956737
1527 509 2 0.4238 25.745981 22.272205 6.557429
1528 510 1 -0.8476 18.405699 24.372843 25.499541
1529 510 2 0.4238 18.891821 24.280007 26.296141
1530 510 2 0.4238 18.188174 23.469751 25.119731
1531 511 1 -0.8476 11.858042 10.147599 27.060269
1532 511 2 0.4238 11.226609 9.850977 26.433522
1533 511 2 0.4238 11.396888 10.598382 27.829217
1534 512 1 -0.8476 8.209922 18.961373 10.901926
1535 512 2 0.4238 9.073470 18.734618 10.614921
1536 512 2 0.4238 8.069761 18.659964 11.848845
1537 513 1 -0.8476 10.504452 0.817782 8.962475
1538 513 2 0.4238 10.590058 0.100018 8.364987
1539 513 2 0.4238 9.613493 1.263723 8.842152
1540 514 1 -0.8476 24.475356 24.944918 21.456930
1541 514 2 0.4238 24.420423 25.823069 21.781489
1542 514 2 0.4238 24.568884 24.299399 22.219627
1543 515 1 -0.8476 3.522121 5.745267 21.579594
1544 515 2 0.4238 3.253274 5.740097 20.681151
1545 515 2 0.4238 3.044807 5.023371 22.087714
1546 516 1 -0.8476 9.012589 25.290712 3.863758
1547 516 2 0.4238 9.363145 25.028890 3.034261
1548 516 2 0.4238 9.757007 25.498401 4.503957
1549 517 1 -0.8476 18.361577 1.767696 -0.004120
1550 517 2 0.4238 17.762628 1.783833 0.717340
1551 517 2 0.4238 19.303813 1.869102 0.326118
1552 518 1 -0.8476 21.590628 4.816475 18.733003
1553 518 2 0.4238 21.909451 3.937266 18.802623
1554 518 2 0.4238 20.600504 4.839305 18.895116
1555 519 1 -0.8476 0.617338 26.448971 22.924298
1556 519 2 0.4238 -0.005375 26.593808 22.238182
1557 519 2 0.4238 1.236570 25.698987 22.676863
1558 520 1 -0.8476 25.585447 9.527996 29.880704
1559 520 2 0.4238 24.655462 9.527626 30.001669
1560 520 2 0.4238 25.812805 9.243649 28.945502
1561 521 1 -0.8476 1.256510 3.869349 14.948787
1562 521 2 0.4238 1.403490 2.943264 14.932378
1563 521 2 0.4238 1.413912 4.228319 15.872644
1564 522 1 -0.8476 2.072936 12.100741 11.753972
1565 522 2 0.4238 2.089252 11.937825 10.830556
1566 522 2 0.4238 1.126888 12.216510 12.068201
1567 523 1 -0.8476 20.515548 12.727874 8.057014
1568 523 2 0.4238 19.697798 12.419540 8.397191
1569 523 2 0.4238 21.007869 13.249149 8.759182
1570 524 1 -0.8476 15.804069 5.321443 25.636710
1571 524 2 0.4238 15.126969 4.834695 26.065798
1572 524 2 0.4238 16.063903 4.870269 24.778761
1573 525 1 -0.8476 26.414030 14.677674 28.250829
1574 525 2 0.4238 27.073714 14.154966 28.664468
1575 525 2 0.4238 26.121644 14.249452 27.391594
1576 526 1 -0.8476 21.876423 3.531137 15.848835
1577 526 2 0.4238 21.632325 4.238207 16.414497
1578 526 2 0.4238 22.276225 3.888814 15.000675
1579 527 1 -0.8476 19.285449 11.322018 19.303598
1580 527 2 0.4238 18.412205 11.136533 19.590901
1581 527 2 0.4238 19.398702 11.051490 18.343839
1582 528 1 -0.8476 21.464506 9.267135 7.834132
1583 528 2 0.4238 20.691349 9.736180 8.082587
1584 528 2 0.4238 22.202179 9.909779 7.610539
1585 529 1 -0.8476 2.289162 19.001450 9.325048
1586 529 2 0.4238 1.698573 19.712974 9.168705
1587 529 2 0.4238 2.657106 18.659908 8.456075
1588 530 1 -0.8476 12.589012 21.098304 26.439744
1589 530 2 0.4238 12.563712 21.705834 25.725761
1590 530 2 0.4238 13.498922 20.680215 26.506186
1591 531 1 -0.8476 10.229202 8.734201 10.443209
1592 531 2 0.4238 10.370861 8.802651 9.518680
1593 531 2 0.4238 11.099221 8.828536 10.934447
1594 532 1 -0.8476 25.547200 15.010051 1.626150
1595 532 2 0.4238 25.762241 14.248086 2.128816
1596 532 2 0.4238 26.361053 15.349452 1.146985
1597 533 1 -0.8476 17.293339 25.044525 20.197512
1598 533 2 0.4238 18.123564 24.634351 20.049228
1599 533 2 0.4238 17.110747 25.110013 21.182154
1600 534 1 -0.8476 28.624991 21.495882 29.870454
1601 534 2 0.4238 28.017587 22.117234 29.517626
1602 534 2 0.4238 29.524205 21.607807 29.439136
1603 535 1 -0.8476 5.625809 15.063422 19.026740
1604 535 2 0.4238 5.676778 14.379837 18.386727
1605 535 2 0.4238 6.515993 15.517375 19.119733
1606 536 1 -0.8476 14.067103 15.967161 7.356672
1607 536 2 0.4238 14.815481 15.719113 6.848827
1608 536 2 0.4238 14.208666 15.728007 8.320992
1609 537 1 -0.8476 0.622924 20.149379 19.895441
1610 537 2 0.4238 0.032754 19.787797 20.528262
1611 537 2 0.4238 1.337811 20.683476 20.354599
1612 538 1 -0.8476 14.055952 27.557993 17.948475
1613 538 2 0.4238 14.476474 27.001573 18.575422
1614 538 2 0.4238 13.825149 27.036340 17.122789
1615 539 1 -0.8476 28.967719 14.673914 23.585181
1616 539 2 0.4238 29.409029 15.253161 24.176133
1617 539 2 0.4238 28.709604 15.164123 22.748390
1618 540 1 -0.8476 14.063890 12.992193 20.202893
1619 540 2 0.4238 14.940360 13.299952 20.074096
1620 540 2 0.4238 14.056294 12.235342 20.861882
1621 541 1 -0.8476 10.278043 5.570834 23.421283
1622 541 2 0.4238 10.586874 5.899412 24.243575
1623 541 2 0.4238 11.001139 5.045280 22.965132
1624 542 1 -0.8476 5.115355 2.077662 4.217873
1625 542 2 0.4238 4.428956 1.499854 3.944928
1626 542 2 0.4238 5.184393 2.084255 5.219042
1627 543 1 -0.8476 23.799126 7.951645 21.103444
1628 543 2 0.4238 23.353253 8.672164 21.505384
1629 543 2 0.4238 23.273267 7.613955 20.318214
1630 544 1 -0.8476 18.314098 29.086052 18.149825
1631 544 2 0.4238 17.412445 29.209074 17.923127
1632 544 2 0.4238 18.791152 28.594058 17.416675
1633 545 1 -0.8476 12.493576 14.290530 18.254336
1634 545 2 0.4238 12.120481 13.713334 17.616253
1635 545 2 0.4238 13.063761 14.982480 17.803511
1636 546 1 -0.8476 7.828377 4.414157 29.880639
1637 546 2 0.4238 8.230340 4.956350 29.229519
1638 546 2 0.4238 8.367085 3.578231 30.015435
1639 547 1 -0.8476 11.603414 26.030893 24.513522
1640 547 2 0.4238 12.448081 25.782416 24.190563
1641 547 2 0.4238 10.899998 25.411253 24.155194
1642 548 1 -0.8476 4.103432 21.546058 28.746329
1643 548 2 0.4238 3.669781 20.972097 28.144648
1644 548 2 0.4238 4.512589 21.017498 29.494903
1645 549 1 -0.8476 29.626965 17.422234 10.720931
1646 549 2 0.4238 28.889221 16.851726 10.819725
1647 549 2 0.4238 29.828448 17.561890 9.747767
1648 550 1 -0.8476 18.425476 6.349390 20.599090
1649 550 2 0.4238 18.637041 6.752849 19.779355
1650 550 2 0.4238 19.242870 5.923716 20.996353
1651 551 1 -0.8476 8.724943 0.575127 6.410124
1652 551 2 0.4238 8.878514 1.466851 6.656596
1653 551 2 0.4238 8.645950 -0.001166 7.227923
1654 552 1 -0.8476 15.840079 16.675810 21.976032
1655 552 2 0.4238 15.237884 16.230615 21.411526
1656 552 2 0.4238 15.445064 16.776064 22.893125
1657 553 1 -0.8476 29.049806 18.297498 7.071578
1658 553 2 0.4238 28.184695 18.655329 7.126754
1659 553 2 0.4238 29.322332 18.197764 6.110884
1660 554 1 -0.8476 10.364527 1.169821 0.476393
1661 554 2 0.4238 9.922049 1.679718 1.127333
1662 554 2 0.4238 11.272263 0.898586 0.807444
1663 555 1 -0.8476 5.443346 9.762363 16.588677
1664 555 2 0.4238 5.173575 10.454035 16.015686
1665 555 2 0.4238 5.662108 10.130480 17.496301
1666 556 1 -0.8476 14.870922 22.073458 14.302954
1667 556 2 0.4238 15.320483 21.261653 14.438503
1668 556 2 0.4238 14.734918 22.233975 13.321687
1669 557 1 -0.8476 9.317578 3.292324 16.030351
1670 557 2 0.4238 10.008438 3.191280 16.656456
1671 557 2 0.4238 8.558606 2.673467 16.249725
1672 558 1 -0.8476 28.438170 27.965991 15.650605
1673 558 2 0.4238 29.031600 27.741696 16.341284
1674 558 2 0.4238 28.944808 28.139384 14.801840
1675 559 1 -0.8476 14.037592 21.929480 17.603577
1676 559 2 0.4238 14.025407 22.157945 18.513060
1677 559 2 0.4238 14.983260 21.810683 17.289337
1678 560 1 -0.8476 29.061673 29.173729 0.668505
1679 560 2 0.4238 29.169977 28.293823 0.362662
1680 560 2 0.4238 28.732617 29.172429 1.616592
1681 561 1 -0.8476 8.832667 22.890004 29.987756
1682 561 2 0.4238 9.349763 22.943111 29.207182
1683 561 2 0.4238 8.306766 22.035315 29.996889
1684 562 1 -0.8476 1.746304 10.785262 20.102624
1685 562 2 0.4238 1.620995 10.433251 20.962793
1686 562 2 0.4238 2.444278 11.506095 20.122088
1687 563 1 -0.8476 26.693036 1.879347 27.492201
1688 563 2 0.4238 25.893343 1.968361 27.973941
1689 563 2 0.4238 27.379316 2.524396 27.838724
1690 564 1 -0.8476 24.660638 13.448851 13.982892
1691 564 2 0.4238 23.761440 13.503814 13.722266
1692 564 2 0.4238 24.736775 13.523156 14.980805
1693 565 1 -0.8476 18.380447 27.820849 9.325992
1694 565 2 0.4238 19.166953 28.324854 9.409021
1695 565 2 0.4238 18.506835 27.091491 8.648342
1696 566 1 -0.8476 29.198244 29.271775 4.196713
1697 566 2 0.4238 30.003895 29.611583 3.857654
1698 566 2 0.4238 28.510755 30.000872 4.250797
1699 567 1 -0.8476 22.672962 29.366949 1.042811
1700 567 2 0.4238 21.840163 29.377085 1.473910
1701 567 2 0.4238 22.550800 29.467694 0.051813
1702 568 1 -0.8476 4.393418 28.953476 13.497559
1703 568 2 0.4238 4.050250 29.825544 13.462349
1704 568 2 0.4238 4.412721 28.627325 14.446454
1705 569 1 -0.8476 15.387651 29.740990 24.772646
1706 569 2 0.4238 16.153912 30.026800 25.231626
1707 569 2 0.4238 15.595665 28.925161 24.226475
1708 570 1 -0.8476 25.488938 23.566507 10.213481
1709 570 2 0.4238 26.226134 23.214926 10.674391
1710 570 2 0.4238 25.720436 24.460875 9.821481
1711 571 1 -0.8476 17.995258 20.178030 28.832798
1712 571 2 0.4238 17.935849 21.112851 28.878482
1713 571 2 0.4238 18.266937 19.893327 27.909607
1714 572 1 -0.8476 15.523004 2.725337 24.753823
1715 572 2 0.4238 16.150532 2.769540 25.449351
1716 572 2 0.4238 15.203115 1.781451 24.635929
1717 573 1 -0.8476 19.209139 18.884783 9.990870
1718 573 2 0.4238 19.172311 18.755605 10.919019
1719 573 2 0.4238 18.333146 18.632176 9.571376
1720 574 1 -0.8476 0.556559 16.810373 20.763650
1721 574 2 0.4238 0.000776 17.214805 20.125649
1722 574 2 0.4238 0.006505 16.442249 21.518020
1723 575 1 -0.8476 8.647192 21.736079 17.627619
1724 575 2 0.4238 8.158379 21.107915 17.131659
1725 575 2 0.4238 8.044302 22.474998 17.940142
1726 576 1 -0.8476 15.520374 24.069697 10.050573
1727 576 2 0.4238 16.218476 24.220432 10.658386
1728 576 2 0.4238 15.866166 24.110969 9.109364
1729 577 1 -0.8476 29.625883 8.983725 16.852031
1730 577 2 0.4238 29.727333 8.820635 15.934091
1731 577 2 0.4238 29.397846 9.948369 17.008906
1732 578 1 -0.8476 24.240354 19.503559 16.730701
1733 578 2 0.4238 25.118642 19.366824 17.029732
1734 578 2 0.4238 24.069691 18.965546 15.900904
1735 579 1 -0.8476 15.312472 28.654919 15.060057
1736 579 2 0.4238 15.241012 28.028019 14.366231
1737 579 2 0.4238 15.848267 28.272837 15.817740
1738 580 1 -0.8476 17.218178 18.531829 13.557387
1739 580 2 0.4238 17.245904 19.463703 13.455670
1740 580 2 0.4238 16.435814 18.269259 14.128450
1741 581 1 -0.8476 10.907565 18.145212 23.099567
1742 581 2 0.4238 11.256464 18.249150 23.963841
1743 581 2 0.4238 10.469749 18.996582 22.798509
1744 582 1 -0.8476 28.373123 10.590668 2.750223
1745 582 2 0.4238 28.435244 9.747066 2.345275
1746 582 2 0.4238 27.426068 10.772054 3.028311
1747 583 1 -0.8476 11.805402 17.741788 11.434248
1748 583 2 0.4238 11.443997 16.985331 11.013934
1749 583 2 0.4238 11.781450 17.628274 12.431088
1750 584 1 -0.8476 11.158989 5.259100 28.055239
1751 584 2 0.4238 11.718557 4.507530 28.094356
1752 584 2 0.4238 10.312287 5.086984 28.565748
1753 585 1 -0.8476 1.211619 29.427842 22.342042
1754 585 2 0.4238 1.072722 28.508322 22.220812
1755 585 2 0.4238 1.259652 29.644406 23.320787
1756 586 1 -0.8476 9.491389 26.127039 9.886896
1757 586 2 0.4238 9.211392 25.262311 10.117876
1758 586 2 0.4238 9.443001 26.252267 8.892348
1759 587 1 -0.8476 28.722762 5.549654 24.153572
1760 587 2 0.4238 28.278819 6.093897 23.532107
1761 587 2 0.4238 28.128573 5.368968 24.941887
1762 588 1 -0.8476 12.823905 18.162714 1.197567
1763 588 2 0.4238 12.498450 19.036868 1.294720
1764 588 2 0.4238 13.826630 18.160304 1.238620
1765 589 1 -0.8476 15.687942 23.964305 6.838813
1766 589 2 0.4238 15.098633 23.893607 6.112713
1767 589 2 0.4238 16.252917 24.788622 6.746866
1768 590 1 -0.8476 8.505365 4.835430 21.745014
1769 590 2 0.4238 9.231081 4.264998 21.910690
1770 590 2 0.4238 7.787934 4.690944 22.431720
1771 591 1 -0.8476 8.531392 5.713822 17.276447
1772 591 2 0.4238 8.385309 6.640082 17.290834
1773 591 2 0.4238 9.379086 5.504910 16.781553
1774 592 1 -0.8476 10.945249 17.718144 19.607244
1775 592 2 0.4238 10.807807 18.494159 19.098898
1776 592 2 0.4238 11.704488 17.854968 20.249104
1777 593 1 -0.8476 22.137151 24.382269 17.025683
1778 593 2 0.4238 21.214831 24.339887 16.861259
1779 593 2 0.4238 22.307010 24.669262 17.972220
1780 594 1 -0.8476 15.253349 29.200429 2.034800
1781 594 2 0.4238 15.088916 28.343589 1.690864
1782 594 2 0.4238 15.532774 29.139351 2.996746
1783 595 1 -0.8476 8.318477 22.911390 22.385870
1784 595 2 0.4238 9.109315 22.946937 22.888679
1785 595 2 0.4238 7.676720 22.257963 22.796151
1786 596 1 -0.8476 12.738796 12.660425 7.984448
1787 596 2 0.4238 13.639775 12.517842 8.202192
1788 596 2 0.4238 12.659088 12.989743 7.039808
1789 597 1 -0.8476 17.221518 0.880792 21.513834
1790 597 2 0.4238 17.952515 0.771493 22.091070
1791 597 2 0.4238 16.767770 -0.000918 21.359404
1792 598 1 -0.8476 11.094484 6.609797 11.733346
1793 598 2 0.4238 11.883248 7.053976 11.978420
1794 598 2 0.4238 11.244807 5.617597 11.723895
1795 599 1 -0.8476 12.209192 16.019599 1.241762
1796 599 2 0.4238 13.142867 15.990995 1.325049
1797 599 2 0.4238 11.776982 15.616483 2.052835
1798 600 1 -0.8476 20.076801 14.308842 25.003942
1799 600 2 0.4238 20.842790 13.828665 24.754549
1800 600 2 0.4238 19.689189 14.780056 24.207159

Bonds

1 1 1 2
2 1 1 3
3 1 4 5
4 1 4 6
5 1 7 8
6 1 7 9
7 1 10 11
8 1 10 12
9 1 13 14
10 1 13 15
11 1 16 17
12 1 16 18
13 1 19 20
14 1 19 21
15 1 22 23
16 1 22 24
17 1 25 26
18 1 25 27
19 1 28 29
20 1 28 30
21 1 31 32
22 1 31 33
23 1 34 35
24 1 34 36
25 1 37 38
26 1 37 39
27 1 40 41
28 1 40 42
29 1 43 44
30 1 43 45
31 1 46 47
32 1 46 48
33 1 49 50
34 1 49 51
35 1 52 53
36 1 52 54
37 1 55 56
38 1 55 57
39 1 58 59
40 1 58 60
41 1 61 62
42 1 61 63
43 1 64 65
44 1 64 66
45 1 67 68
46 1 67 69
47 1 70 71
48 1 70 72
49 1 73 74
50 1 73 75
51 1 76 77
52 1 76 78
53 1 79 80
54 1 79 81
55 1 82 83
56 1 82 84
57 1 85 86
58 1 85 87
59 1 88 89
60 1 88 90
61 1 91 92
62 1 91 93
63 1 94 95
64 1 94 96
65 1 97 98
66 1 97 99
67 1 100 101
68 1 100 102
69 1 103 104
70 1 103 105
71 1 106 107
72 1 106 108
73 1 109 110
74 1 109 111
75 1 112 113
76 1 112 114
77 1 115 116
78 1 115 117
79 1 118 119
80 1 118 120
81 1 121 122
82 1 121 123
83 1 124 125
84 1 124 126
85 1 127 128
86 1 127 129
87 1 130 131
88 1 130 132
89 1 133 134
90 1 133 135
91 1 136 137
92 1 136 138
93 1 139 140
94 1 139 141
95 1 142 143
96 1 142 144
97 1 145 146
98 1 145 147
99 1 148 149
100 1 148 150
101 1 151 152
102 1 151 153
103 1 154 155
104 1 154 156
105 1 157 158
106 1 157 159
107 1 160 161
108 1 160 162
109 1 163 164
110 1 163 165
111 1 166 167
112 1 166 168
113 1 169 170
114 1 169 171
115 1 172 173
116 1 172 174
117 1 175 176
118 1 175 177
119 1 178 179
120 1 178 180
121 1 181 182
122 1 181 183
123 1 184 185
124 1 184 186
125 1 187 188
126 1 187 189
127 1 190 191
128 1 190 192
129 1 193 194
130 1 193 195
131 1 196 197
132 1 196 198
133 1 199 200
134 1 199 201
135 1 202 203
136 1 202 204
137 1 205 206
138 1 205 207
139 1 208 209
140 1 208 210
141 1 211 212
142 1 211 213
143 1 214 215
144 1 214 216
145 1 217 218
146 1 217 219
147 1 220 221
148 1 220 222
149 1 223 224
150 1 223 225
151 1 226 227
152 1 226 228
153 1 229 230
154 1 229 231
155 1 232 233
156 1 232 234
157 1 235 236
158 1 235 237
159 1 238 239
160 1 238 240
161 1 241 242
162 1 241 243
163 1 244 245
164 1 244 246
165 1 247 248
166 1 247 249
167 1 250 251
168 1 250 252
169 1 253 254
170 1 253 255
171 1 256 257
172 1 256 258
173 1 259 260
174 1 259 261
175 1 262 263
176 1 262 264
177 1 265 266
178 1 265 267
179 1 268 269
180 1 268 270
181 1 271 272
182 1 271 273
183 1 274 275
184 1 274 276
185 1 277 278
186 1 277 279
187 1 280 281
188 1 280 282
189 1 283 284
190 1 283 285
191 1 286 287
192 1 286 288
193 1 289 290
194 1 289 291
195 1 292 293
196 1 292 294
197 1 295 296
198 1 295 297
199 1 298 299
200 1 298 300
201 1 301 302
202 1 301 303
203 1 304 305
204 1 304 306
205 1 307 308
206 1 307 309
207 1 310 311
208 1 310 312
209 1 313 314
210 1 313 315
211 1 316 317
212 1 316 318
213 1 319 320
214 1 319 321
215 1 322 323
216 1 322 324
217 1 325 326
218 1 325 327
219 1 328 329
220 1 328 330
221 1 331 332
222 1 331 333
223 1 334 335
224 1 334 336
225 1 337 338
226 1 337 339
227 1 340 341
228 1 340 342
229 1 343 344
230 1 343 345
231 1 346 347
232 1 346 348
233 1 349 350
234 1 349 351
235 1 352 353
236 1 352 354
237 1 355 356
238 1 355 357
239 1 358 359
240 1 358 360
241 1 361 362
242 1 361 363
243 1 364 365
244 1 364 366
245 1 367 368
246 1 367 369
247 1 370 371
248 1 370 372
249 1 373 374
250 1 373 375
251 1 376 377
252 1 376 378
253 1 379 380
254 1 379 381
255 1 382 383
256 1 382 384
257 1 385 386
258 1 385 387
259 1 388 389
260 1 388 390
261 1 391 392
262 1 391 393
263 1 394 395
264 1 394 396
265 1 397 398
266 1 397 399
267 1 400 401
268 1 400 402
269 1 403 404
270 1 403 405
271 1 406 407
272 1 406 408
273 1 409 410
274 1 409 411
275 1 412 413
276 1 412 414
277 1 415 416
278 1 415 417
279 1 418 419
280 1 418 420
281 1 421 422
282 1 421 423
283 1 424 425
284 1 424 426
285 1 427 428
286 1 427 429
287 1 430 431
288 1 430 432
289 1 433 434
290 1 433 435
291 1 436 437
292 1 436 438
293 1 439 440
294 1 439 441
295 1 442 443
296 1 442 444
297 1 445 446
298 1 445 447
299 1 448 449
300 1 448 450
301 1 451 452
302 1 451 453
303 1 454 455
304 1 454 456
305 1 457 458
306 1 457 459
307 1 460 461
308 1 460 462
309 1 463 464
310 1 463 465
311 1 466 467
312 1 466 468
313 1 469 470
314 1 469 471
315 1 472 473
316 1 472 474
317 1 475 476
318 1 475 477
319 1 478 479
320 1 478 480
321 1 481 482
322 1 481 483
323 1 484 485
324 1 484 486
325 1 487 488
326 1 487 489
327 1 490 491
328 1 490 492
329 1 493 494
330 1 493 495
331 1 496 497
332 1 496 498
333 1 499 500
334 1 499 501
335 1 502 503
336 1 502 504
337 1 505 506
338 1 505 507
339 1 508 509
340 1 508 510
341 1 511 512
342 1 511 513
343 1 514 515
344 1 514 516
345 1 517 518
346 1 517 519
347 1 520 521
348 1 520 522
349 1 523 524
350 1 523 525
351 1 526 527
352 1 526 528
353 1 529 530
354 1 529 531
355 1 532 533
356 1 532 534
357 1 535 536
358 1 535 537
359 1 538 539
360 1 538 540
361 1 541 542
362 1 541 543
363 1 544 545
364 1 544 546
365 1 547 548
366 1 547 549
367 1 550 551
368 1 550 552
369 1 553 554
370 1 553 555
371 1 556 557
372 1 556 558
373 1 559 560
374 1 559 561
375 1 562 563
376 1 562 564
377 1 565 566
378 1 565 567
379 1 568 569
380 1 568 570
381 1 571 572
382 1 571 573
383 1 574 575
384 1 574 576
385 1 577 578
386 1 577 579
387 1 580 581
388 1 580 582
389 1 583 584
390 1 583 585
391 1 586 587
392 1 586 588
393 1 589 590
394 1 589 591
395 1 592 593
396 1 592 594
397 1 595 596
398 1 595 597
399 1 598 599
400 1 598 600
401 1 601 602
402 1 601 603
403 1 604 605
404 1 604 606
405 1 607 608
406 1 607 609
407 1 610 611
408 1 610 612
409 1 613 614
410 1 613 615
411 1 616 617
412 1 616 618
413 1 619 620
414 1 619 621
415 1 622 623
416 1 622 624
417 1 625 626
418 1 625 627
419 1 628 629
420 1 628 630
421 1 631 632
422 1 631 633
423 1 634 635
424 1 634 636
425 1 637 638
426 1 637 639
427 1 640 641
428 1 640 642
429 1 643 644
430 1 643 645
431 1 646 647
432 1 646 648
433 1 649 650
434 1 649 651
435 1 652 653
436 1 652 654
437 1 655 656
438 1 655 657
439 1 658 659
440 1 658 660
441 1 661 662
442 1 661 663
443 1 664 665
444 1 664 666
445 1 667 668
446 1 667 669
447 1 670 671
448 1 670 672
449 1 673 674
450 1 673 675
451 1 676 677
452 1 676 678
453 1 679 680
454 1 679 681
455 1 682 683
456 1 682 684
457 1 685 686
458 1 685 687
459 1 688 689
460 1 688 690
461 1 691 692
462 1 691 693
463 1 694 695
464 1 694 696
465 1 697 698
466 1 697 699
467 1 700 701
468 1 700 702
469 1 703 704
470 1 703 705
471 1 706 707
472 1 706 708
473 1 709 710
474 1 709 711
475 1 712 713
476 1 712 714
477 1 715 716
478 1 715 717
479 1 718 719
480 1 718 720
481 1 721 722
482 1 721 723
483 1 724 725
484 1 724 726
485 1 727 728
486 1 727 729
487 1 730 731
488 1 730 732
489 1 733 734
490 1 733 735
491 1 736 737
492 1 736 738
493 1 739 740
494 1 739 741
495 1 742 743
496 1 742 744
497 1 745 746
498 1 745 747
499 1 748 749
500 1 748 750
501 1 751 752
502 1 751 753
503 1 754 755
504 1 754 756
505 1 757 758
506 1 757 759
507 1 760 761
508 1 760 762
509 1 763 764
510 1 763 765
511 1 766 767
512 1 766 768
513 1 769 770
514 1 769 771
515 1 772 773
516 1 772 774
517 1 775 776
518 1 775 777
519 1 778 779
520 1 778 780
521 1 781 782
522 1 781 783
523 1 784 785
524 1 784 786
525 1 787 788
526 1 787 789
527 1 790 791
528 1 790 792
529 1 793 794
530 1 793 795
531 1 796 797
532 1 796 798
533 1 799 800
534 1 799 801
535 1 802 803
536 1 802 804
537 1 805 806
538 1 805 807
539 1 808 809
540 1 808 810
541 1 811 812
542 1 811 813
543 1 814 815
544 1 814 816
545 1 817 818
546 1 817 819
547 1 820 821
548 1 820 822
549 1 823 824
550 1 823 825
551 1 826 827
552 1 826 828
553 1 829 830
554 1 829 831
555 1 832 833
556 1 832 834
557 1 835 836
558 1 835 837
559 1 838 839
560 1 838 840
561 1 841 842
562 1 841 843
563 1 844 845
564 1 844 846
565 1 847 848
566 1 847 849
567 1 850 851
568 1 850 852
569 1 853 854
570 1 853 855
571 1 856 857
572 1 856 858
573 1 859 860
574 1 859 861
575 1 862 863
576 1 862 864
577 1 865 866
578 1 865 867
579 1 868 869
580 1 868 870
581 1 871 872
582 1 871 873
583 1 874 875
584 1 874 876
585 1 877 878
586 1 877 879
587 1 880 881
588 1 880 882
589 1 883 884
590 1 883 885
591 1 886 887
592 1 886 888
593 1 889 890
594 1 889 891
595 1 892 893
596 1 892 894
597 1 895 896
598 1 895 897
599 1 898 899
600 1 898 900
601 1 901 902
602 1 901 903
603 1 904 905
604 1 904 906
605 1 907 908
606 1 907 909
607 1 910 911
608 1 910 912
609 1 913 914
610 1 913 915
611 1 916 917
612 1 916 918
613 1 919 920
614 1 919 921
615 1 922 923
616 1 922 924
617 1 925 926
618 1 925 927
619 1 928 929
620 1 928 930
621 1 931 932
622 1 931 933
623 1 934 935
624 1 934 936
625 1 937 938
626 1 937 939
627 1 940 941
628 1 940 942
629 1 943 944
630 1 943 945
631 1 946 947
632 1 946 948
633 1 949 950
634 1 949 951
635 1 952 953
636 1 952 954
637 1 955 956
638 1 955 957
639 1 958 959
640 1 958 960
641 1 961 962
642 1 961 963
643 1 964 965
644 1 964 966
645 1 967 968
646 1 967 969
647 1 970 971
648 1 970 972
649 1 973 974
650 1 973 975
651 1 976 977
652 1 976 978
653 1 979 980
654 1 979 981
655 1 982 983
656 1 982 984
657 1 985 986
658 1 985 987
659 1 988 989
660 1 988 990
661 1 991 992
662 1 991 993
663 1 994 995
664 1 994 996
665 1 997 998
666 1 997 999
667 1 1000 1001
668 1 1000 1002
669 1 1003 1004
670 1 1003 1005
671 1 1006 1007
672 1 1006 1008
673 1 1009 1010
674 1 1009 1011
675 1 1012 1013
676 1 1012 1014
677 1 1015 1016
678 1 1015 1017
679 1 1018 1019
680 1 1018 1020
681 1 1021 1022
682 1 1021 1023
683 1 1024 1025
684 1 1024 1026
685 1 1027 1028
686 1 1027 1029
687 1 1030 1031
688 1 1030 1032
689 1 1033 1034
690 1 1033 1035
691 1 1036 1037
692 1 1036 1038
693 1 1039 1040
694 1 1039 1041
695 1 1042 1043
696 1 1042 1044
697 1 1045 1046
698 1 1045 1047
699 1 1048 1049
700 1 1048 1050
701 1 1051 1052
702 1 1051 1053
703 1 1054 1055
704 1 1054 1056
705 1 1057 1058
706 1 1057 1059
707 1 1060 1061
708 1 1060 1062
709 1 1063 1064
710 1 1063 1065
711 1 1066 1067
712 1 1066 1068
713 1 1069 1070
714 1 1069 1071
715 1 1072 1073
716 1 1072 1074
717 1 1075 1076
718 1 1075 1077
719 1 1078 1079
720 1 1078 1080
721 1 1081 1082
722 1 1081 1083
723 1 1084 1085
724 1 1084 1086
725 1 1087 1088
726 1 1087 1089
727 1 1090 1091
728 1 1090 1092
729 1 1093 1094
730 1 1093 1095
731 1 1096 1097
732 1 1096 1098
733 1 1099 1100
734 1 1099 1101
735 1 1102 1103
736 1 1102 1104
737 1 1105 1106
738 1 1105 1107
739 1 1108 1109
740 1 1108 1110
741 1 1111 1112
742 1 1111 1113
743 1 1114 1115
744 1 1114 1116
745 1 1117 1118
746 1 1117 1119
747 1 1120 1121
748 1 1120 1122
749 1 1123 1124
750 1 1123 1125
751 1 1126 1127
752 1 1126 1128
753 1 1129 1130
754 1 1129 1131
755 1 1132 1133
756 1 1132 1134
757 1 1135 1136
758 1 1135 1137
759 1 1138 1139
760 1 1138 1140
761 1 1141 1142
762 1 1141 1143
763 1 1144 1145
764 1 1144 1146
765 1 1147 1148
766 1 1147 1149
767 1 1150 1151
768 1 1150 1152
769 1 1153 1154
770 1 1153 1155
771 1 1156 1157
772 1 1156 1158
773 1 1159 1160
774 1 1159 1161
775 1 1162 1163
776 1 1162 1164
777 1 1165 1166
778 1 1165 1167
779 1 1168 1169
780 1 1168 1170
781 1 1171 1172
782 1 1171 1173
783 1 1174 1175
784 1 1174 1176
785 1 1177 1178
786 1 1177 1179
787 1 1180 1181
788 1 1180 1182
789 1 1183 1184
790 1 1183 1185
791 1 1186 1187
792 1 1186 1188
793 1 1189 1190
794 1 1189 1191
795 1 1192 1193
796 1 1192 1194
797 1 1195 1196
798 1 1195 1197
799 1 1198 1199
800 1 1198 1200
801 1 1201 1202
802 1 1201 1203
803 1 1204 1205
804 1 1204 1206
805 1 1207 1208
806 1 1207 1209
807 1 1210 1211
808 1 1210 1212
809 1 1213 1214
810 1 1213 1215
811 1 1216 1217
812 1 1216 1218
813 1 1219 1220
814 1 1219 1221
815 1 1222 1223
816 1 1222 1224
817 1 1225 1226
818 1 1225 1227
819 1 1228 1229
820 1 1228 1230
821 1 1231 1232
822 1 1231 1233
823 1 1234 1235
824 1 1234 1236
825 1 1237 1238
826 1 1237 1239
827 1 1240 1241
828 1 1240 1242
829 1 1243 1244
830 1 1243 1245
831 1 1246 1247
832 1 1246 1248
833 1 1249 1250
834 1 1249 1251
835 1 1252 1253
836 1 1252 1254
837 1 1255 1256
838 1 1255 1257
839 1 1258 1259
840 1 1258 1260
841 1 1261 1262
842 1 1261 1263
843 1 1264 1265
844 1 1264 1266
845 1 1267 1268
846 1 1267 1269
847 1 1270 1271
848 1 1270 1272
849 1 1273 1274
850 1 1273 1275
851 1 1276 1277
852 1 1276 1278
853 1 1279 1280
854 1 1279 1281
855 1 1282 1283
856 1 1282 1284
857 1 1285 1286
858 1 1285 1287
859 1 1288 1289
860 1 1288 1290
861 1 1291 1292
862 1 1291 1293
863 1 1294 1295
864 1 1294 1296
865 1 1297 1298
866 1 1297 1299
867 1 1300 1301
868 1 1300 1302
869 1 1303 1304
870 1 1303 1305
871 1 1306 1307
872 1 1306 1308
873 1 1309 1310
874 1 1309 1311
875 1 1312 1313
876 1 1312 1314
877 1 1315 1316
878 1 1315 1317
879 1 1318 1319
880 1 1318 1320
881 1 1321 1322
882 1 1321 1323
883 1 1324 1325
884 1 1324 1326
885 1 1327 1328
886 1 1327 1329
887 1 1330 1331
888 1 1330 1332
889 1 1333 1334
890 1 1333 1335
891 1 1336 1337
892 1 1336 1338
893 1 1339 1340
894 1 1339 1341
895 1 1342 1343
896 1 1342 1344
897 1 1345 1346
898 1 1345 1347
899 1 1348 1349
900 1 1348 1350
901 1 1351 1352
902 1 1351 1353
903 1 1354 1355
904 1 1354 1356
905 1 1357 1358
906 1 1357 1359
907 1 1360 1361
908 1 1360 1362
909 1 1363 1364
910 1 1363 1365
911 1 1366 1367
912 1 1366 1368
913 1 1369 1370
914 1 1369 1371
915 1 1372 1373
916 1 1372 1374
917 1 1375 1376
918 1 1375 1377
919 1 1378 1379
920 1 1378 1380
921 1 1381 1382
922 1 1381 1383
923 1 1384 1385
924 1 1384 1386
925 1 1387 1388
926 1 1387 1389
927 1 1390 1391
928 1 1390 1392
929 1 1393 1394
930 1 1393 1395
931 1 1396 1397
932 1 1396 1398
933 1 1399 1400
934 1 1399 1401
935 1 1402 1403
936 1 1402 1404
937 1 1405 1406
938 1 1405 1407
939 1 1408 1409
940 1 1408 1410
941 1 1411 1412
942 1 1411 1413
943 1 1414 1415
944 1 1414 1416
945 1 1417 1418
946 1 1417 1419
947 1 1420 1421
948 1 1420 1422
949 1 1423 1424
950 1 1423 1425
951 1 1426 1427
952 1 1426 1428
953 1 1429 1430
954 1 1429 1431
955 1 1432 1433
956 1 1432 1434
957 1 1435 1436
958 1 1435 1437
959 1 1438 1439
960 1 1438 1440
961 1 1441 1442
962 1 1441 1443
963 1 1444 1445
964 1 1444 1446
965 1 1447 1448
966 1 1447 1449
967 1 1450 1451
968 1 1450 1452
969 1 1453 1454
970 1 1453 1455
971 1 1456 1457
972 1 1456 1458
973 1 1459 1460
974 1 1459 1461
975 1 1462 1463
976 1 1462 1464
977 1 1465 1466
978 1 1465 1467
979 1 1468 1469
980 1 1468 1470
981 1 1471 1472
982 1 1471 1473
983 1 1474 1475
984 1 1474 1476
985 1 1477 1478
986 1 1477 1479
987 1 1480 1481
988 1 1480 1482
989 1 1483 1484
990 1 1483 1485
991 1 1486 1487
992 1 1486 1488
993 1 1489 1490
994 1 1489 1491
995 1 1492 1493
996 1 1492 1494
997 1 1495 1496
998 1 1495 1497
999 1 1498 1499
1000 1 1498 1500
1001 1 1501 1502
1002 1 1501 1503
1003 1 1504 1505
1004 1 1504 1506
1005 1 1507 1508
1006 1 1507 1509
1007 1 1510 1511
1008 1 1510 1512
1009 1 1513 1514
1010 1 1513 1515
1011 1 1516 1517
1012 1 1516 1518
1013 1 1519 1520
1014 1 1519 1521
1015 1 1522 1523
1016 1 1522 1524
1017 1 1525 1526
1018 1 1525 1527
1019 1 1528 1529
1020 1 1528 1530
1021 1 1531 1532
1022 1 1531 1533
1023 1 1534 1535
1024 1 1534 1536
1025 1 1537 1538
1026 1 1537 1539
1027 1 1540 1541
1028 1 1540 1542
1029 1 1543 1544
1030 1 1543 1545
1031 1 1546 1547
1032 1 1546 1548
1033 1 1549 1550
1034 1 1549 1551
1035 1 1552 1553
1036 1 1552 1554
1037 1 1555 1556
1038 1 1555 1557
1039 1 1558 1559
1040 1 1558 1560
1041 1 1561 1562
1042 1 1561 1563
1043 1 1564 1565
1044 1 1564 1566
1045 1 1567 1568
1046 1 1567 1569
1047 1 1570 1571
1048 1 1570 1572
1049 1 1573 1574
1050 1 1573 1575
1051 1 1576 1577
1052 1 1576 1578
1053 1 1579 1580
1054 1 1579 1581
1055 1 1582 1583
1056 1 1582 1584
1057 1 1585 1586
1058 1 1585 1587
1059 1 1588 1589
1060 1 1588 1590
1061 1 1591 1592
1062 1 1591 1593
1063 1 1594 1595
1064 1 1594 1596
1065 1 1597 1598
1066 1 1597 1599
1067 1 1600 1601
1068 1 1600 1602
1069 1 1603 1604
1070 1 1603 1605
1071 1 1606 1607
1072 1 1606 1608
1073 1 1609 1610
1074 1 1609 1611
1075 1 1612 1613
1076 1 1612 1614
1077 1 1615 1616
1078 1 1615 1617
1079 1 1618 1619
1080 1 1618 1620
1081 1 1621 1622
1082 1 1621 1623
1083 1 1624 1625
1084 1 1624 1626
1085 1 1627 1628
1086 1 1627 1629
1087 1 1630 1631
1088 1 1630 1632
1089 1 1633 1634
1090 1 1633 1635
1091 1 1636 1637
1092 1 1636 1638
1093 1 1639 1640
1094 1 1639 1641
1095 1 1642 1643
1096 1 1642 1644
1097 1 1645 1646
1098 1 1645 1647
1099 1 1648 1649
1100 1 1648 1650
1101 1 1651 1652
1102 1 1651 1653
1103 1 1654 1655
1104 1 1654 1656
1105 1 1657 1658
1106 1 1657 1659
1107 1 1660 1661
1108 1 1660 1662
1109 1 1663 1664
1110 1 1663 1665
1111 1 1666 1667
1112 1 1666 1668
1113 1 1669 1670
1114 1 1669 1671
1115 1 1672 1673
1116 1 1672 1674
1117 1 1675 1676
1118 1 1675 1677
1119 1 1678 1679
1120 1 1678 1680
1121 1 1681 1682
1122 1 1681 1683
1123 1 1684 1685
1124 1 1684 1686
1125 1 1687 1688
1126 1 1687 1689
1127 1 1690 1691
1128 1 1690 1692
1129 1 1693 1694
1130 1 1693 1695
1131 1 1696 1697
1132 1 1696 1698
1133 1 1699 1700
1134 1 1699 1701
1135 1 1702 1703
1136 1 1702 1704
1137 1 1705 1706
1138 1 1705 1707
1139 1 1708 1709
1140 1 1708 1710
1141 1 1711 1712
1142 1 1711 1713
1143 1 1714 1715
1144 1 1714 1716
1145 1 1717 1718
1146 1 1717 1719
1147 1 1720 1721
1148 1 1720 1722
1149 1 1723 1724
1150 1 1723 1725
1151 1 1726 1727
1152 1 1726 1728
1153 1 1729 1730
1154 1 1729 1731
1155 1 1732 1733
1156 1 1732 1734
1157 1 1735 1736
1158 1 1735 1737
1159 1 1738 1739
1160 1 1738 1740
1161 1 1741 1742
1162 1 1741 1743
1163 1 1744 1745
1164 1 1744 1746
1165 1 1747 1748
1166 1 1747 1749
1167 1 1750 1751
1168 1 1750 1752
1169 1 1753 1754
1170 1 1753 1755
1171 1 1756 1757
1172 1 1756 1758
1173 1 1759 1760
1174 1 1759 1761
1175 1 1762 1763
1176 1 1762 1764
1177 1 1765 1766
1178 1 1765 1767
1179 1 1768 1769
1180 1 1768 1770
1181 1 1771 1772
1182 1 1771 1773
1183 1 1774 1775
1184 1 1774 1776
1185 1 1777 1778
1186 1 1777 1779
1187 1 1780 1781
1188 1 1780 1782
1189 1 1783 1784
1190 1 1783 1785
1191 1 1786 1787
1192 1 1786 1788
1193 1 1789 1790
1194 1 1789 1791
1195 1 1792 1793
1196 1 1792 1794
1197 1 1795 1796
1198 1 1795 1797
1199 1 1798 1799
1200 1 1798 1800

Angles

1 1 2 1 3
2 1 5 4 6
3 1 8 7 9
4 1 11 10 12
5 1 14 13 15
6 1 17 16 18
7 1 20 19 21
8 1 23 22 24
9 1 26 25 27
10 1 29 28 30
11 1 32 31 33
12 1 35 34 36
13 1 38 37 39
14 1 41 40 42
15 1 44 43 45
16 1 47 46 48
17 1 50 49 51
18 1 53 52 54
19 1 56 55 57
20 1 59 58 60
21 1 62 61 63
22 1 65 64 66
23 1 68 67 69
24 1 71 70 72
25 1 74 73 75
26 1 77 76 78
27 1 80 79 81
28 1 83 82 84
29 1 86 85 87
30 1 89 88 90
31 1 92 91 93
32 1 95 94 96
33 1 98 97 99
34 1 101 100 102
35 1 104 103 105
36 1 107 106 108
37 1 110 109 111
38 1 113 112 114
39 1 116 115 117
40 1 119 118 120
41 1 122 121 123
42 1 125 124 126
43 1 128 127 129
44 1 131 130 132
45 1 134 133 135
46 1 137 136 138
47 1 140 139 141
48 1 143 142 144
49 1 146 145 147
50 1 149 148 150
51 1 152 151 153
52 1 155 154 156
53 1 158 157 159
54 1 161 160 162
55 1 164 163 165
56 1 167 166 168
57 1 170 169 171
58 1 173 172 174
59 1 176 175 177
60 1 179 178 180
61 1 182 181 183
62 1 185 184 186
63 1 188 187 189
64 1 191 190 192
65 1 194 193 195
66 1 197 196 198
67 1 200 199 201
68 1 203 202 204
69 1 206 205 207
70 1 209 208 210
71 1 212 211 213
72 1 215 214 216
73 1 218 217 219
74 1 221 220 222
75 1 224 223 225
76 1 227 226 228
77 1 230 229 231
78 1 233 232 234
79 1 236 235 237
80 1 239 238 240
81 1 242 241 243
82 1 245 244 246
83 1 248 247 249
84 1 251 250 252
85 1 254 253 255
86 1 257 256 258
87 1 260 259 261
88 1 263 262 264
89 1 266 265 267
90 1 269 268 270
91 1 272 271 273
92 1 275 274 276
93 1 278 277 279
94 1 281 280 282
95 1 284 283 285
96 1 287 286 288
97 1 290 289 291
98 1 293 292 294
99 1 296 295 297
100 1 299 298 300
101 1 302 301 303
102 1 305 304 306
103 1 308 307 309
104 1 311 310 312
105 1 314 313 315
106 1 317 316 318
107 1 320 319 321
108 1 323 322 324
109 1 326 325 327
110 1 329 328 330
111 1 332 331 333
112 1 335 334 336
113 1 338 337 339
114 1 341 340 342
115 1 344 343 345
116 1 347 346 348
117 1 350 349 351
118 1 353 352 354
119 1 356 355 357
120 1 359 358 360
121 1 362 361 363
122 1 365 364 366
123 1 368 367 369
124 1 371 370 372
125 1 374 373 375
126 1 377 376 378
127 1 380 379 381
128 1 383 382 384
129 1 386 385 387
130 1 389 388 390
131 1 392 391 393
132 1 395 394 396
133 1 398 397 399
134 1 401 400 402
135 1 404 403 405
136 1 407 406 408
137 1 410 409 411
138 1 413 412 414
139 1 416 415 417
140 1 419 418 420
141 1 422 421 423
142 1 425 424 426
143 1 428 427 429
144 1 431 430 432
145 1 434 433 435
146 1 437 436 438
147 1 440 439 441
148 1 443 442 444
149 1 446 445 447
150 1 449 448 450
151 1 452 451 453
152 1 455 454 456
153 1 458 457 459
154 1 461 460 462
155 1 464 463 465
156 1 467 466 468
157 1 470 469 471
158 1 473 472 474
159 1 476 475 477
160 1 479 478 480
161 1 482 481 483
162 1 485 484 486
163 1 488 487 489
164 1 491 490 492
165 1 494 493 495
166 1 497 496 498
167 1 500 499 501
168 1 503 502 504
169 1 506 505 507
170 1 509 508 510
171 1 512 511 513
172 1 515 514 516
173 1 518 517 519
174 1 521 520 522
175 1 524 523 525
176 1 527 526 528
177 1 530 529 531
178 1 533 532 534
179 1 536 535 537
180 1 539 538 540
181 1 542 541 543
182 1 545 544 546
183 1 548 547 549
184 1 551 550 552
185 1 554 553 555
186 1 557 556 558
187 1 560 559 561
188 1 563 562 564
189 1 566 565 567
190 1 569 568 570
191 1 572 571 573
192 1 575 574 576
193 1 578 577 579
194 1 581 580 582
195 1 584 583 585
196 1 587 586 588
197 1 590 589 591
198 1 593 592 594
199 1 596 595 597
200 1 599 598 600
201 1 602 601 603
202 1 605 604 606
203 1 608 607 609
204 1 611 610 612
205 1 614 613 615
206 1 617 616 618
207 1 620 619 621
208 1 623 622 624
209 1 626 625 627
210 1 629 628 630
211 1 632 631 633
212 1 635 634 636
213 1 638 637 639
214 1 641 640 642
215 1 644 643 645
216 1 647 646 648
217 1 650 649 651
218 1 653 652 654
219 1 656 655 657
220 1 659 658 660
221 1 662 661 663
222 1 665 664 666
223 1 668 667 669
224 1 671 670 672
225 1 674 673 675
226 1 677 676 678
227 1 680 679 681
228 1 683 682 684
229 1 686 685 687
230 1 689 688 690
231 1 692 691 693
232 1 695 694 696
233 1 698 697 699
234 1 701 700 702
235 1 704 703 705
236 1 707 706 708
237 1 710 709 711
238 1 713 712 714
239 1 716 715 717
240 1 719 718 720
241 1 722 721 723
242 1 725 724 726
243 1 728 727 729
244 1 731 730 732
245 1 734 733 735
246 1 737 736 738
247 1 740 739 741
248 1 743 742 744
249 1 746 745 747
250 1 749 748 750
251 1 752 751 753
252 1 755 754 756
253 1 758 757 759
254 1 761 760 762
255 1 764 763 765
256 1 767 766 768
257 1 770 769 771
258 1 773 772 774
259 1 776 775 777
260 1 779 778 780
261 1 782 781 783
262 1 785 784 786
263 1 788 787 789
264 1 791 790 792
265 1 794 793 795
266 1 797 796 798
267 1 800 799 801
268 1 803 802 804
269 1 806 805 807
270 1 809 808 810
271 1 812 811 813
272 1 815 814 816
273 1 818 817 819
274 1 821 820 822
275 1 824 823 825
276 1 827 826 828
277 1 830 829 831
278 1 833 832 834
279 1 836 835 837
280 1 839 838 840
281 1 842 841 843
282 1 845 844 846
283 1 848 847 849
284 1 851 850 852
285 1 854 853 855
286 1 857 856 858
287 1 860 859 861
288 1 863 862 864
289 1 866 865 867
290 1 869 868 870
291 1 872 871 873
292 1 875 874 876
293 1 878 877 879
294 1 881 880 882
295 1 884 883 885
296 1 887 886 888
297 1 890 889 891
298 1 893 892 894
299 1 896 895 897
300 1 899 898 900
301 1 902 901 903
302 1 905 904 906
303 1 908 907 909
304 1 911 910 912
305 1 914 913 915
306 1 917 916 918
307 1 920 919 921
308 1 923 922 924
309 1 926 925 927
310 1 929 928 930
311 1 932 931 933
312 1 935 934 936
313 1 938 937 939
314 1 941 940 942
315 1 944 943 945
316 1 947 946 948
317 1 950 949 951
318 1 953 952 954
319 1 956 955 957
320 1 959 958 960
321 1 962 961 963
322 1 965 964 966
323 1 968 967 969
324 1 971 970 972
325 1 974 973 975
326 1 977 976 978
327 1 980 979 981
328 1 983 982 984
329 1 986 985 987
330 1 989 988 990
331 1 992 991 993
332 1 995 994 996
333 1 998 997 999
334 1 1001 1000 1002
335 1 1004 1003 1005
336 1 1007 1006 1008
337 1 1010 1009 1011
338 1 1013 1012 1014
339 1 1016 1015 1017
340 1 1019 1018 1020
341 1 1022 1021 1023
342 1 1025 1024 1026
343 1 1028 1027 1029
344 1 1031 1030 1032
345 1 1034 1033 1035
346 1 1037 1036 1038
347 1 1040 1039 1041
348 1 1043 1042 1044
349 1 1046 1045 1047
350 1 1049 1048 1050
351 1 1052 1051 1053
352 1 1055 1054 1056
353 1 1058 1057 1059
354 1 1061 1060 1062
355 1 1064 1063 1065
356 1 1067 1066 1068
357 1 1070 1069 1071
358 1 1073 1072 1074
359 1 1076 1075 1077
360 1 1079 1078 1080
361 1 1082 1081 1083
362 1 1085 1084 1086
363 1 1088 1087 1089
364 1 1091 1090 1092
365 1 1094 1093 1095
366 1 1097 1096 1098
367 1 1100 1099 1101
368 1 1103 1102 1104
369 1 1106 1105 1107
370 1 1109 1108 1110
371 1 1112 1111 1113
372 1 1115 1114 1116
373 1 1118 1117 1119
374 1 1121 1120 1122
375 1 1124 1123 1125
376 1 1127 1126 1128
377 1 1130 1129 1131
378 1 1133 1132 1134
379 1 1136 1135 1137
380 1 1139 1138 1140
381 1 1142 1141 1143
382 1 1145 1144 1146
383 1 1148 1147 1149
384 1 1151 1150 1152
385 1 1154 1153 1155
386 1 1157 1156 1158
387 1 1160 1159 1161
388 1 1163 1162 1164
389 1 1166 1165 1167
390 1 1169 1168 1170
391 1 1172 1171 1173
392 1 1175 1174 1176
393 1 1178 1177 1179
394 1 1181 1180 1182
395 1 1184 1183 1185
396 1 1187 1186 1188
397 1 1190 1189 1191
398 1 1193 1192 1194
399 1 1196 1195 1197
400 1 1199 1198 1200
401 1 1202 1201 1203
402 1 1205 1204 1206
403 1 1208 1207 1209
404 1 1211 1210 1212
405 1 1214 1213 1215
406 1 1217 1216 1218
407 1 1220 1219 1221
408 1 1223 1222 1224
409 1 1226 1225 1227
410 1 1229 1228 1230
411 1 1232 1231 1233
412 1 1235 1234 1236
413 1 1238 1237 1239
414 1 1241 1240 1242
415 1 1244 1243 1245
416 1 1247 1246 1248
417 1 1250 1249 1251
418 1 1253 1252 1254
419 1 1256 1255 1257
420 1 1259 1258 1260
421 1 1262 1261 1263
422 1 1265 1264 1266
423 1 1268 1267 1269
424 1 1271 1270 1272
425 1 1274 1273 1275
426 1 1277 1276 1278
427 1 1280 1279 1281
428 1 1283 1282 1284
429 1 1286 1285 1287
430 1 1289 1288 1290
431 1 1292 1291 1293
432 1 1295 1294 1296
433 1 1298 1297 1299
434 1 1301 1300 1302
435 1 1304 1303 1305
436 1 1307 1306 1308
437 1 1310 1309 1311
438 1 1313 1312 1314
439 1 1316 1315 1317
440 1 1319 1318 1320
441 1 1322 1321 1323
442 1 1325 1324 1326
443 1 1328 1327 1329
444 1 1331 1330 1332
445 1 1334 1333 1335
446 1 1337 1336 1338
447 1 1340 1339 1341
448 1 1343 1342 1344
449 1 1346 1345 1347
450 1 1349 1348 1350
451 1 1352 1351 1353
452 1 1355 1354 1356
453 1 1358 1357 1359
454 1 1361 1360 1362
455 1 1364 1363 1365
456 1 1367 1366 1368
457 1 1370 1369 1371
458 1 1373 1372 1374
459 1 1376 1375 1377
460 1 1379 1378 1380
461 1 1382 1381 1383
462 1 1385 1384 1386
463 1 1388 1387 1389
464 1 1391 1390 1392
465 1 1394 1393 1395
466 1 1397 1396 1398
467 1 1400 1399 1401
468 1 1403 1402 1404
469 1 1406 1405 1407
470 1 1409 1408 1410
471 1 1412 1411 1413
472 1 1415 1414 1416
473 1 1418 1417 1419
474 1 1421 1420 1422
475 1 1424 1423 1425
476 1 1427 1426 1428
477 1 1430 1429 1431
478 1 1433 1432 1434
479 1 1436 1435 1437
480 1 1439 1438 1440
481 1 1442 1441 1443
482 1 1445 1444 1446
483 1 1448 1447 1449
484 1 1451 1450 1452
485 1 1454 1453 1455
486 1 1457 1456 1458
487 1 1460 1459 1461
488 1 1463 1462 1464
489 1 1466 1465 1467
490 1 1469 1468 1470
491 1 1472 1471 1473
492 1 1475 1474 1476
493 1 1478 1477 1479
494 1 1481 1480 1482
495 1 1484 1483 1485
496 1 1487 1486 1488
497 1 1490 1489 1491
498 1 1493 1492 1494
499 1 1496 1495 1497
500 1 1499 1498 1500
501 1 1502 1501 1503
502 1 1505 1504 1506
503 1 1508 1507 1509
504 1 1511 1510 1512
505 1 1514 1513 1515
506 1 1517 1516 1518
507 1 1520 1519 1521
508 1 1523 1522 1524
509 1 1526 1525 1527
510 1 1529 1528 1530
511 1 1532 1531 1533
512 1 1535 1534 1536
513 1 1538 1537 1539
514 1 1541 1540 1542
515 1 1544 1543 1545
516 1 1547 1546 1548
517 1 1550 1549 1551
518 1 1553 1552 1554
519 1 1556 1555 1557
520 1 1559 1558 1560
521 1 1562 1561 1563
522 1 1565 1564 1566
523 1 1568 1567 1569
524 1 1571 1570 1572
525 1 1574 1573 1575
526 1 1577 1576 1578
527 1 1580 1579 1581
528 1 1583 1582 1584
529 1 1586 1585 1587
530 1 1589 1588 1590
531 1 1592 1591 1593
532 1 1595 1594 1596
533 1 1598 1597 1599
534 1 1601 1600 1602
535 1 1604 1603 1605
536 1 1607 1606 1608
537 1 1610 1609 1611
538 1 1613 1612 1614
539 1 1616 1615 1617
540 1 1619 1618 1620
541 1 1622 1621 1623
542 1 1625 1624 1626
543 1 1628 1627 1629
544 1 1631 1630 1632
545 1 1634 1633 1635
546 1 1637 1636 1638
547 1 1640 1639 1641
548 1 1643 1642 1644
549 1 1646 1645 1647
550 1 1649 1648 1650
551 1 1652 1651 1653
552 1 1655 1654 1656
553 1 1658 1657 1659
554 1 1661 1660 1662
555 1 1664 1663 1665
556 1 1667 1666 1668
557 1 1670 1669 1671
558 1 1673 1672 1674
559 1 1676 1675 1677
560 1 1679 1678 1680
561 1 1682 1681 1683
562 1 1685 1684 1686
563 1 1688 1687 1689
564 1 1691 1690 1692
565 1 1694 1693 1695
566 1 1697 1696 1698
567 1 1700 1699 1701
568 1 1703 1702 1704
569 1 1706 1705 1707
570 1 1709 1708 1710
571 1 1712 1711 1713
572 1 1715 1714 1716
573 1 1718 1717 1719
574 1 1721 1720 1722
575 1 1724 1723 1725
576 1 1727 1726 1728
577 1 1730 1729 1731
578 1 1733 1732 1734
579 1 1736 1735 1737
580 1 1739 1738 1740
581 1 1742 1741 1743
582 1 1745 1744 1746
583 1 1748 1747 1749
584 1 1751 1750 1752
585 1 1754 1753 1755
586 1 1757 1756 1758
587 1 1760 1759 1761
588 1 1763 1762 1764
589 1 1766 1765 1767
590 1 1769 1768 1770
591 1 1772 1771 1773
592 1 1775 1774 1776
593 1 1778 1777 1779
594 1 1781 1780 1782
595 1 1784 1783 1785
596 1 1787 1786 1788
597 1 1790 1789 1791
598 1 1793 1792 1794
599 1 1796 1795 1797
600 1 1799 1798 1800

