LAMMPS data file via write_data, version 7 Feb 2024, timestep = 697, units = real

1800 atoms
2 atom types
1200 bonds
1 bond types
600 angles
1 angle types

0 30 xlo xhi
0 30 ylo yhi
0 30 zlo zhi

Masses

1 15.9994
2 1.008

Pair Coeffs # lj/cut/coul/long

1 0.1553 3.166
2 0 0

Bond Coeffs # harmonic

1 600 1

Angle Coeffs # harmonic

1 75 109.47

Atoms # full

704 235 2 0.4238 20.638069905870474 0.23672290857910971 9.091137611442628 0 0 0
435 145 2 0.4238 4.1623364372396345 3.106886173385599 1.0752086687289388 0 0 0
747 249 2 0.4238 24.613627989784263 10.027672877884186 14.736320696355236 0 0 0
901 301 1 -0.8476 1.2959222744743408 3.107456657493425 3.505338047038716 0 0 0
902 301 2 0.4238 1.5005501574567006 2.4848875315457652 4.286119329203453 0 0 0
903 301 2 0.4238 0.8121528760734184 2.5594191434693276 2.791331219404572 0 0 0
940 314 1 -0.8476 5.335896843279504 6.097666878860538 2.454022708939814 0 0 0
941 314 2 0.4238 4.742042638480573 5.273232980104963 2.5541852374467053 0 0 0
942 314 2 0.4238 5.023315844696506 6.783907445712581 3.1476470941561976 0 0 0
995 332 2 0.4238 7.021708297786301 6.3076911710092505 2.6285805138481275 0 0 0
1796 599 2 0.4238 12.442889189173645 14.996682709772628 0.15584611211060592 0 0 0
1007 336 2 0.4238 8.428756552787853 7.0591501072457215 1.0594189640237448 0 0 0
1353 451 2 0.4238 13.863145265422363 9.340431605394448 14.267204342140303 0 0 0
1699 567 1 -0.8476 22.25606405160642 1.0585155917556168 0.8671264944904212 0 1 0
1537 513 1 -0.8476 9.287264948807346 0.08384356607931387 9.194545210941422 0 0 0
1499 500 2 0.4238 23.913923749652213 1.172685882006737 0.2698342692329037 0 1 1
1334 445 2 0.4238 5.414031837391166 6.8469912149265975 0.9201329323899142 0 0 0
1430 477 2 0.4238 1.7049270447761378 2.591865935263342 6.97598141608136 0 0 0
1519 507 1 -0.8476 1.978811306783498 1.4298158203502251 5.620242093047128 0 0 0
1520 507 2 0.4238 2.890677783231229 1.1247795124938131 5.978177317963101 0 0 0
1624 542 1 -0.8476 3.873717225719837 3.7483749483998485 2.7233629298321835 0 0 0
1625 542 2 0.4238 2.87605451623364 3.6776330297983235 2.938066664011541 0 0 0
1626 542 2 0.4238 4.345949132782753 3.1488896809460565 3.378069820819654 0 0 0
994 332 1 -0.8476 8.027494578386872 6.463735478396326 2.7322684291361248 0 0 0
996 332 2 0.4238 8.446994423841211 5.574809878940467 2.940585589403503 0 0 0
1495 499 1 -0.8476 4.3417146553689605 14.899324081715347 9.044134961980156 0 0 0
1306 436 1 -0.8476 13.487667652489248 0.20516338260418068 3.505724088093224 0 0 0
1307 436 2 0.4238 13.53677970721223 0.5380066974721174 4.4513118879897675 0 0 0
291 97 2 0.4238 28.81833004544107 11.709695220590723 10.656171467761643 0 0 0
1228 410 1 -0.8476 9.842389342093286 14.358135906780532 14.955119497912229 0 0 0
1380 460 2 0.4238 8.006458350532768 7.839469670192376 4.05351534699214 0 0 0
1207 403 1 -0.8476 15.587533493690444 0.45809037354372695 14.612633246103568 0 0 0
530 177 2 0.4238 26.1599856392718 13.900106218280124 13.01058530713878 0 0 0
1521 507 2 0.4238 1.3720298485617854 0.6294820767600725 5.655754959799826 0 0 0
1006 336 1 -0.8476 8.338133651494557 7.3175257526977155 0.07878520592013873 0 0 0
651 217 2 0.4238 11.974600089800827 12.710457237604954 0.005153661765342014 0 0 1
1662 554 2 0.4238 12.124093138268249 0.012192846496147727 2.5475948682777956 0 0 0
271 91 1 -0.8476 17.866989811116245 2.14612801871288 5.890593172592595 0 0 0
273 91 2 0.4238 17.618445563369928 1.2145497040474524 5.530663214314412 0 0 0
1435 479 1 -0.8476 16.47097217069425 14.301149827175145 7.43006143455731 0 0 0
715 239 1 -0.8476 20.295971985890606 2.770492746798491 2.0924992164217593 0 0 0
716 239 2 0.4238 21.143291076382145 2.4095340814469677 1.672081337351955 0 0 0
717 239 2 0.4238 19.592667698112624 2.7993537136933884 1.3582950136801437 0 0 0
645 215 2 0.4238 11.4880935204494 0.5140349376907986 0.31286355355535195 0 1 1
956 319 2 0.4238 25.75321138753725 10.908558460567809 0.5477959006086616 0 0 1
1701 567 2 0.4238 21.551724364321338 0.8677624946086091 0.1524891637479796 0 1 0
228 76 2 0.4238 22.118443781968992 8.436588204200257 13.108661110254683 0 0 0
1046 349 2 0.4238 20.837792477899594 0.5084529742858079 3.6832139407561697 0 0 0
1161 387 2 0.4238 29.991893484442535 10.53064163052246 8.637240806654674 0 0 0
1255 419 1 -0.8476 25.086944943735453 6.0918544907507695 4.720957629539288 0 0 0
1257 419 2 0.4238 24.37721017425542 6.762660094531042 4.497911098758024 0 0 0
1297 433 1 -0.8476 20.425322520506974 1.9681229296487017 4.672359887208639 0 0 0
1298 433 2 0.4238 19.533122830749015 2.057599612598176 5.152354952130255 0 0 0
1299 433 2 0.4238 20.321874636238345 2.4034082182059127 3.7497229299783683 0 0 0
1363 455 1 -0.8476 18.25212680644598 8.393851070534481 7.301699103777249 0 0 0
1364 455 2 0.4238 17.52751054976946 7.783087901231419 6.970571673217699 0 0 0
1365 455 2 0.4238 17.809332145348733 9.018399951738235 7.996003847130433 0 0 0
1462 488 1 -0.8476 22.653431698972163 2.4104989416237954 6.202187538035351 0 0 0
1463 488 2 0.4238 22.30573236605613 2.732649552706658 7.103219253136381 0 0 0
1464 488 2 0.4238 21.835862781071476 2.2785928152968866 5.601560615806841 0 0 0
1485 495 2 0.4238 19.65786415727177 7.805810879218363 8.042364074961805 0 0 0
636 212 2 0.4238 23.944713447702245 4.973400627729719 14.384457201020975 0 0 0
1584 528 2 0.4238 20.896463732644644 10.34934212773872 7.27170283855476 0 0 0
649 217 1 -0.8476 12.195087655063078 11.810257066531841 0.4177658152914224 0 0 1
234 78 2 0.4238 1.377496198768599 14.684203028308401 10.141926470837477 0 0 0
1797 599 2 0.4238 10.911570589186775 14.586364238153923 0.5315998614999696 0 0 0
76 26 1 -0.8476 25.13357648360752 3.705180497145426 6.0116980182070465 0 0 0
77 26 2 0.4238 25.03758308700642 4.590839467953579 5.5092062004853934 0 0 0
78 26 2 0.4238 24.221116952647336 3.2566901500623917 6.0163976872624065 0 0 0
94 32 1 -0.8476 0.07810185998077 1.696522907565958 1.4557871950981778 1 0 0
95 32 2 0.4238 29.185972560850686 1.8769804901383282 1.0143282469413313 0 0 0
96 32 2 0.4238 0.7691906315879902 1.68921041343535 0.6998659415564031 1 0 0
214 72 1 -0.8476 28.94812172393682 4.784948351311336 4.41678899735409 0 0 0
215 72 2 0.4238 29.802064296595905 4.334911317267318 4.112591662705501 0 0 0
216 72 2 0.4238 28.52191340087633 4.182305010874765 5.11595720632347 0 0 0
268 90 1 -0.8476 28.292176413433296 0.8894006211347781 7.614387618966347 0 0 0
269 90 2 0.4238 27.438596379797215 0.331865428456279 7.55671303574188 0 0 0
270 90 2 0.4238 28.10268337479733 1.758588433638214 7.114189188530764 0 0 0
955 319 1 -0.8476 26.09777973142068 11.043899279205512 1.5023207859184071 0 0 1
336 112 2 0.4238 23.693707403502348 1.0922570237178655 5.768145587043855 0 0 0
688 230 1 -0.8476 27.718007646135124 3.3541578251003847 6.514717016399948 0 0 0
689 230 2 0.4238 26.7196786069913 3.390257189333322 6.262338313363618 0 0 0
690 230 2 0.4238 27.840822809661763 4.014242366682063 7.2611141886828365 0 0 0
1700 567 2 0.4238 21.9885201245363 0.5159065705185646 1.6891946198028258 0 1 0
1281 427 2 0.4238 17.480426662023973 14.716777360065562 12.932528862127667 0 0 0
290 97 2 0.4238 28.518138590857074 11.654102727247182 12.266384967807236 0 0 0
1094 365 2 0.4238 27.68273442026537 0.6613476938026734 0.6780078635303899 0 0 1
1256 419 2 0.4238 25.967880874004535 6.430804472163778 4.340088051157556 0 0 0
1501 501 1 -0.8476 27.45872711491682 6.90434514908104 3.5133364394638518 0 0 0
1502 501 2 0.4238 28.06619152322078 6.218954033783691 3.974357782666649 0 0 0
1503 501 2 0.4238 27.45413545633635 6.656937452575837 2.5408122317521844 0 0 0
1362 454 2 0.4238 27.120292187987417 12.413753598831374 1.654825677024136 0 0 0
829 277 1 -0.8476 8.948716930882743 14.703961576381815 12.420974417548758 0 0 0
160 54 1 -0.8476 7.011868384893586 13.103112205869026 3.305944968418828 0 0 0
161 54 2 0.4238 6.295138571123328 13.760011799788737 3.5905659728029833 0 0 0
162 54 2 0.4238 7.089770083637397 13.20152364254079 2.294144670620903 0 0 0
487 163 1 -0.8476 3.9804190980000107 12.85258914370484 7.277795882253768 0 0 0
488 163 2 0.4238 3.641093896245529 12.037876833238625 7.794666608736411 0 0 0
489 163 2 0.4238 4.010940789860541 13.636054589133034 7.931379817784531 0 0 0
550 184 1 -0.8476 2.394128710486889 10.798716815171492 4.190661004064078 0 0 0
551 184 2 0.4238 2.8790370762504023 11.690618924560617 4.238589698633377 0 0 0
552 184 2 0.4238 1.4005225630838407 10.991081060279189 4.316926105331834 0 0 0
568 190 1 -0.8476 4.924024590770008 8.123165356923195 4.201201194962638 0 0 0
569 190 2 0.4238 4.689455761318663 9.00064507121931 3.7570047327777556 0 0 0
570 190 2 0.4238 5.877556069511245 8.232613639472348 4.545563547762584 0 0 0
616 206 1 -0.8476 6.478001055488649 10.418522411765691 3.035425270719962 0 0 0
617 206 2 0.4238 6.673537599165429 11.381453720022684 3.305242575641551 0 0 0
618 206 2 0.4238 6.970863080828107 9.810740002843602 3.6872692165520253 0 0 0
492 164 2 0.4238 27.69914221604075 10.499980865016727 13.69628470529552 0 0 0
776 259 2 0.4238 5.481715121497971 14.469677222958792 0.7657816063057653 0 0 0
838 280 1 -0.8476 2.575212813921175 8.58228309656406 5.6667769079656605 0 0 0
839 280 2 0.4238 2.4940916313710146 9.40504007236411 5.061654774113753 0 0 0
840 280 2 0.4238 3.4008695818688937 8.096827626133518 5.3417123061033465 0 0 0
874 292 1 -0.8476 6.186160668444373 10.697959759263174 0.3954898932345153 0 0 0
936 312 2 0.4238 0.4766045392251711 14.478384350637471 4.016185523889048 1 0 0
876 292 2 0.4238 6.219155715274346 10.491004353720127 1.4004170370916913 0 0 0
997 333 1 -0.8476 6.634840303950985 12.306029347704625 7.751475685839323 0 0 0
998 333 2 0.4238 5.66525463538878 12.444824679303531 7.475465291054835 0 0 0
999 333 2 0.4238 7.189024007428642 12.869761082336971 7.1107325192178195 0 0 0
1057 353 1 -0.8476 3.4248956593235937 13.341028583045574 4.678692745730283 0 0 0
1058 353 2 0.4238 2.584399721371129 13.916220118051703 4.603010599732984 0 0 0
1059 353 2 0.4238 3.59532686237393 13.154899407071017 5.672872980886457 0 0 0
1583 528 2 0.4238 21.12194020524433 9.122770671423968 8.305956074081376 0 0 0
163 55 1 -0.8476 10.563169026746872 11.238566826808237 7.8708676423429615 0 0 0
164 55 2 0.4238 10.322993988016956 11.14649751807519 8.86136219097553 0 0 0
165 55 2 0.4238 11.561195470823744 11.457202680388047 7.833304561964917 0 0 0
205 69 1 -0.8476 10.526701038504376 13.790785216441812 6.72551088068358 0 0 0
206 69 2 0.4238 10.424683516187025 12.886707836307767 7.183903273906716 0 0 0
207 69 2 0.4238 11.361388050785022 13.721452567210855 6.139685696197623 0 0 0
323 108 2 0.4238 6.851544327202619 8.16729710806438 8.805981727180212 0 0 0
1230 410 2 0.4238 10.74911547819587 14.829374602942814 14.888318178067623 0 0 0
691 231 1 -0.8476 24.37544692841707 11.307493103780802 12.022580038223367 0 0 0
582 194 2 0.4238 25.468519367003555 10.484180619774083 12.890528619138008 0 0 0
766 256 1 -0.8476 9.349114502521852 8.97323897397332 6.814672634008378 0 0 0
767 256 2 0.4238 10.19683916809057 8.443349538431752 6.711064926810135 0 0 0
768 256 2 0.4238 9.63310991895327 9.907769120338077 7.1165266483301215 0 0 0
1114 372 1 -0.8476 7.970384155777016 13.818967767327067 5.833631813337211 0 0 0
1115 372 2 0.4238 7.868224146311462 13.368112549959962 4.927033674435872 0 0 0
1116 372 2 0.4238 8.960052136854085 13.816316130457293 6.087964439990314 0 0 0
1378 460 1 -0.8476 7.59713889686599 8.53674882740945 4.669166540806745 0 0 0
1379 460 2 0.4238 8.238111059308718 8.694154249346965 5.446096042206158 0 0 0
1408 470 1 -0.8476 12.840899149425127 13.413986876289375 5.312694299302664 0 0 0
1409 470 2 0.4238 12.822863780428126 12.914472136206282 4.416573225135061 0 0 0
1450 484 1 -0.8476 13.214420089394386 12.431785476906105 2.8467493397712924 0 0 0
1451 484 2 0.4238 12.749985831377346 12.065624253133404 2.011447863875577 0 0 0
1452 484 2 0.4238 14.033047972162045 12.932901791726444 2.523313776120336 0 0 0
1788 596 2 0.4238 13.071676353552867 12.491919699763727 6.733889463393928 0 0 0
529 177 1 -0.8476 27.160373782038185 14.031481962212457 13.105762212581233 0 0 0
1702 568 1 -0.8476 2.0231309827509416 0.18643655300962686 13.687905266587059 0 1 0
198 66 2 0.4238 26.311757696096244 4.683619540953048 14.877939155691111 0 0 0
957 319 2 0.4238 25.2877563312015 11.043842852249064 2.096869362619007 0 0 1
332 111 2 0.4238 20.386401244588267 14.529962399388776 7.288261763893361 0 0 0
333 111 2 0.4238 20.924980621179788 13.999239333769317 5.847978285235087 0 0 0
1159 387 1 -0.8476 29.777915215528886 10.710817883256428 9.614323890247892 0 0 0
1440 480 2 0.4238 1.9167792566535704 10.948086231280556 14.776222620006532 0 0 0
802 268 1 -0.8476 14.266366664415013 14.235157628384961 8.885118345525658 0 0 0
803 268 2 0.4238 15.15668657581751 14.193712465298333 8.370949319815626 0 0 0
910 304 1 -0.8476 19.6468906747954 10.327350852794709 5.994968204595095 0 0 0
911 304 2 0.4238 19.478600611051274 10.296823364009816 4.984957631922977 0 0 0
912 304 2 0.4238 19.136125393173852 9.543737594556164 6.406286063136442 0 0 0
925 309 1 -0.8476 15.484815830164413 13.957155589107044 2.266622227704847 0 0 0
926 309 2 0.4238 15.788482991201052 13.977626106147996 1.2913654591571886 0 0 0
927 309 2 0.4238 16.158176381420624 13.384606275982664 2.780260897104786 0 0 0
958 320 1 -0.8476 16.86585540733709 12.368062731473065 4.043326626582345 0 0 0
959 320 2 0.4238 16.05683857643422 11.892517099832205 4.40827525404206 0 0 0
960 320 2 0.4238 17.454130923654024 12.605666250911735 4.845493110501675 0 0 0
967 323 1 -0.8476 18.87955357726165 10.556669418123603 3.4234672611213917 0 0 0
968 323 2 0.4238 18.121570280687926 11.23237930796435 3.4615230623954214 0 0 0
969 323 2 0.4238 19.07842038877697 10.366233038463252 2.4584932535393245 0 0 0
1150 384 1 -0.8476 18.379496391150482 12.669770559406388 6.312344602054163 0 0 0
1151 384 2 0.4238 18.84133367247117 11.760127352020579 6.223873685435578 0 0 0
1152 384 2 0.4238 18.78843008867192 13.100482524253671 7.144029485603825 0 0 0
385 129 1 -0.8476 27.90004621218069 9.771211210180972 3.4283877246886467 0 0 0
386 129 2 0.4238 27.744640396632214 8.77513859053719 3.5509365303673914 0 0 0
387 129 2 0.4238 27.30468849648374 10.093983874041612 2.676864212559789 0 0 0
296 99 2 0.4238 21.809240792868284 8.52046475178962 11.204177258721685 0 0 0
1316 439 2 0.4238 4.427484928955577 14.44226992932009 3.981879070067917 0 0 0
1703 568 2 0.4238 2.2972760119176745 1.0216552279522706 13.152786154479783 0 1 0
451 151 1 -0.8476 10.36503501366391 0.9223608931369247 13.989327488277482 0 1 0
334 112 1 -0.8476 24.244318997647518 0.2660704740840932 5.531254254880566 0 0 0
1354 452 1 -0.8476 28.93692815423657 13.78202966289655 4.109104850216373 0 0 0
1355 452 2 0.4238 28.44153057734325 13.561025515528202 3.2454292731302927 0 0 0
1356 452 2 0.4238 28.506060094156716 14.624006286685235 4.489268676191712 0 0 0
1360 454 1 -0.8476 27.75951592718039 13.21133561375474 1.696077433633996 0 0 0
1361 454 2 0.4238 28.514757187969153 13.010419576086477 1.06304990963567 0 0 0
1387 463 1 -0.8476 0.8833251893699163 10.129474930659843 7.100555571347697 1 0 0
1388 463 2 0.4238 0.3769412361512192 10.605437473381496 6.354280954667171 1 0 0
1389 463 2 0.4238 1.4214493142269444 9.39169432111296 6.6399231183510175 1 0 0
227 76 2 0.4238 22.9222605822771 8.480038138343193 14.51879727532144 0 0 0
1595 532 2 0.4238 27.291864250236696 14.894367033832031 1.8903580592674947 0 0 0
1744 582 1 -0.8476 29.760415727420174 11.242048236769392 4.801051143761484 0 0 0
1745 582 2 0.4238 29.075044216348505 10.644631583200363 4.329350019250417 0 0 0
1746 582 2 0.4238 29.44458812855871 12.20212069526703 4.665520943188498 0 0 0
67 23 1 -0.8476 1.6935674659455668 5.518391033691992 8.9368869780534 0 0 0
68 23 2 0.4238 1.4146307913232312 6.180423890259363 8.231720563276912 0 0 0
69 23 2 0.4238 1.7790756249179536 4.611912195180153 8.461452762989877 0 0 0
491 164 2 0.4238 28.87558535726375 10.841708339390276 14.765856868771296 0 0 0
133 45 1 -0.8476 4.279801363860098 0.613759425290843 6.802417382707638 0 0 0
134 45 2 0.4238 4.449821818406667 1.2048687102413023 7.596453032952668 0 0 0
666 222 2 0.4238 17.586361994524665 2.12426825899342 0.5139083897900615 0 0 1
286 96 1 -0.8476 2.0077918139655893 5.500612378104094 12.691854104303989 0 0 0
287 96 2 0.4238 1.8157231655591326 5.141382639924494 13.627683022087059 0 0 0
288 96 2 0.4238 1.4361479672649349 4.954754008324702 12.051173165429926 0 0 0
329 110 2 0.4238 1.0709039194166001 4.443565689320125 10.211145958595855 0 0 0
330 110 2 0.4238 0.4666428698771057 2.945200269643186 10.439819711596282 0 0 0
400 134 1 -0.8476 6.883514082593056 3.460464877695922 13.742884106030385 0 0 0
401 134 2 0.4238 6.004371576534613 3.665685682573003 13.26708637914323 0 0 0
402 134 2 0.4238 6.787191570001635 3.8693587812721884 14.6681021582774 0 0 0
424 142 1 -0.8476 6.481344065748562 6.897359926784041 11.46137165488988 0 0 0
425 142 2 0.4238 7.1517312046728 6.251921080161625 11.050406442250985 0 0 0
454 152 1 -0.8476 5.6771242160711575 6.763018725073128 13.951670593536543 0 0 0
455 152 2 0.4238 6.047544340535339 6.875947633473569 12.995007202250239 0 0 0
456 152 2 0.4238 5.49016333673618 7.689615844335709 14.298518906201117 0 0 0
982 328 1 -0.8476 22.713111540057515 7.559399223386864 10.083050527501825 0 0 0
693 231 2 0.4238 23.635625144026868 11.327317879058397 11.321922336220068 0 0 0
1569 523 2 0.4238 19.980158083943376 13.836631032982417 9.269177971384078 0 0 0
1040 347 2 0.4238 29.342165943225673 1.2433798382284378 8.89278270455966 0 0 0
1049 350 2 0.4238 2.553562442445285 6.721392016478376 10.022586572313562 0 0 0
1213 405 1 -0.8476 4.495790576529579 4.5230903352683836 12.944452046724885 0 0 0
1214 405 2 0.4238 3.5565333792081484 4.8795938822548015 12.771973998552518 0 0 0
1215 405 2 0.4238 5.005870421135853 5.328585506191761 13.30581290651165 0 0 0
1429 477 1 -0.8476 1.5788564723033423 3.0543961578461114 7.871383950711677 0 0 0
1459 487 1 -0.8476 2.834156473800368 2.336328421091733 12.344677869156776 0 0 0
1460 487 2 0.4238 2.21116777239175 2.819764388929265 11.709310990817471 0 0 0
1461 487 2 0.4238 3.588672400043197 2.9763538695954295 12.574493986766386 0 0 0
331 111 1 -0.8476 20.920708099172785 14.800753372153746 6.456361182668101 0 0 0
580 194 1 -0.8476 26.058935230015734 9.94776429989334 13.540845833553918 0 0 0
82 28 1 -0.8476 9.407728046794952 4.51694264450393 13.414345584639491 0 0 0
83 28 2 0.4238 9.819264854156597 4.1098218256694965 14.252394670309009 0 0 0
84 28 2 0.4238 8.4643761093763 4.136768577569656 13.359634187054304 0 0 0
142 48 1 -0.8476 8.444328401343862 5.410490295185344 10.137069138154432 0 0 0
143 48 2 0.4238 8.345804934906544 6.187384345753277 9.490240234566063 0 0 0
144 48 2 0.4238 9.401042581271742 5.428467586292521 10.490689973552074 0 0 0
1250 417 2 0.4238 29.84986751964001 13.34470722726151 11.400797362292247 -1 0 0
151 51 1 -0.8476 8.19762031967347 1.4371423275281232 12.475539161145024 0 0 0
152 51 2 0.4238 9.033204604396374 1.2523927152657908 13.044249492458816 0 0 0
153 51 2 0.4238 7.6412820044798115 2.115849143497362 12.999432780314024 0 0 0
181 61 1 -0.8476 11.12463920847254 3.2809898061831353 9.151808129076938 0 0 0
182 61 2 0.4238 11.206914267625564 4.0228704012778005 9.842235450734856 0 0 0
183 61 2 0.4238 10.186068017815312 2.9138749254324114 9.265283001977528 0 0 0
1692 564 2 0.4238 24.890192942389472 13.53274552678329 14.480728739209733 0 0 0
533 178 2 0.4238 14.103573017178917 3.9004449440671585 11.035750800452442 0 0 0
583 195 1 -0.8476 8.596283105930901 2.607909000212428 10.0026686942623 0 0 0
584 195 2 0.4238 8.360284971959375 3.599672906519797 10.01827404017055 0 0 0
585 195 2 0.4238 8.417985921502572 2.246300669697268 10.939580734641918 0 0 0
781 261 1 -0.8476 12.68854670201845 4.0346801872896165 14.151650461205342 0 0 0
782 261 2 0.4238 13.09371883453954 4.179621958050886 13.230402340942529 0 0 0
783 261 2 0.4238 12.364973367649485 4.940857602270854 14.481953589795456 0 0 0
1279 427 1 -0.8476 17.29848045536613 13.882347587665896 12.361872327613456 0 0 0
920 307 2 0.4238 13.050927061448492 2.521927944083671 14.756692313835272 0 0 0
1060 354 1 -0.8476 13.1630545355944 1.5546009202423237 8.84360247164999 0 0 0
1062 354 2 0.4238 12.405876752771684 2.2428744639470186 8.873839480147591 0 0 0
1397 466 2 0.4238 15.55131166161887 2.4819815232408797 11.14251465671269 0 0 0
1426 476 1 -0.8476 9.450888420026086 7.242258956139502 13.592717113419024 0 0 0
1427 476 2 0.4238 9.401519551389693 7.69844209586314 12.674813265933267 0 0 0
1428 476 2 0.4238 9.325862944698157 6.243424463751225 13.424821928510399 0 0 0
490 164 1 -0.8476 28.664320584039885 10.826622515225292 13.765674133200779 0 0 0
452 151 2 0.4238 11.307143797557533 1.0247828995233368 13.646445884991248 0 1 0
1539 513 2 0.4238 9.072131535591904 1.073176733889353 9.328501063677386 0 0 0
1792 598 1 -0.8476 10.987046431030086 5.020717264815043 11.236964259863429 0 0 0
1793 598 2 0.4238 11.984884029896897 4.971991041232531 11.437410499410662 0 0 0
1794 598 2 0.4238 10.494239832719426 4.7771934254720065 12.098185731831414 0 0 0
103 35 1 -0.8476 19.91784185322188 6.681709548684538 13.947517271812828 0 0 0
104 35 2 0.4238 20.85508151684597 7.044638420886806 13.778701063087603 0 0 0
105 35 2 0.4238 19.63628808946092 6.109079197767119 13.150528682210798 0 0 0
217 73 1 -0.8476 16.547212877162238 4.713457433639513 13.910647053998797 0 0 0
218 73 2 0.4238 16.206234512425866 3.8469574971898735 13.493812528176244 0 0 0
219 73 2 0.4238 17.141941015340766 4.419888591460078 14.69732697251873 0 0 0
226 76 1 -0.8476 22.44065939882106 7.846576080113236 13.878330613406623 0 0 0
272 91 2 0.4238 17.26320575413455 2.8039870682081203 5.433343956506957 0 0 0
325 109 1 -0.8476 18.680973397900924 4.94465968285514 12.191968083478216 0 0 0
326 109 2 0.4238 18.72298479001581 3.9552550656407908 11.936981298347588 0 0 0
327 109 2 0.4238 17.862876142150377 5.0360987762087746 12.793108796750584 0 0 0
494 165 2 0.4238 15.951040847736543 6.182818733413597 14.60503303214694 0 0 0
1690 564 1 -0.8476 24.457967297850395 13.56325733147571 13.572133471199253 0 0 0
625 209 1 -0.8476 18.5826482211569 2.3893343353167293 11.301286007596486 0 0 0
626 209 2 0.4238 19.37502395012242 1.7885493250942273 11.116192466442198 0 0 0
627 209 2 0.4238 18.108214540275636 2.476819270994585 10.403934443020539 0 0 0
703 235 1 -0.8476 20.176177538719138 1.104438340339273 9.298847891089256 0 0 0
705 235 2 0.4238 20.810016997414113 1.8594308232442744 9.03063875590509 0 0 0
883 295 1 -0.8476 17.692515266992398 2.1297299340091627 8.711447157563118 0 0 0
884 295 2 0.4238 17.628182140549352 2.216590328036672 7.699855047533437 0 0 0
885 295 2 0.4238 18.557349881969436 1.6132721148988076 8.875160611421506 0 0 0
898 300 1 -0.8476 21.72785635052287 3.2667249802215816 8.713382582446215 0 0 0
899 300 2 0.4238 21.00110439035443 3.9630399086807033 8.863158172709872 0 0 0
900 300 2 0.4238 22.476436974006887 3.513509662947821 9.34531518717972 0 0 0
954 318 2 0.4238 18.803766592775357 7.700138583888837 14.553873098332454 0 0 0
1061 354 2 0.4238 13.955422246180689 1.9720501918406679 9.325764732419563 0 0 0
1204 402 1 -0.8476 20.196708208163678 5.247749557065413 9.941500570664187 0 0 0
1205 402 2 0.4238 19.46969183699141 5.22138098715681 10.655418422552168 0 0 0
1206 402 2 0.4238 21.079500647785807 5.1235935543180755 10.446731226961964 0 0 0
1208 403 2 0.4238 14.662663963795705 0.8502838790510006 14.826825576812178 0 0 0
1309 437 1 -0.8476 16.2116594919044 2.2769291481100478 12.695143327564232 0 0 0
1310 437 2 0.4238 16.000161445244856 1.5541554794998653 13.390005208399206 0 0 0
1311 437 2 0.4238 17.16999378994334 2.129216763373458 12.384502518624233 0 0 0
1396 466 1 -0.8476 15.252377683922525 2.73806094354342 10.198680939695686 0 0 0
1398 466 2 0.4238 16.03233949690797 2.5374247481647845 9.578393698214049 0 0 0
1414 472 1 -0.8476 19.324401662448896 10.305020733199877 13.22498307819611 0 0 0
1415 472 2 0.4238 20.051549548726644 9.81184385039029 12.700016099232203 0 0 0
1483 495 1 -0.8476 20.506806237802774 7.5244543980564895 8.537506129549921 0 0 0
1484 495 2 0.4238 20.290564165121825 6.629593033032258 8.98517418520669 0 0 0
634 212 1 -0.8476 23.07305991763343 5.191997279407438 13.89135830556293 0 0 0
1280 427 2 0.4238 16.317765369976467 13.955687579296342 12.07827435185003 0 0 0
831 277 2 0.4238 8.687343893973607 13.800023072598723 12.041810285338972 0 0 0
328 110 1 -0.8476 0.8347084002577217 3.763555841074663 10.935525402416273 0 0 0
370 124 1 -0.8476 29.660210131401193 3.072414905729119 13.442895828748359 0 0 0
371 124 2 0.4238 0.011423715146549452 3.3310419787710432 12.528011132822012 1 0 0
372 124 2 0.4238 0.3201247706445441 3.434556686861326 14.126952500761918 1 0 0
379 127 1 -0.8476 27.88426998725621 1.0486655798934799 13.323702308604062 0 0 0
380 127 2 0.4238 28.554560030009235 1.809256373398262 13.493059867779978 0 0 0
671 224 2 0.4238 10.94110468241079 6.87918058149303 14.332947363891943 0 0 0
581 194 2 0.4238 26.07342309520367 9.00109445008826 13.20707650386358 0 0 0
1496 499 2 0.4238 4.600489174868449 14.246748790812283 9.801549402756326 0 0 0
983 328 2 0.4238 21.933464573399984 7.516866334026756 9.42044737543808 0 0 0
984 328 2 0.4238 23.468926664451864 8.032669120668151 9.616900007769743 0 0 0
1039 347 1 -0.8476 0.028142863526427524 1.5343986509105048 9.597074786137101 1 0 0
1041 347 2 0.4238 0.0031143828944946387 0.8252449395742403 10.332507299896095 1 0 0
1402 468 1 -0.8476 22.554508335185695 5.024851108443529 11.167442509153085 0 0 0
1403 468 2 0.4238 22.81529353695173 5.963671560744603 10.870367760871929 0 0 0
1404 468 2 0.4238 22.7821631403613 4.946973427274273 12.158864467219543 0 0 0
1431 477 2 0.4238 1.0542999513278133 2.4137333943853982 8.463692991433184 0 0 0
298 100 1 -0.8476 3.7758262397678264 13.022094037808198 13.310218210086692 0 0 0
299 100 2 0.4238 3.421960676263995 13.99128422710563 13.35702201677467 0 0 0
300 100 2 0.4238 2.9590938400691957 12.42516306255443 13.357974442478877 0 0 0
952 318 1 -0.8476 18.12582427376466 8.416585844326127 14.839721497760948 0 0 0
289 97 1 -0.8476 28.513887259668003 12.272807764075795 11.456110196053926 0 0 0
426 142 2 0.4238 6.203576786204213 7.544844604669246 10.739486968295349 0 0 0
635 212 2 0.4238 22.944697897671674 6.203269974853508 13.95032640854063 0 0 0
131 44 2 0.4238 6.361890343287975 12.34699096972755 0.51108652720811 0 0 1
931 311 1 -0.8476 5.075418938013126 8.761491173138623 9.579554688687766 0 0 0
932 311 2 0.4238 4.393308169951531 8.176830477408592 10.061089688147261 0 0 0
933 311 2 0.4238 4.519240105063918 9.399759667468372 9.011378681618556 0 0 0
1038 346 2 0.4238 6.148355683987973 10.182188900770955 10.00670030631642 0 0 0
1048 350 1 -0.8476 2.902723115390815 7.313368988306431 10.772906229546178 0 0 0
1050 350 2 0.4238 2.695972070816511 6.803047301858177 11.629538839059178 0 0 0
1126 376 1 -0.8476 4.982643964223409 13.157886197692164 10.882175064379908 0 0 0
1127 376 2 0.4238 5.492191869526859 12.304672388133321 10.681058606157134 0 0 0
1249 417 1 -0.8476 0.764521182057852 13.767150374348043 11.566687806185353 0 0 0
1410 470 2 0.4238 13.497914583811895 14.18087376930317 5.165669496579252 0 0 0
1261 421 1 -0.8476 2.0386998372439638 9.953012140342116 10.962304790053219 0 0 0
1262 421 2 0.4238 2.3147785929283446 8.976030922922547 11.056934407054944 0 0 0
1263 421 2 0.4238 1.9224550149516728 10.348223174266757 11.889830859184867 0 0 0
1375 459 1 -0.8476 6.323267772593959 13.61353646377468 14.043477983381901 0 0 0
1376 459 2 0.4238 6.400388499468057 14.626685334889116 14.009392713174138 0 0 0
1377 459 2 0.4238 5.340252585362915 13.388475603589262 13.86380368571522 0 0 0
1582 528 1 -0.8476 21.41024305201055 10.077010624366999 8.105802814189662 0 0 0
1251 417 2 0.4238 0.6035455713779591 14.64502832478276 12.066394237077997 0 0 0
1477 493 1 -0.8476 3.155421961382195 10.609640108102353 8.598417094930634 0 0 0
1478 493 2 0.4238 2.3703963502244654 10.443963255577499 7.967713355498015 0 0 0
1479 493 2 0.4238 2.776322221869142 10.499435078267892 9.540987564410198 0 0 0
1564 522 1 -0.8476 1.3212013508688591 11.592879828388117 13.176107958548114 0 0 0
1565 522 2 0.4238 1.2034977709347279 12.400823549435668 12.55757898124528 0 0 0
1566 522 2 0.4238 0.3764893994997095 11.270064973912817 13.386569905476295 0 0 0
185 62 2 0.4238 15.97045622476657 9.961788872805693 8.967370565563666 0 0 0
235 79 1 -0.8476 7.851123262796118 12.170081455126722 12.298746261740423 0 0 0
236 79 2 0.4238 7.27996106365807 11.719318103706309 11.581415822241858 0 0 0
237 79 2 0.4238 7.210790668226261 12.656618292612619 12.931175706703092 0 0 0
264 88 2 0.4238 13.923929896932039 13.679169278901027 12.060914859608742 0 0 0
322 108 1 -0.8476 7.818001669021467 7.867398767593918 8.859726292968158 0 0 0
324 108 2 0.4238 8.303888219870371 8.278333511910787 8.062669792319422 0 0 0
532 178 1 -0.8476 13.713004633712863 4.608382568260888 11.656795027836164 0 0 0
534 178 2 0.4238 14.459599382093314 5.252564349974334 11.855346259051233 0 0 0
1437 479 2 0.4238 17.048821880501002 13.599424209461358 6.976493550623277 0 0 0
609 203 2 0.4238 8.430941809555232 7.923108443778331 14.857658885110384 0 0 0
652 218 1 -0.8476 14.299779258799637 10.007679403842056 8.892733240285411 0 0 0
653 218 2 0.4238 13.887234866159442 10.783386164103703 8.374074962146743 0 0 0
654 218 2 0.4238 13.614818087933777 9.6797952304565 9.545678053833447 0 0 0
670 224 1 -0.8476 11.772569633791534 6.56795642849966 14.840614840915041 0 0 0
672 224 2 0.4238 12.460200820530737 7.319520698302995 14.76757546607162 0 0 0
859 287 1 -0.8476 10.35369607714753 11.679164067459993 13.148419033112503 0 0 0
860 287 2 0.4238 10.390492028842688 11.42422587221095 14.12828370585368 0 0 0
861 287 2 0.4238 9.367095882755548 11.831536552582365 12.92394838063739 0 0 0
877 293 1 -0.8476 9.913834314365912 10.986572053892099 10.484020462267852 0 0 0
878 293 2 0.4238 10.32837530332816 11.251653436261849 11.375736673349675 0 0 0
879 293 2 0.4238 8.937722033552289 11.24625870254555 10.532148291052456 0 0 0
1036 346 1 -0.8476 6.632925025890727 11.065246192129253 10.146370470941825 0 0 0
1037 346 2 0.4238 6.702882877682789 11.511108704858533 9.22150060105677 0 0 0
1128 376 2 0.4238 4.5200925891927435 13.049808837939581 11.784947358442649 0 0 0
1153 385 1 -0.8476 12.508365187868053 13.39224526877195 12.876543694997247 0 0 0
1154 385 2 0.4238 12.410230743798701 14.103192053764479 13.59658603877733 0 0 0
1155 385 2 0.4238 11.718038605825582 12.757448757994458 12.956408912915117 0 0 0
1124 375 2 0.4238 29.09068056770925 0.26001703732778636 12.357633248453 -1 1 0
1229 410 2 0.4238 9.387912857531408 14.51341011080969 14.053823860144002 0 0 0
1043 348 2 0.4238 19.84863288558852 10.577043871723278 14.974585708831729 0 0 0
531 177 2 0.4238 27.60857860893214 13.453780090073929 12.396901599215576 0 0 0
657 219 2 0.4238 15.012863104351327 14.841491491703318 3.683280396988453 0 0 0
1591 531 1 -0.8476 9.35614688759301 8.371464671301343 11.12362315912025 0 0 0
1592 531 2 0.4238 8.741631437962841 8.11861937447489 10.356181838949473 0 0 0
1593 531 2 0.4238 9.713095337833614 9.296439390377003 10.908393926639405 0 0 0
1786 596 1 -0.8476 13.108121633481018 12.12005660169689 7.685093394638038 0 0 0
1787 596 2 0.4238 13.513778292647244 12.87028146965158 8.251858987842997 0 0 0
184 62 1 -0.8476 16.991259778515822 9.938325871581359 9.017406986975342 0 0 0
186 62 2 0.4238 17.250182937211555 10.48587357520766 9.841542823849755 0 0 0
262 88 1 -0.8476 14.725096434558573 14.0789907200868 11.55917670142883 0 0 0
263 88 2 0.4238 14.567129071432438 13.923913548614777 10.563488134283803 0 0 0
295 99 1 -0.8476 21.434084120047405 9.242649060288235 11.818573911693582 0 0 0
297 99 2 0.4238 21.690474306728845 10.125369438582732 11.36941381627363 0 0 0
367 123 1 -0.8476 21.901417087118272 14.104831334858181 14.118613066223018 0 0 0
130 44 1 -0.8476 6.656307750488844 13.32556785370293 0.5688610663364386 0 0 1
369 123 2 0.4238 21.074424404301023 13.69283632947802 13.674779614529733 0 0 0
495 165 2 0.4238 16.62620070883108 7.651273164522028 14.861123518868581 0 0 0
381 127 2 0.4238 27.03309589284687 1.482388509154534 13.011793671366853 0 0 0
658 220 1 -0.8476 17.58238726120051 11.34085366698866 11.261514906234707 0 0 0
659 220 2 0.4238 17.39303816893306 12.28170349923008 11.595102738147919 0 0 0
660 220 2 0.4238 18.16489941689968 10.891193394019549 11.95654385574182 0 0 0
799 267 1 -0.8476 21.012230147594217 13.77838771978718 10.562487479775442 0 0 0
800 267 2 0.4238 20.562443213545723 13.537885310865565 11.447971610417074 0 0 0
801 267 2 0.4238 21.59831652754894 14.598371222881507 10.73336761170938 0 0 0
1691 564 2 0.4238 23.47114970185981 13.784797847878107 13.729325525263814 0 0 0
1160 387 2 0.4238 0.5921019445317522 10.408317351838356 10.142396935802923 1 0 0
692 231 2 0.4238 24.377571195713365 12.213581271736057 12.486542354778784 0 0 0
1069 357 1 -0.8476 22.216929645312728 11.356330284237979 10.330171862707259 0 0 0
1070 357 2 0.4238 21.977416382947695 10.925047054336112 9.430332544063237 0 0 0
1071 357 2 0.4238 21.789247988936395 12.282985670538507 10.32666623923089 0 0 0
1416 472 2 0.4238 18.763149299564255 9.596295735663972 13.70211662191096 0 0 0
1453 485 1 -0.8476 19.804631309297154 12.994029821750932 12.87057525334791 0 0 0
1454 485 2 0.4238 19.67134817358566 11.997227396716681 13.037517042567618 0 0 0
1455 485 2 0.4238 18.86777312723949 13.383692720656123 12.734426732559035 0 0 0
1567 523 1 -0.8476 19.348371038866663 13.971444311627641 8.471792156419255 0 0 0
1568 523 2 0.4238 18.454453789181375 14.241557054453336 8.855495385324696 0 0 0
934 312 1 -0.8476 1.3710759255335467 14.965196952167249 3.932687730819771 1 0 0
1029 343 2 0.4238 29.04098592660968 0.036752147202657466 2.0812621281954304 0 0 0
1351 451 1 -0.8476 13.56936757962584 8.615391931066386 14.89924888812842 0 0 0
433 145 1 -0.8476 4.21403728933352 2.7428131320784273 0.12694441559029915 0 0 0
147 49 2 0.4238 12.488087532672617 0.04979604235275402 8.800320986070442 0 1 0
664 222 1 -0.8476 18.39591150893378 2.5378180849692527 0.08713104508031179 0 0 1
97 33 1 -0.8476 6.43032625356808 5.1571974559224385 15.937960153634101 0 0 0
157 53 1 -0.8476 4.636104907612894 2.3659834822985557 17.669483456492653 0 0 0
158 53 2 0.4238 3.9235213266264974 2.0936074407413803 16.994425506570895 0 0 0
159 53 2 0.4238 5.260235225807917 1.5739294019471943 17.796630316802954 0 0 0
277 93 1 -0.8476 4.610310999221975 7.059090367891458 22.952747280630387 0 0 0
278 93 2 0.4238 5.531061761676034 6.743231473525471 23.221812976357423 0 0 0
279 93 2 0.4238 4.220299793517598 6.30152903535047 22.38150352319854 0 0 0
361 121 1 -0.8476 3.9088924381276633 4.721195169671805 18.80565601772424 0 0 0
362 121 2 0.4238 3.5448759543001884 5.0880932179921565 17.92915647221097 0 0 0
363 121 2 0.4238 4.257102381494101 3.7900304578239457 18.56436938398184 0 0 0
394 132 1 -0.8476 6.69983281510308 0.5107639195753267 18.003522227109933 0 0 0
395 132 2 0.4238 6.954944620524162 0.3430487640213436 18.981059969949065 0 0 0
1561 521 1 -0.8476 1.7570014983493845 4.092707474328472 15.042320308957384 0 0 0
436 146 1 -0.8476 7.619111520001519 2.9751185724280846 17.345575918171928 0 0 0
437 146 2 0.4238 7.287192834019171 2.0327923334050744 17.56410502658497 0 0 0
438 146 2 0.4238 6.80792781474177 3.496102667528626 17.02683776923365 0 0 0
496 166 1 -0.8476 18.192367218148195 3.9274403249222236 15.854984228017264 0 0 0
593 198 2 0.4238 4.366969483604561 8.296282661390123 21.751296350999482 0 0 0
700 234 1 -0.8476 7.441294278629729 2.6329463465307343 21.37172489583697 0 0 0
701 234 2 0.4238 7.474613500165269 1.7108914477954844 20.935123513216485 0 0 0
724 242 1 -0.8476 3.61255978975773 5.678121615949311 16.258999549223162 0 0 0
725 242 2 0.4238 4.567253162702398 5.366976150643901 16.104970331883813 0 0 0
726 242 2 0.4238 3.6144983407680114 6.695088999936799 16.15427276268443 0 0 0
751 251 1 -0.8476 2.5291337131244283 1.6255139585900282 16.014679907641742 0 0 0
1559 520 2 0.4238 23.846674629399697 10.526838502185141 29.250225167959034 0 0 0
753 251 2 0.4238 2.4331902786608577 1.0833434345818862 15.15822400127399 0 0 0
1543 515 1 -0.8476 3.9649719956954836 4.847036471149345 21.56044520506917 0 0 0
1544 515 2 0.4238 3.8736385211622997 4.776680520173907 20.543947860091563 0 0 0
1545 515 2 0.4238 3.456238351517755 4.059648377071073 21.96801712303711 0 0 0
1563 521 2 0.4238 2.357027661597741 4.751500145856988 15.543410028081302 0 0 0
99 33 2 0.4238 7.148422457679796 5.578926452597678 16.525631025010583 0 0 0
187 63 1 -0.8476 10.94389992063162 1.3589696240063602 16.729819876612957 0 0 0
189 63 2 0.4238 10.548418498633806 2.2506864953993073 16.417877571230807 0 0 0
210 70 2 0.4238 15.097593178949014 3.203790904624696 20.422074087469518 0 0 0
241 81 1 -0.8476 14.52675262164197 0.1486348646081859 22.400686140863016 0 1 0
1333 445 1 -0.8476 5.61746473671702 7.18612737357909 29.977333295650265 0 0 -1
253 85 1 -0.8476 11.834464395583236 6.346201664639277 21.48831672941549 0 0 0
254 85 2 0.4238 11.113864154223213 7.046137322601844 21.627043893858126 0 0 0
255 85 2 0.4238 12.725951657537985 6.793419570352312 21.673280808027766 0 0 0
746 249 2 0.4238 23.298399641553125 10.698499861133966 15.461067311277565 0 0 0
447 149 2 0.4238 10.85778244178236 1.0031681792470777 20.05233149653486 0 0 0
475 159 1 -0.8476 11.796803843903385 2.165006752617009 19.18825389151547 0 0 0
476 159 2 0.4238 11.664739976665304 3.1757646533304125 19.251616652297788 0 0 0
477 159 2 0.4238 12.757509048679028 1.9756066463777509 19.49191928200701 0 0 0
520 174 1 -0.8476 11.270517615515837 4.864157088480511 19.300000312141 0 0 0
521 174 2 0.4238 11.361477058938586 5.588923818036875 18.58939522846295 0 0 0
522 174 2 0.4238 11.535238106777623 5.312550901595094 20.182919157643784 0 0 0
745 249 1 -0.8476 23.765346297258812 9.813173227792124 15.253386632531837 0 0 0
571 191 1 -0.8476 14.291323756592481 1.6036821211574357 20.052919079071646 0 0 0
572 191 2 0.4238 14.325656973900577 0.9940012212459031 20.867445448736536 0 0 0
573 191 2 0.4238 15.12283018226849 1.3992547069792867 19.49502261996106 0 0 0
646 216 1 -0.8476 11.112182557536787 6.901347307322387 17.42695400635881 0 0 0
647 216 2 0.4238 11.3612367149183 7.8795274768438475 17.553603597066655 0 0 0
648 216 2 0.4238 11.435963213216775 6.663978420568258 16.485662098301965 0 0 0
92 31 2 0.4238 19.792962080093318 14.525247412158954 25.85941749829389 0 0 0
702 234 2 0.4238 7.9207850138923925 3.270482857938669 20.728850179788196 0 0 0
857 286 2 0.4238 13.525148223962745 3.2540355743776277 23.29064822428829 0 0 0
858 286 2 0.4238 13.474698713827262 1.6671175330698829 22.853262583071906 0 0 0
921 307 2 0.4238 12.469511283365739 1.3979062183894337 15.793023992523143 0 0 0
1162 388 1 -0.8476 9.844122911436138 8.34353846120228 22.063584632683238 0 0 0
1164 388 2 0.4238 9.275387456572815 7.567714503467436 22.437653674515936 0 0 0
1188 396 2 0.4238 14.897163206654994 7.324268581363098 21.851379606150683 0 0 0
1264 422 1 -0.8476 8.635076848951918 4.196483294930198 19.52952944960909 0 0 0
1265 422 2 0.4238 8.347457987332142 3.6747072552101847 18.700292003923288 0 0 0
1266 422 2 0.4238 9.644961614057676 4.338453599022206 19.483891537441703 0 0 0
1669 557 1 -0.8476 9.831426618251816 3.7163145227869894 16.05257817570193 0 0 0
1670 557 2 0.4238 10.04998302295394 4.636202631840221 16.39691226011012 0 0 0
1671 557 2 0.4238 8.948036707260167 3.4336910500496716 16.48860509572788 0 0 0
1768 590 1 -0.8476 8.516914182887175 6.317993653683037 23.101636110278477 0 0 0
1769 590 2 0.4238 9.275626646160939 5.7782877208033305 23.518650127460123 0 0 0
1770 590 2 0.4238 7.733059026183628 5.68145307890374 22.9701161105809 0 0 0
1771 591 1 -0.8476 8.494436052566254 6.214896064591122 17.503950260363634 0 0 0
1772 591 2 0.4238 8.302749122370052 5.764522873020168 18.393490381015255 0 0 0
1773 591 2 0.4238 9.458259394305848 6.553523704006608 17.555752897414145 0 0 0
208 70 1 -0.8476 15.906297708729934 3.7371684709211492 20.730572506104547 0 0 0
209 70 2 0.4238 16.31898935838068 3.1752648020584173 21.482755043224756 0 0 0
403 135 1 -0.8476 16.080175752882123 6.170651908009153 21.81901805922099 0 0 0
405 135 2 0.4238 17.037250647455352 6.470178822531005 21.63912945137416 0 0 0
497 166 2 0.4238 19.199782086268637 4.054356380133539 15.812867174212373 0 0 0
498 166 2 0.4238 17.925664509633137 3.926150844248479 16.834923922706672 0 0 0
1335 445 2 0.4238 6.621797137979868 7.362459786133259 29.95305749183594 0 0 -1
623 208 2 0.4238 21.285713504652136 8.376130303844857 19.6974670099994 0 0 0
895 299 1 -0.8476 17.019621973824442 6.625634584354143 17.56074432734976 0 0 0
896 299 2 0.4238 17.556438793680147 7.4772678299797555 17.678174889561873 0 0 0
897 299 2 0.4238 16.410920351208663 6.764715965916625 16.761341469205345 0 0 0
953 318 2 0.4238 18.314756255596038 8.626486699956013 15.817129622675917 0 0 0
1381 461 1 -0.8476 1.1576102654059222 0.19806631935717114 17.913719355425968 0 1 0
1318 440 1 -0.8476 16.66516903787936 1.2949087299712765 18.735671025254728 0 0 0
1319 440 2 0.4238 17.025764090449993 2.1996585376118856 18.453809300936324 0 0 0
1320 440 2 0.4238 16.70356424456486 0.6813816377878091 17.918907188348882 0 0 0
1504 502 1 -0.8476 17.361623045384704 4.132004322211956 18.50223689233758 0 0 0
1505 502 2 0.4238 16.771140090810846 4.025410965737208 19.332350679698788 0 0 0
1506 502 2 0.4238 17.198625011289852 5.0905597968635385 18.163930159533315 0 0 0
1513 505 1 -0.8476 19.691387223870358 4.474442927523673 19.914080467797824 0 0 0
1514 505 2 0.4238 20.26041214675776 4.9548193026120995 19.209768316234356 0 0 0
1515 505 2 0.4238 18.839616383500836 4.188879589228476 19.435349651555583 0 0 0
1552 518 1 -0.8476 21.11457814113362 5.739946524042642 18.055457135416326 0 0 0
1553 518 2 0.4238 22.12164574340797 5.924776237546735 18.13841434223723 0 0 0
1554 518 2 0.4238 20.978081750622408 5.338364107913147 17.124205803727136 0 0 0
1576 526 1 -0.8476 20.83288957912054 4.7493102254375925 15.564069084948759 0 0 0
1577 526 2 0.4238 20.358214088860677 5.494894810566435 15.051530501316888 0 0 0
1578 526 2 0.4238 21.691173196377058 4.578798359194499 15.047951898873956 0 0 0
1648 550 1 -0.8476 18.77795645301279 6.6621446180194415 21.322034842836587 0 0 0
1649 550 2 0.4238 19.25144757640879 7.343274432169038 20.730785051745954 0 0 0
1650 550 2 0.4238 19.101402801750613 5.754909459521987 20.985846140020353 0 0 0
1789 597 1 -0.8476 16.62527516819828 1.9608228613801537 22.61649606896754 0 0 0
1790 597 2 0.4238 17.433031518580293 1.5000725784328048 23.0435503143328 0 0 0
196 66 1 -0.8476 25.375217430028272 4.705379366486589 15.23456956470771 0 0 0
197 66 2 0.4238 25.447304608378246 4.601755819053464 16.249573956257137 0 0 0
200 67 2 0.4238 23.138357873485702 0.9703545425357063 16.684491936596427 0 0 0
469 157 1 -0.8476 23.67206825991687 5.183318274394367 20.919219546138258 0 0 0
470 157 2 0.4238 23.0538477473874 4.374476461703239 20.845490604190083 0 0 0
471 157 2 0.4238 23.545028397402174 5.719172206106838 20.06382226381257 0 0 0
472 158 1 -0.8476 23.68516587838784 6.2900713477962675 18.33522474658998 0 0 0
473 158 2 0.4238 24.42557326252824 5.642721386681986 18.066020818377897 0 0 0
474 158 2 0.4238 24.015762777704843 7.226506115211223 18.090325243978278 0 0 0
650 217 2 0.4238 12.612946786490953 11.235723602012726 29.681303945776367 0 0 0
1467 489 2 0.4238 16.266163300157302 14.981957025258957 20.59293160636065 0 0 0
727 243 1 -0.8476 26.252774478193846 5.928144144016924 20.140206413292805 0 0 0
728 243 2 0.4238 26.122543151913654 6.9043478365252 20.370012072169207 0 0 0
729 243 2 0.4238 25.49322748888596 5.436952182895068 20.597083139241896 0 0 0
964 322 1 -0.8476 25.664331818116025 4.472567550499931 17.921133931527454 0 0 0
965 322 2 0.4238 26.15242829664944 4.989466775164411 18.656179899001746 0 0 0
966 322 2 0.4238 25.299158963836334 3.6264269275187075 18.36402623496044 0 0 0
1030 344 1 -0.8476 25.712829253478375 2.1529552606655527 21.644829355228552 0 0 0
1031 344 2 0.4238 25.33641038885252 2.325503217693614 20.71356233177104 0 0 0
1032 344 2 0.4238 25.48525298569444 1.206716989449642 21.882981092438296 0 0 0
1357 453 1 -0.8476 24.45142889036271 2.398931189654363 19.206225906824272 0 0 0
1358 453 2 0.4238 23.565194550610027 2.7021690289914697 19.61223022604334 0 0 0
1359 453 2 0.4238 24.227640648648638 1.6203887012851421 18.585055970507007 0 0 0
100 34 1 -0.8476 4.098084453188588 11.891233467868501 17.140733532117608 0 0 0
101 34 2 0.4238 4.734028710437959 11.143315600216793 16.87767990511273 0 0 0
102 34 2 0.4238 4.679859831181293 12.646540337223747 17.492170589648794 0 0 0
256 86 1 -0.8476 7.38395081486782 12.31174601893157 16.16211694245158 0 0 0
257 86 2 0.4238 8.368715623723398 12.11629603530283 16.022161415738406 0 0 0
1616 539 2 0.4238 28.85200632026132 14.953967117306012 23.238033972542297 0 0 0
398 133 2 0.4238 4.660097364417411 8.99652753312015 16.254760025125023 0 0 0
574 192 1 -0.8476 4.420341439619926 7.531656328146164 18.87357932584772 0 0 0
575 192 2 0.4238 4.162668950692864 7.821892747088198 17.93556417598 0 0 0
576 192 2 0.4238 4.331756394682235 6.522960848970998 18.922639906894812 0 0 0
592 198 1 -0.8476 4.379358886355967 9.050509447940819 21.06714169673735 0 0 0
594 198 2 0.4238 4.432210276054055 8.580821870107123 20.15516489313907 0 0 0
601 201 1 -0.8476 4.8971304174987695 13.747978170173672 20.67438146662097 0 0 0
602 201 2 0.4238 5.3192489400833605 13.66069725235748 19.74965691280574 0 0 0
603 201 2 0.4238 4.305968341465785 12.924897752332463 20.79692475467601 0 0 0
823 275 1 -0.8476 29.338664323871857 12.738080231360653 18.315962839967398 -1 0 0
824 275 2 0.4238 0.34393510734997673 12.70377074552269 18.530780824340248 0 0 0
825 275 2 0.4238 29.12573477998619 13.685557812542472 18.000990245216116 -1 0 0
938 313 2 0.4238 3.703671910174733 10.608834653095219 20.909602576898187 0 0 0
1326 442 2 0.4238 18.44692961726802 0.35924525974801697 25.005325285898273 0 1 0
1117 373 1 -0.8476 5.256671225045415 10.080496672684356 23.446115839401212 0 0 0
1118 373 2 0.4238 5.071233956396927 9.907988252177613 22.462028890433647 0 0 0
1055 352 2 0.4238 13.74253845314555 14.422431347368528 22.57943055470432 0 0 0
1604 535 2 0.4238 6.667735641224007 13.080307874514432 17.505778421717714 0 0 0
1663 555 1 -0.8476 5.986957801590443 10.010892654764723 16.203694104845898 0 0 0
1664 555 2 0.4238 6.509444218854117 10.888990019540401 16.19197527897454 0 0 0
1665 555 2 0.4238 6.690529881933386 9.285469566027535 16.021502441873427 0 0 0
1684 562 1 -0.8476 1.9546258544703339 12.394380829992715 18.808308570951038 0 0 0
1685 562 2 0.4238 2.3537435181626214 12.088275711198936 19.6928276546109 0 0 0
1686 562 2 0.4238 2.680406680026348 12.246888945646505 18.111474572467582 0 0 0
63 21 2 0.4238 10.751337770609254 8.28016776289034 23.747189366745403 0 0 0
211 71 1 -0.8476 11.902117330347595 9.60056051467097 16.8683770835767 0 0 0
212 71 2 0.4238 11.285857768462924 10.27508435909595 16.43065647670827 0 0 0
213 71 2 0.4238 12.548631249783039 9.266751970886869 16.15275560383421 0 0 0
556 186 1 -0.8476 9.829550080730034 14.171779010003123 17.734459787073824 0 0 0
434 145 2 0.4238 4.661731341780862 3.464815796836409 29.5597489881515 0 0 -1
586 196 1 -0.8476 13.160040056560254 10.83764177624 19.01085829325952 0 0 0
587 196 2 0.4238 12.678002155296431 10.444987386349169 19.827480506830028 0 0 0
588 196 2 0.4238 12.744840458147847 10.389431453536464 18.196239414861402 0 0 0
608 203 2 0.4238 8.084652254172084 7.517517132321599 16.40356540154067 0 0 0
718 240 1 -0.8476 10.243823125637524 11.90224329521316 15.988478339532527 0 0 0
719 240 2 0.4238 10.33851554850221 12.138859907250062 16.967721755625103 0 0 0
720 240 2 0.4238 10.196097411732456 12.805255376096436 15.508720949821935 0 0 0
889 297 1 -0.8476 15.445598198056897 9.941785505326097 20.264178126943946 0 0 0
890 297 2 0.4238 14.665303015348435 10.31302718136702 19.726496875910097 0 0 0
891 297 2 0.4238 15.064406940391233 9.273228133307535 20.918953875480987 0 0 0
1163 388 2 0.4238 9.187093706521672 9.025357792707345 21.7230990220357 0 0 0
1186 396 1 -0.8476 14.145823227235757 7.992385923595782 22.05761380844764 0 0 0
1187 396 2 0.4238 14.151690487453148 8.092898499786772 23.074721507693933 0 0 0
1223 408 2 0.4238 2.695080116494192 2.2290389690924797 29.660995738736666 0 0 -1
175 59 1 -0.8476 15.704653482948077 14.366785825762678 29.538893512835617 0 0 -1
1618 540 1 -0.8476 13.803162775235581 13.503140573699818 19.19647940240604 0 0 0
1619 540 2 0.4238 14.79714352362283 13.620813244622038 19.416384383905434 0 0 0
1620 540 2 0.4238 13.624341701533638 12.500437903930075 19.116238011012403 0 0 0
1633 545 1 -0.8476 12.410147259159647 14.90953561255829 17.36717593051038 0 0 0
1634 545 2 0.4238 11.463396828405406 14.637686667787914 17.629460454645557 0 0 0
1635 545 2 0.4238 13.036146461891285 14.42271839847514 18.010286036846566 0 0 0
58 20 1 -0.8476 18.751162914020743 8.937163919026007 17.541088557013342 0 0 0
59 20 2 0.4238 19.323916683166715 9.600877918419002 17.002837623188466 0 0 0
60 20 2 0.4238 19.364375507085313 8.563639829307032 18.272185387245404 0 0 0
70 24 1 -0.8476 21.714451256686548 13.140050991191396 18.364302197971096 0 0 0
71 24 2 0.4238 21.97249094535672 12.525807142592887 19.14194499321977 0 0 0
72 24 2 0.4238 20.72977602302347 13.344379070287708 18.49338139847156 0 0 0
1438 480 1 -0.8476 2.101515700638019 10.552361278279102 15.693326072073198 0 0 0
98 33 2 0.4238 6.238334243537278 5.8288176034201475 15.186572319334383 0 0 0
244 82 1 -0.8476 17.881028676819895 10.770780161357516 19.484690373485165 0 0 0
245 82 2 0.4238 18.10094851797075 10.108971717512208 18.746875193080328 0 0 0
246 82 2 0.4238 16.9476804600474 10.511919357802302 19.825314292499016 0 0 0
1755 585 2 0.4238 1.1622304608300953 0.30382901160679854 22.068350245178223 0 1 0
545 182 2 0.4238 22.229661816962523 12.881221423333303 15.271810418899284 0 0 0
280 94 1 -0.8476 4.058405031325151 0.44683229420478543 23.009564384304735 0 1 0
544 182 1 -0.8476 22.393237917969778 12.11085863036793 15.921266094621298 0 0 0
546 182 2 0.4238 22.230348826373277 12.486543609157643 16.857347428894407 0 0 0
553 185 1 -0.8476 22.121770383909507 11.50378816329624 20.471320937178106 0 0 0
554 185 2 0.4238 21.219618381756124 11.527722442064992 20.95178761316855 0 0 0
555 185 2 0.4238 22.341076862471844 10.517842152065107 20.30323222950059 0 0 0
622 208 1 -0.8476 20.399948629631588 7.94275094695333 19.43044641400826 0 0 0
624 208 2 0.4238 20.645284462653436 7.099983533188151 18.905165491538643 0 0 0
458 153 2 0.4238 8.487279741506356 8.886579223026404 29.456105734662412 0 0 -1
1044 348 2 0.4238 21.027293297991957 11.063479302756305 15.98772211995473 0 0 0
282 94 2 0.4238 3.711307641387546 1.4001181574774013 23.117003763332114 0 1 0
1042 348 1 -0.8476 20.158770425203393 10.535292705378033 15.937306954896902 0 0 0
1081 361 1 -0.8476 19.58426583922284 11.686196617562542 21.45998132483598 0 0 0
1082 361 2 0.4238 18.906674352257284 11.193705910968863 20.87514398041628 0 0 0
1083 361 2 0.4238 19.257981841612004 11.61967683657389 22.425209546179083 0 0 0
1465 489 1 -0.8476 16.309673443272587 14.158942878585082 20.001011041865603 0 0 0
1466 489 2 0.4238 17.280783675335883 13.986201684986098 19.785570692193495 0 0 0
1095 365 2 0.4238 26.551495091724615 1.5182570310929533 29.887335619557668 0 0 0
1579 527 1 -0.8476 19.02522288163055 13.37376755536389 19.364460176459495 0 0 0
1580 527 2 0.4238 19.364255796436826 13.02817149645244 20.261148069058304 0 0 0
1581 527 2 0.4238 18.506216711068525 12.588709124316 18.97900146579797 0 0 0
34 12 1 -0.8476 26.743430816307388 10.351446961788529 17.48999989404512 0 0 0
35 12 2 0.4238 27.60382584319458 10.371323204359213 16.947608904338917 0 0 0
36 12 2 0.4238 26.367582773308712 11.297511282215819 17.501283297432952 0 0 0
106 36 1 -0.8476 24.464000025774503 8.813161709667979 17.665744690265505 0 0 0
107 36 2 0.4238 25.37995205030883 9.258890574517187 17.737221617602728 0 0 0
108 36 2 0.4238 24.101562523427805 9.102901369137225 16.7555609727565 0 0 0
172 58 1 -0.8476 24.78524355682907 12.148908302941349 20.38032242889977 0 0 0
173 58 2 0.4238 25.27363194090596 11.546881598809236 21.03800603288553 0 0 0
174 58 2 0.4238 23.788331215025732 11.970184704641042 20.49039854290544 0 0 0
1324 442 1 -0.8476 18.323662914435847 0.39594190425235387 24.007423875395613 0 1 0
337 113 1 -0.8476 27.95939911756539 10.94925408155197 19.891864715971522 0 0 0
338 113 2 0.4238 28.58887614905263 11.628700933587712 19.470656821900516 0 0 0
339 113 2 0.4238 27.489604174084747 10.491365681929855 19.11574238371229 0 0 0
466 156 1 -0.8476 23.844414015671646 14.793226095437733 17.86186739361331 0 0 0
467 156 2 0.4238 23.002784533058975 14.263988995277046 18.08935523078506 0 0 0
468 156 2 0.4238 24.599181932626944 14.108415479086677 17.842242227624144 0 0 0
1171 391 1 -0.8476 25.911697474126896 12.956890111117758 18.103832829042737 0 0 0
1172 391 2 0.4238 26.826561190400888 13.31986350782438 18.31907838290835 0 0 0
1173 391 2 0.4238 25.49294819401432 12.645994671873774 18.99173266745526 0 0 0
1510 504 1 -0.8476 26.374676173643124 10.51988492398503 21.973325704103726 0 0 0
1511 504 2 0.4238 26.887629753057002 10.635310220457326 22.827827695317918 0 0 0
1512 504 2 0.4238 27.039271784980116 10.665698324742495 21.200004782676533 0 0 0
1627 543 1 -0.8476 22.90331665571523 8.985845320038718 19.89978679474919 0 0 0
1628 543 2 0.4238 23.588921318142337 8.638718459547587 20.575428812023016 0 0 0
1629 543 2 0.4238 23.402793074587425 8.995298363968061 19.009066225825432 0 0 0
1729 577 1 -0.8476 29.316760510007526 10.82304850271926 16.393957312226334 0 0 0
1730 577 2 0.4238 0.280713502426616 10.514055491316425 16.302069798790658 1 0 0
1731 577 2 0.4238 29.321219167988243 11.560617273081673 17.10131589795622 0 0 0
4 2 1 -0.8476 1.2651408461661688 4.367675980387553 24.755461568812915 0 0 0
5 2 2 0.4238 0.5088181970141096 4.387476181430823 24.07199878987446 0 0 0
6 2 2 0.4238 1.6952815596924764 5.299635183157074 24.75998248113322 0 0 0
307 103 1 -0.8476 2.441242179481407 5.8297662349047545 28.25235324208609 0 0 0
309 103 2 0.4238 2.210383091791133 6.119680405687478 29.186400516127552 0 0 0
313 105 1 -0.8476 1.0392919615552831 3.632372138082435 27.37600505259683 0 0 0
314 105 2 0.4238 1.081581143569941 3.7371468546433695 26.358954048612425 0 0 0
315 105 2 0.4238 1.5321924630140151 4.448022254859616 27.740590817858514 0 0 0
343 115 1 -0.8476 3.963395701973093 0.13307930672083781 28.76500550585094 0 0 0
344 115 2 0.4238 4.448445050770023 0.8926107882633277 29.22138614444738 0 0 0
345 115 2 0.4238 2.9806471083907575 0.3607099373317996 28.815599322774954 0 0 0
1800 600 2 0.4238 20.75118937143191 14.388767277542193 23.633346142590206 0 0 0
448 150 1 -0.8476 6.386717123318698 4.647931440888916 22.74858625703894 0 0 0
449 150 2 0.4238 5.463772057435575 4.729562304873248 22.317779080307833 0 0 0
450 150 2 0.4238 6.845354231488671 3.8850603751340214 22.240051035801308 0 0 0
706 236 1 -0.8476 6.6709599039301875 1.0420481353884674 23.496931801250373 0 0 0
707 236 2 0.4238 6.971035242430473 1.6494854112751238 22.736089469068013 0 0 0
708 236 2 0.4238 5.696821263167799 0.7933419241840723 23.31383296150571 0 0 0
765 255 2 0.4238 6.7572318637828275 3.932918413280339 24.331980283177423 0 0 0
1132 378 1 -0.8476 5.066603682844417 4.893957421249637 28.69736880841414 0 0 0
752 251 2 0.4238 2.013203435688387 1.1241052334426045 16.737590320777045 0 0 0
1134 378 2 0.4238 4.170111173623343 5.030974215145902 28.24220816993745 0 0 0
1201 401 1 -0.8476 2.732726525521835 2.8541198841369897 23.000111648775494 0 0 0
1202 401 2 0.4238 1.8989663075417818 2.3258791606351346 22.742217062831642 0 0 0
1203 401 2 0.4238 2.4404021570332803 3.4172597681355406 23.797757114154994 0 0 0
1327 443 1 -0.8476 0.32286745801643535 1.6337397481734546 22.743466749527236 0 0 0
1328 443 2 0.4238 29.862475025371754 2.5387140889918567 22.654798652125134 -1 0 0
1329 443 2 0.4238 0.05311562029689345 1.2718346565884127 23.66769091003626 0 0 0
1474 492 1 -0.8476 2.539761968932836 6.7298863808531255 24.759686414366108 0 0 0
1475 492 2 0.4238 3.2886909677481224 6.927135893787784 24.101840835048932 0 0 0
1476 492 2 0.4238 2.6929991041994725 7.311210415915009 25.579591348464987 0 0 0
7 3 1 -0.8476 14.209269136436411 4.773462814434924 23.45848435704291 0 0 0
8 3 2 0.4238 14.923056983627758 5.340904859648272 23.0166952447909 0 0 0
9 3 2 0.4238 14.062982936976544 5.127219623227315 24.400937489126882 0 0 0
115 39 1 -0.8476 13.719940368658692 5.602647737890317 26.06857083021509 0 0 0
116 39 2 0.4238 14.312788324858982 4.942072891542469 26.574925251879144 0 0 0
117 39 2 0.4238 12.807572594594324 5.5600827858864985 26.520676815173587 0 0 0
607 203 1 -0.8476 7.854849483087063 8.172674816086172 15.661736824741421 0 0 0
129 43 2 0.4238 10.82112132793099 0.9541348716027194 25.090271033373064 0 0 0
1209 403 2 0.4238 15.986933584312983 0.13225930784897688 15.493447529078006 0 0 0
1508 503 2 0.4238 23.841329032236814 9.354594828069857 26.25798328375796 0 0 0
1352 451 2 0.4238 14.38928391360743 8.014412430667466 15.049157902136768 0 0 0
713 238 2 0.4238 13.043521635635301 8.128577466213834 24.67881103278935 0 0 0
748 250 1 -0.8476 11.322928225739702 2.6816851162584476 25.362631269340213 0 0 0
749 250 2 0.4238 11.890378732782343 2.653821716309677 26.211206748142672 0 0 0
750 250 2 0.4238 11.969279600661695 2.522717835779071 24.57345736058825 0 0 0
763 255 1 -0.8476 7.124638458180067 3.3102738942306105 25.04491152374515 0 0 0
764 255 2 0.4238 6.944422447134665 2.3652334788748077 24.720162347454128 0 0 0
856 286 1 -0.8476 12.977766856030595 2.3900025040502184 23.354845563539634 0 0 0
928 310 1 -0.8476 9.21170106454897 3.89053453153373 26.58083346557007 0 0 0
929 310 2 0.4238 9.931429147324494 3.339526191014605 26.113523876985052 0 0 0
930 310 2 0.4238 8.351923577579715 3.71719100813403 26.0437884584462 0 0 0
176 59 2 0.4238 14.919844443843415 14.973264790258813 29.756471809878686 0 0 -1
1441 481 1 -0.8476 12.476377077155469 2.791279626571585 27.86125480551672 0 0 0
1442 481 2 0.4238 12.082942005905558 2.1025491403642103 28.504445501593562 0 0 0
1443 481 2 0.4238 12.012753118719374 3.681269925040842 28.027048608868096 0 0 0
1621 541 1 -0.8476 10.85721357318632 5.168854514036624 23.943332409510592 0 0 0
1622 541 2 0.4238 11.016946127011556 4.279075686309897 24.40248751041659 0 0 0
1623 541 2 0.4238 11.431770479758335 5.18617661215827 23.106743231101376 0 0 0
1791 597 2 0.4238 15.944664186586325 1.229222937803804 22.428807415294457 0 0 0
1637 546 2 0.4238 6.912393260715654 4.822784037586993 28.57501451044449 0 0 0
1750 584 1 -0.8476 11.327807927488792 5.322934462372956 27.51837151232356 0 0 0
1751 584 2 0.4238 10.485544789595586 4.895998792169099 27.126165198998887 0 0 0
1752 584 2 0.4238 11.034436773299234 6.156834715285288 27.996611778335424 0 0 0
16 6 1 -0.8476 16.617138308695857 8.899068249729883 25.21735677045736 0 0 0
17 6 2 0.4238 15.667468513653166 8.586041022588427 25.025659757955438 0 0 0
404 135 2 0.4238 15.972210228240616 5.2731905590811365 21.3369805638821 0 0 0
610 204 1 -0.8476 21.736475642584757 0.5395630216928547 19.5665619584361 0 0 0
1382 461 2 0.4238 0.3946854472901971 0.6831586987734476 18.35705489445346 0 1 0
665 222 2 0.4238 18.04945439917333 3.3312841024387 29.532692125846754 0 0 0
399 133 2 0.4238 3.0434520386053703 9.019167977209387 16.055473051581046 0 0 0
826 276 1 -0.8476 20.132445716639378 0.6239736373163783 29.21159065712149 0 0 0
827 276 2 0.4238 19.82975115639654 0.1725530560433829 28.345467104236864 0 0 0
828 276 2 0.4238 19.48425831736065 1.3925025382060139 29.394964998390897 0 0 0
833 278 2 0.4238 21.122523290941952 3.5417076064363977 20.30324322566098 0 0 0
988 330 1 -0.8476 18.568059151925606 7.339421167640557 23.945981333409332 0 0 0
989 330 2 0.4238 18.656621549521272 7.167380332865513 22.941008753934856 0 0 0
990 330 2 0.4238 18.624048142070595 6.443211412633019 24.396637585937366 0 0 0
1276 426 1 -0.8476 17.184319599178977 4.492296625195227 28.733079946453046 0 0 0
1277 426 2 0.4238 16.360344569651275 4.150485142664314 28.229961753943076 0 0 0
1278 426 2 0.4238 17.234085096516164 5.482092017317447 28.583066138380676 0 0 0
611 204 2 0.4238 22.338384838370796 0.27158883511605314 18.794627975638647 0 0 0
1570 524 1 -0.8476 15.025063722825381 3.635034494691845 27.373165301265896 0 0 0
1571 524 2 0.4238 14.14201279411904 3.201299028278608 27.647493575092668 0 0 0
1572 524 2 0.4238 15.385015345907082 3.079400193393955 26.584125300101704 0 0 0
243 81 2 0.4238 14.603563093447674 0.017919334290236646 23.414399246986022 0 1 0
1714 572 1 -0.8476 15.789377498480857 2.2117628711606145 25.283825831936277 0 0 0
1715 572 2 0.4238 16.122684678367346 2.4238294926921093 24.350716668099853 0 0 0
1716 572 2 0.4238 15.428569267350388 1.260324837705776 25.251527566355445 0 0 0
346 116 1 -0.8476 26.813809876998736 3.361464036923157 25.909417897538187 0 0 0
347 116 2 0.4238 27.502186407087063 2.80376530660307 26.414746281702428 0 0 0
348 116 2 0.4238 26.668756522280496 4.20759155036445 26.429451972261692 0 0 0
541 181 1 -0.8476 25.028292902530982 8.2187569228023 21.413323761169718 0 0 0
1605 535 2 0.4238 6.778987853139071 14.324412770002835 18.55300496090809 0 0 0
832 278 1 -0.8476 22.031061656509824 3.078903301789348 20.320008791691528 0 0 0
834 278 2 0.4238 21.844162974976257 2.0872252638744415 20.127427397873596 0 0 0
868 290 1 -0.8476 24.666007517506806 6.4432103649209225 25.823581415085563 0 0 0
869 290 2 0.4238 23.960767502106474 5.758904677365159 26.018682173828076 0 0 0
870 290 2 0.4238 24.829467902186828 6.4188967335959575 24.815409731876116 0 0 0
973 325 1 -0.8476 29.707097317434627 0.7113049495121702 25.177435090961232 0 0 0
919 307 1 -0.8476 13.184056159151725 1.5626856849149808 15.09281745943295 0 0 0
975 325 2 0.4238 29.31956670367892 1.1576348062971575 26.004555783075237 0 0 0
1018 340 1 -0.8476 26.74239380815229 4.004493751191399 23.297095475552208 0 0 0
1019 340 2 0.4238 26.34950575439904 3.2767361588665276 22.68823236550057 0 0 0
1020 340 2 0.4238 26.716060795456073 3.647678170794183 24.25809722308429 0 0 0
1093 365 1 -0.8476 27.55559323259353 1.3641940639463654 29.945619629481733 0 0 0
1252 418 1 -0.8476 24.975959905677975 6.054819158770711 23.142479006217183 0 0 0
1253 418 2 0.4238 25.72006783455027 5.354903439928182 23.20232086590913 0 0 0
1254 418 2 0.4238 24.341967465486658 5.72533950741758 22.410674587028296 0 0 0
1509 503 2 0.4238 24.57958905701336 7.955193076196113 26.65300022723708 0 0 0
1687 563 1 -0.8476 28.718511118279658 2.0847043748084033 27.433275060795076 0 0 0
1688 563 2 0.4238 28.403933270332058 1.8369923830900783 28.369423868456636 0 0 0
1689 563 2 0.4238 29.553758161875074 2.663094128160632 27.52791109334554 0 0 0
1759 587 1 -0.8476 29.358804078036435 4.229926581413951 22.737965861863895 0 0 0
1760 587 2 0.4238 28.364856608148592 4.173554420800868 22.98657304478155 0 0 0
1761 587 2 0.4238 29.414933649897804 4.846039072135658 21.945527887764772 0 0 0
557 186 2 0.4238 9.559187388436929 14.412303375021638 16.785484409908847 0 0 0
695 232 2 0.4238 22.906372196426258 9.26252879923049 28.12240466327952 0 0 -1
308 103 2 0.4238 2.556104277788659 6.678054160807037 27.696754711569028 0 0 0
481 161 1 -0.8476 2.837637955062576 8.271727917837795 27.021852002984776 0 0 0
482 161 2 0.4238 3.645023574312308 8.676551603302595 27.5088185647683 0 0 0
483 161 2 0.4238 2.165974168216608 9.012971443354129 26.923658666433028 0 0 0
637 213 1 -0.8476 6.842747055397293 11.029272005482804 27.1776156268494 0 0 0
638 213 2 0.4238 6.008544498725889 10.481030474196375 27.345365777806236 0 0 0
639 213 2 0.4238 7.572271783661987 10.600609516166069 27.742496694311384 0 0 0
199 67 1 -0.8476 23.593662981731804 0.4746735277784382 17.430220377308732 0 0 0
1636 546 1 -0.8476 7.890835142632355 5.0795396418566385 28.668401354920135 0 0 0
1439 480 2 0.4238 2.748249751261294 11.177744102354714 16.17096358145414 0 0 0
892 298 1 -0.8476 4.855054610266107 9.31249097349833 28.47708484409484 0 0 0
893 298 2 0.4238 5.0843122998001995 8.430984553951003 28.940036954284306 0 0 0
894 298 2 0.4238 5.129973719588397 10.025466117411952 29.153543646763126 0 0 0
937 313 1 -0.8476 3.314327740958936 11.54510358387733 21.0549032089971 0 0 0
939 313 2 0.4238 2.9735312643471357 11.564936293786129 22.000199274602597 0 0 0
132 44 2 0.4238 7.027969387134711 13.54526923831525 29.639718091184125 0 0 0
1119 373 2 0.4238 5.163911224656193 9.195497609026893 23.912360170448974 0 0 0
1129 377 1 -0.8476 6.056181876584845 14.558034907595934 23.074867972782652 0 0 0
1130 377 2 0.4238 6.130883177374025 13.757980457395874 23.711490139577325 0 0 0
1131 377 2 0.4238 5.69343519699645 14.193801480734637 22.197204952978485 0 0 0
1456 486 1 -0.8476 6.208716710845002 12.310409551401493 24.627410724348987 0 0 0
1457 486 2 0.4238 6.534895556807165 11.976396517399042 25.52557241372386 0 0 0
1458 486 2 0.4238 5.848366227290463 11.491876195848816 24.132671673038185 0 0 0
61 21 1 -0.8476 11.404735319671465 7.852854134742961 24.3887400174379 0 0 0
62 21 2 0.4238 11.183596196483418 6.859394370384805 24.412399575360393 0 0 0
459 153 2 0.4238 9.40897723944263 10.225264372210024 29.292235539721137 0 0 -1
1795 599 1 -0.8476 11.62439355643282 14.477147932433253 29.83174543675628 0 0 -1
1562 521 2 0.4238 2.027487461777207 3.1718983269230607 15.388291629568494 0 0 0
266 89 2 0.4238 15.216688594724321 12.66060402511312 27.14394900176379 0 0 0
427 143 1 -0.8476 9.996967498136296 14.187577863246492 27.619420450013767 0 0 0
428 143 2 0.4238 10.142972644887518 14.911189937354264 26.919293286750765 0 0 0
643 215 1 -0.8476 11.489324575146666 0.6273531306546889 29.302447705990566 0 1 0
1222 408 1 -0.8476 1.773611962347186 1.9009839329370164 29.361182343906602 0 0 -1
537 179 2 0.4238 8.644635907539682 0.10101854890193042 20.4803457236276 0 0 0
712 238 1 -0.8476 14.047490618197715 7.952320392904881 24.785326817964748 0 0 0
714 238 2 0.4238 14.090144914131022 7.100453945480019 25.34793540565419 0 0 0
820 274 1 -0.8476 7.4431075849733945 13.583792962332197 28.020484007799816 0 0 0
821 274 2 0.4238 7.219211379070051 12.679067438004498 27.606772126481772 0 0 0
822 274 2 0.4238 8.440577676648003 13.758873872199084 27.83863517151365 0 0 0
1054 352 1 -0.8476 13.89694233771695 13.912260269409694 23.452282806053343 0 0 0
1056 352 2 0.4238 14.04107650923321 12.948365923219313 23.202690742485533 0 0 0
1258 420 1 -0.8476 12.141428113533681 9.575357838625575 21.124253372773822 0 0 0
1259 420 2 0.4238 12.906580304501286 9.017346754812232 21.501603471191178 0 0 0
1260 420 2 0.4238 11.280235071640382 9.206380109710341 21.511823540036186 0 0 0
1331 444 2 0.4238 13.336800757218146 14.652030342134443 20.368318047881345 0 0 0
1531 511 1 -0.8476 13.400497280478923 10.48313533935879 28.395256829596264 0 0 0
1532 511 2 0.4238 14.244896263088055 11.04021975447367 28.250430353894703 0 0 0
1533 511 2 0.4238 13.327296525149144 9.85244955154157 27.619471953645768 0 0 0
18 6 2 0.4238 17.254127303308398 8.318918279045604 24.678139125696834 0 0 0
91 31 1 -0.8476 19.48693573635399 14.745337532525221 26.805810450062346 0 0 0
93 31 2 0.4238 20.070426671755186 14.150351450504246 27.403511913536526 0 0 0
265 89 1 -0.8476 15.525368381630416 12.096694176032068 27.94621494379168 0 0 0
267 89 2 0.4238 15.638057920617461 12.757170726904874 28.710685888342667 0 0 0
922 308 1 -0.8476 18.956204262480565 11.680548022233891 24.14600403656708 0 0 0
923 308 2 0.4238 18.344424879855783 11.55298952315135 24.953226073957833 0 0 0
924 308 2 0.4238 19.494983468260198 12.530962755914604 24.318082140721206 0 0 0
1105 369 1 -0.8476 21.19331362886746 12.997956601923386 27.921946969589673 0 0 0
1106 369 2 0.4238 22.208041356035846 12.986773413324297 27.911466950182106 0 0 0
1107 369 2 0.4238 20.87552567385841 12.05079847466639 27.726947975080293 0 0 0
1198 400 1 -0.8476 17.598142386774843 11.033033898262998 26.475081074486848 0 0 0
1199 400 2 0.4238 16.866673297716662 11.413557023014638 27.075235611681194 0 0 0
1200 400 2 0.4238 17.195258904249584 10.198639285504592 26.02936554536335 0 0 0
1240 414 1 -0.8476 14.929680713035435 13.797361743329123 26.01073656082014 0 0 0
1241 414 2 0.4238 15.587683134750492 14.530187461260919 26.255894058393913 0 0 0
1242 414 2 0.4238 14.61595552532403 13.936568803712756 25.053076920247594 0 0 0
1270 424 1 -0.8476 20.271913811651505 9.380992980270822 24.688440589430094 0 0 0
1271 424 2 0.4238 19.698074717361607 8.580704308260287 24.42423343307995 0 0 0
1272 424 2 0.4238 19.774369670123978 10.210167074371865 24.359137017259958 0 0 0
1305 435 2 0.4238 17.694789171982915 14.87631908536221 27.00657326469733 0 0 0
1486 496 1 -0.8476 20.19234899607963 10.51593739356489 27.205922392643533 0 0 0
1487 496 2 0.4238 19.202763059861574 10.758360190363513 27.143684479258138 0 0 0
1488 496 2 0.4238 20.38521381422768 9.990321682297592 26.355999155994965 0 0 0
1798 600 1 -0.8476 20.580064010355787 13.840614284686014 24.45776967424053 0 0 0
1799 600 2 0.4238 21.479809408328585 13.44340674597687 24.745268381963935 0 0 0
1638 546 2 0.4238 8.391154109514815 4.588322330166849 27.92789897631735 0 0 0
258 86 2 0.4238 7.051139213476204 12.837098242572894 15.347153466725347 0 0 0
457 153 1 -0.8476 8.473652682449073 9.871108547727694 29.172539084703633 0 0 -1
710 237 2 0.4238 17.26237040729853 0.17328559196693097 19.96970718391227 0 1 0
118 40 1 -0.8476 23.992109583001113 12.967441552846969 27.59499993059333 0 0 0
119 40 2 0.4238 24.609988285098794 13.771096253771933 27.728799856221293 0 0 0
120 40 2 0.4238 24.37672723747555 12.205383775538058 28.149173060232133 0 0 0
542 181 2 0.4238 25.515113094179064 9.070543333039437 21.69490996963393 0 0 0
543 181 2 0.4238 25.027153734280326 7.583009389706421 22.208728166036416 0 0 0
679 227 1 -0.8476 23.041532489178906 12.847575754496152 25.058879050711404 0 0 0
680 227 2 0.4238 23.843724818826136 13.048528900047618 24.488003993108652 0 0 0
681 227 2 0.4238 23.347437556822864 12.907164428611557 26.035634608443974 0 0 0
1500 500 2 0.4238 24.421822210612778 1.818163046265651 28.874138854137136 0 1 0
1558 520 1 -0.8476 24.834329468784773 10.730586998623195 29.079972354465006 0 0 0
1219 407 1 -0.8476 22.858003345341572 10.084141116347276 25.16367522116727 0 0 0
1220 407 2 0.4238 21.94914648669932 9.72211489423301 24.87470596709395 0 0 0
1221 407 2 0.4238 22.831037386628335 11.091703538128755 25.043823136174808 0 0 0
1560 520 2 0.4238 25.08587873327844 10.084308332174514 28.335984708691818 0 0 0
1507 503 1 -0.8476 24.34107756257035 8.878880205014632 27.018075623967 0 0 0
1603 535 1 -0.8476 6.161075980050807 13.580155109905604 18.2381294627323 0 0 0
188 63 2 0.4238 11.300054787688376 1.5384812808187995 17.672134739080057 0 0 0
429 143 2 0.4238 10.721577970366317 14.287389489754558 28.326343802420652 0 0 0
696 232 2 0.4238 21.460782717351808 10.009433525528195 28.300409526173784 0 0 -1
177 59 2 0.4238 16.158899460663733 14.757419211139922 28.713002453836427 0 0 -1
493 165 1 -0.8476 15.787610656935717 7.0936486424332506 15.039901236939103 0 0 0
535 179 1 -0.8476 7.617367527700734 0.07689516494276791 20.51207263372892 0 0 0
1498 500 1 -0.8476 24.73108161039708 1.278843130301695 29.662576364461653 0 1 0
445 149 1 -0.8476 10.270365821515181 0.23162611448103115 20.374878179856758 0 0 0
1224 408 2 0.4238 1.5070356937129183 2.4724997819410133 28.559007783052007 0 0 -1
1133 378 2 0.4238 5.288424465167684 5.783483548379269 29.14854494654492 0 0 0
558 186 2 0.4238 9.133049138365307 14.561088761807733 18.36743598548075 0 0 0
694 232 1 -0.8476 22.333851891019687 9.788487909276926 28.77541890184656 0 0 -1
1197 399 2 0.4238 12.442599373388399 0.08756825442974 27.82134263455341 0 1 0
397 133 1 -0.8476 3.826524321009514 8.402476682662211 16.267235877714825 0 0 0
1008 336 2 0.4238 8.293527742558581 6.443968948570966 29.53847465234608 0 0 -1
453 151 2 0.4238 10.434336782550302 0.9034330119016338 15.000063819312418 0 1 0
875 292 2 0.4238 7.0748962716099015 10.388956157026934 29.99759968044715 0 0 -1
193 65 1 -0.8476 6.255711012971664 18.478574396363285 2.3603224867227786 0 0 0
195 65 2 0.4238 6.18657049229459 18.835042043308817 3.311767210753043 0 0 0
415 139 1 -0.8476 1.703859993397588 16.773007535517603 7.043568191123206 0 0 0
416 139 2 0.4238 2.626444410458227 16.761563569831832 6.6340495082356625 0 0 0
417 139 2 0.4238 1.697229626281209 16.10831325487995 7.8159164475971314 0 0 0
559 187 1 -0.8476 2.1284729191084977 15.448065405398776 1.4228184384451263 0 0 0
560 187 2 0.4238 2.048522093608565 16.447513205231072 1.250104145201571 0 0 0
561 187 2 0.4238 3.0862095308806583 15.195314497727674 1.1848599354646998 0 0 0
733 245 1 -0.8476 2.096261582046957 18.1923441577 1.2957139943650433 0 0 0
734 245 2 0.4238 1.8083242192453912 18.171440852821284 2.276363443983004 0 0 0
735 245 2 0.4238 1.429466430746728 18.764032854939064 0.7759951705160117 0 0 0
742 248 1 -0.8476 4.063970361730593 17.355858288254396 5.056272746900486 0 0 0
743 248 2 0.4238 3.1792294575137494 17.599237026323696 4.612102272311325 0 0 0
744 248 2 0.4238 4.421019615190362 16.53625357573193 4.570662833093312 0 0 0
760 254 1 -0.8476 7.476951124468099 16.129113935984115 4.4189876243352 0 0 0
761 254 2 0.4238 6.544680672507933 15.884617961073484 4.090774206634978 0 0 0
777 259 2 0.4238 4.838375192816539 15.840760056489522 0.140954778318769 0 0 0
87 29 2 0.4238 23.13488529944996 15.707501814970033 11.947422565436373 0 0 0
796 266 1 -0.8476 6.072547552956359 19.20487503874699 4.985158251396675 0 0 0
797 266 2 0.4238 5.746743129500501 19.997370014060028 5.50618652093612 0 0 0
798 266 2 0.4238 5.374211647672816 18.464876648174336 5.10925459460336 0 0 0
817 273 1 -0.8476 1.5673420954997128 17.681785105225547 3.929388313959988 0 0 0
818 273 2 0.4238 1.468606596905432 16.66404764876632 3.964851187378632 0 0 0
819 273 2 0.4238 0.8503442145186194 18.05230069362912 4.549227292665707 0 0 0
1315 439 1 -0.8476 5.059914510214506 15.169121034263835 3.6241297034052504 0 0 0
1550 517 2 0.4238 20.079539466453294 28.903428140766714 1.871737538470691 0 -1 0
1317 439 2 0.4238 4.883337709805287 15.244335717928019 2.6167910286164093 0 0 0
1480 494 1 -0.8476 4.469959512668543 19.129408484181937 0.4636585479840514 0 0 0
1481 494 2 0.4238 3.604231550589293 18.750903443170145 0.859764185036987 0 0 0
25 9 1 -0.8476 12.085683697796632 20.556207954630917 5.487484646526541 0 0 0
26 9 2 0.4238 11.842063325567494 21.550141302636753 5.590926393281526 0 0 0
27 9 2 0.4238 11.849487962451624 20.293167208012193 4.531449904926696 0 0 0
194 65 2 0.4238 6.879208355336955 17.691072461794707 2.3886130260221896 0 0 0
376 126 1 -0.8476 8.826669090200118 18.432672132691923 4.514844880348017 0 0 0
377 126 2 0.4238 8.444266111047906 17.484459311210724 4.4319709957372355 0 0 0
378 126 2 0.4238 8.017727253298162 19.006287236467458 4.726017779367269 0 0 0
1436 479 2 0.4238 16.56010350049488 15.157027142297327 6.88165418240205 0 0 0
793 265 1 -0.8476 13.619651704225195 17.282406866594133 6.075540293069454 0 0 0
794 265 2 0.4238 13.876588641980645 16.595510038420393 5.369967840380131 0 0 0
795 265 2 0.4238 12.67039738886752 17.583499672840322 5.885008425474463 0 0 0
1012 338 1 -0.8476 10.934004624670983 18.22101499708859 6.260057470191413 0 0 0
1013 338 2 0.4238 11.402324865496256 19.116254051520347 6.104304370559591 0 0 0
1014 338 2 0.4238 10.125299382933903 18.224321909780123 5.636581515532463 0 0 0
1063 355 1 -0.8476 13.6116371964086 21.319331031567906 0.7830786654157482 0 0 0
1064 355 2 0.4238 13.162386850726064 22.2271680261631 0.8717370017945058 0 0 0
1168 390 1 -0.8476 11.142135214346025 19.42443572559496 3.1187092872865856 0 0 0
1169 390 2 0.4238 10.256656798456824 19.075222422146222 3.4787019463280355 0 0 0
1170 390 2 0.4238 11.00188990777092 19.680394689640696 2.1444051715662 0 0 0
1176 392 2 0.4238 13.514837983925572 20.838876591125537 6.50080607337038 0 0 0
1321 441 1 -0.8476 10.813185200578001 16.203274406504597 8.16640178209213 0 0 0
1322 441 2 0.4238 10.716658282969323 16.943125394864126 7.468732914176072 0 0 0
1323 441 2 0.4238 10.607964220830075 15.324650357718966 7.689631044683272 0 0 0
629 210 2 0.4238 23.547615598130463 16.41847149271119 5.989275018962984 0 0 0
1606 536 1 -0.8476 13.355421525653227 16.86841177160257 8.674335928486457 0 0 0
1607 536 2 0.4238 13.658110266573356 17.067234830147473 7.712394157235542 0 0 0
1762 588 1 -0.8476 13.449286368245664 18.28341949353242 2.001586043084392 0 0 0
1763 588 2 0.4238 12.668125243670234 18.608757450160656 2.565980482330037 0 0 0
1764 588 2 0.4238 14.039936495149345 19.083199180105403 1.838159109416624 0 0 0
850 284 1 -0.8476 2.911827691362111 15.50873035394421 13.372615328219382 0 0 0
1672 558 1 -0.8476 27.709674646247944 28.64620575519403 14.655164723135885 0 0 0
1661 554 2 0.4238 10.598437754719136 29.5207342664176 2.8173497762435655 0 -1 0
418 140 1 -0.8476 19.42577731597994 19.3918886158775 4.439430330191134 0 0 0
419 140 2 0.4238 19.058704171723477 18.455951462488322 4.491162231901363 0 0 0
420 140 2 0.4238 20.237945651031794 19.407959701830343 5.050358839125065 0 0 0
619 207 1 -0.8476 13.727231081862016 15.798028247555438 0.949372576205088 0 0 0
620 207 2 0.4238 13.635166788569695 16.747723679929944 1.3244017306574798 0 0 0
655 219 1 -0.8476 14.692532771011786 15.274969532265175 4.547142380087511 0 0 0
656 219 2 0.4238 15.516881567759782 15.679207160036183 4.9968514911416255 0 0 0
686 229 2 0.4238 17.928530362895255 22.145335660247568 2.885598789284975 0 0 0
1051 351 1 -0.8476 18.34287175078179 21.834366398807273 4.67748802568937 0 0 0
1052 351 2 0.4238 18.674095601736322 20.882741785358668 4.491467040198248 0 0 0
1053 351 2 0.4238 19.08602342397721 22.270878848330515 5.220898991640181 0 0 0
1135 379 1 -0.8476 19.314292216906203 16.972178638633036 5.966110574607338 0 0 0
1136 379 2 0.4238 19.867597371619073 16.124966192943006 6.072033608477566 0 0 0
1137 379 2 0.4238 19.923649687035283 17.739824891398627 6.249140014363983 0 0 0
1183 395 1 -0.8476 20.5789385709236 22.58406301186033 6.1803455879113525 0 0 0
1184 395 2 0.4238 21.01107016935051 22.81094217749648 5.2747116898678605 0 0 0
851 284 2 0.4238 1.9688079643641874 15.851565898459844 13.205291694193605 0 0 0
1339 447 1 -0.8476 16.681382039696544 16.522086179550413 5.900617885753377 0 0 0
1340 447 2 0.4238 17.690818510960515 16.714586806885357 5.900536127282854 0 0 0
1341 447 2 0.4238 16.214831528176244 17.392668198896747 6.102317746073967 0 0 0
146 49 2 0.4238 10.955159147020865 29.560306877764457 9.039757455499641 0 0 0
1123 375 1 -0.8476 29.858797254409268 29.87202525003712 11.814465217432918 -1 0 0
1482 494 2 0.4238 5.202530766834142 18.962991964990643 1.162824201350144 0 0 0
112 38 1 -0.8476 28.418549889778813 22.955654795860635 6.266410482945479 0 0 0
114 38 2 0.4238 28.619171570927936 21.958855373005907 6.415012573025363 0 0 0
373 125 1 -0.8476 28.811228484792 20.379944928569817 6.920585694948983 0 0 0
374 125 2 0.4238 28.35301995685331 20.153498999453287 7.789943122314524 0 0 0
628 210 1 -0.8476 22.918495627900544 16.617514664276673 6.746061901453385 0 0 0
1660 554 1 -0.8476 11.25330896274693 29.763176770647206 2.069168954722329 0 -1 0
935 312 2 0.4238 1.593416828796502 15.017409788350236 2.931232866956967 1 0 0
1737 579 2 0.4238 15.877708181716919 27.440664974274576 14.44360445194394 0 0 0
1075 359 1 -0.8476 27.807551455054504 16.242321845899458 4.688975507375051 0 0 0
1076 359 2 0.4238 26.97023459814523 16.51312990728291 5.1715162253791265 0 0 0
1077 359 2 0.4238 27.576907736924387 16.21354110642963 3.686628814577246 0 0 0
1120 374 1 -0.8476 21.292679590284116 18.82223590252874 6.409299411096592 0 0 0
1121 374 2 0.4238 21.655577567639927 19.672660517554576 6.848295382400819 0 0 0
1122 374 2 0.4238 21.988235513093773 18.0976922931792 6.5721173155464685 0 0 0
1047 349 2 0.4238 21.704392173699738 29.12807501180582 3.626734559740392 0 -1 0
1527 509 2 0.4238 24.93090717181729 23.295950700853286 6.595947844772819 0 0 0
1710 570 2 0.4238 23.993080807636307 23.857340872845075 9.972837436359239 0 0 0
1596 532 2 0.4238 26.983695344003067 16.37462586679469 1.2612899859320812 0 0 0
1657 553 1 -0.8476 29.609821288033363 17.967087553343287 5.8647619276873115 0 0 0
1658 553 2 0.4238 28.972015582311915 17.282134118168404 5.458943027367875 0 0 0
1659 553 2 0.4238 0.34057399907511315 17.445003146610166 6.358967446752768 1 0 0
1 1 1 -0.8476 0.10477459965201555 24.459320757702425 4.439483517187596 0 0 0
2 1 2 0.4238 1.0136718941384997 24.499028937601963 4.863873763579872 0 0 0
3 1 2 0.4238 0.22991702485040355 24.673508277739185 3.449045613171245 0 0 0
109 37 1 -0.8476 1.30905243985321 23.227155457943425 0.011167304653049335 0 0 0
804 268 2 0.4238 13.936315649486325 15.190745799266077 8.794821572559128 0 0 0
1191 397 2 0.4238 11.767557876556003 18.71698820018569 0.2248311610328824 0 0 1
304 102 1 -0.8476 6.742649217521454 23.175375232570932 9.863587312280465 0 0 0
305 102 2 0.4238 6.54060515056913 22.56810374936389 9.090841960545866 0 0 0
306 102 2 0.4238 7.373903476928374 23.9018756878411 9.513357647322357 0 0 0
409 137 1 -0.8476 0.5942469805627487 25.2111217483366 1.796803543988385 0 0 0
410 137 2 0.4238 0.7383147676117336 24.34950979757672 1.2707395982293404 0 0 0
411 137 2 0.4238 1.1647488178204883 25.898304099322083 1.3226772458672624 0 0 0
621 207 2 0.4238 14.240619303619177 15.263940915545989 1.6399842361186325 0 0 0
1009 337 1 -0.8476 17.186533542097926 29.817530931140553 4.7949471653015685 0 -1 0
986 329 2 0.4238 9.259809466780005 24.890021758861995 1.5259064773596411 0 0 0
1432 478 1 -0.8476 8.160035221836237 23.909132742728723 0.6507059187049804 0 0 0
1433 478 2 0.4238 7.565506981529031 23.249858459456586 1.122970749539699 0 0 0
1434 478 2 0.4238 8.806509108809964 23.37237127646737 0.06310657034802072 0 0 0
682 228 1 -0.8476 10.890389918059016 27.510921352266617 0.6396063037710886 0 0 1
22 8 1 -0.8476 9.196383472025673 24.344958700552983 6.490928246220429 0 0 0
23 8 2 0.4238 8.74812098555591 24.721105528666392 7.3220168294559205 0 0 0
24 8 2 0.4238 9.355435285169122 25.111954409465486 5.84281363617467 0 0 0
499 167 1 -0.8476 12.738648046324995 25.715998639562233 5.593621447547703 0 0 0
500 167 2 0.4238 13.333393959081379 25.67390872001522 6.427896842729181 0 0 0
501 167 2 0.4238 13.369660191888416 25.84806555876287 4.799133788386751 0 0 0
775 259 1 -0.8476 4.787331399858853 15.20325856298871 0.9374185398921606 0 0 0
739 247 1 -0.8476 11.820123575784363 23.493987255735174 0.7663002551576026 0 0 0
740 247 2 0.4238 11.258057085734373 24.0194575020998 1.4327742018070089 0 0 0
985 329 1 -0.8476 10.085447375491457 25.28794719078834 1.974408595227692 0 0 0
987 329 2 0.4238 10.322995819500791 26.14336111277208 1.463983825869519 0 0 0
1237 413 1 -0.8476 14.405876414982876 25.900040783939588 3.432432145032849 0 0 0
1239 413 2 0.4238 13.88443117061403 25.89388862347338 2.5423025141343496 0 0 0
1267 423 1 -0.8476 11.52304209173326 23.141083173950342 5.848590670453202 0 0 0
1268 423 2 0.4238 12.070088066027925 23.982841028390503 5.720057652662395 0 0 0
1269 423 2 0.4238 10.586168422642295 23.451471657071824 6.1170051131830565 0 0 0
1526 509 2 0.4238 24.587894147825946 23.139106560345457 8.190908229136866 0 0 0
1371 457 2 0.4238 9.91906684341906 27.77441261016479 4.245456435147951 0 0 0
1411 471 1 -0.8476 13.105778992231903 25.91434627590189 1.1352439608192937 0 0 0
1412 471 2 0.4238 12.376113370154215 26.56951459771002 0.8613183847972581 0 0 0
1413 471 2 0.4238 12.808489547573748 24.99716902603987 0.8139746596819977 0 0 0
1546 516 1 -0.8476 10.202801422485846 26.08979229259952 4.539108471107253 0 0 0
1547 516 2 0.4238 10.131753131451369 25.713661799234885 3.5890673146052876 0 0 0
1548 516 2 0.4238 11.158733666072955 25.93176033315144 4.849326756428326 0 0 0
1653 551 2 0.4238 9.613423548249694 27.980994334477657 6.986869474607284 0 -1 0
52 18 1 -0.8476 22.713602033594512 28.182481196421858 4.5766608954381125 0 0 0
53 18 2 0.4238 23.300191152748457 27.715173431381604 3.8832018871249527 0 0 0
54 18 2 0.4238 22.56868149415112 27.51115089788742 5.328183078896103 0 0 0
124 42 1 -0.8476 17.51031661164095 27.055147813909432 4.741804624692979 0 0 0
125 42 2 0.4238 16.731198363145623 27.307163170320877 4.158023899600166 0 0 0
126 42 2 0.4238 17.198880751781026 26.324842777782123 5.378171702807528 0 0 0
319 107 1 -0.8476 19.978740044926628 24.268799802614048 1.6365050663138183 0 0 0
320 107 2 0.4238 19.653137902309396 25.111485951103315 2.079462029798847 0 0 0
321 107 2 0.4238 20.222460360070084 24.50678999777795 0.675691183031174 0 0 0
351 117 2 0.4238 21.648253145504903 25.290718484826094 7.271326117266808 0 0 0
853 285 1 -0.8476 3.3503733434326843 21.191854506401445 14.93056258240465 0 0 0
463 155 1 -0.8476 16.44562529974623 25.236188185390994 6.513843222851867 0 0 0
464 155 2 0.4238 15.607503423998283 25.49095103260986 7.035757966410535 0 0 0
685 229 1 -0.8476 17.88392641938456 22.374392373379436 1.8969910024936703 0 0 0
687 229 2 0.4238 18.671275639685614 22.990189192304236 1.7176063146953935 0 0 0
1238 413 2 0.4238 15.00372699165936 25.089030761716586 3.4237185368836878 0 0 0
1027 343 1 -0.8476 28.123862726609506 29.629824394080195 1.9505699016843858 0 -1 0
1385 462 2 0.4238 15.311397743943528 21.31334365256765 0.24010074253993963 0 0 0
1386 462 2 0.4238 16.84869095403501 21.74064231073881 0.5957141629101655 0 0 0
1417 473 1 -0.8476 21.556108950313586 23.313544521982514 3.8207689655266046 0 0 0
1418 473 2 0.4238 22.406134377380795 23.87127811312376 3.9092874205507377 0 0 0
1419 473 2 0.4238 21.07697457401254 23.597182619636882 2.972721754904084 0 0 0
364 122 1 -0.8476 17.8097032328334 16.024603801582376 13.876464006559331 0 0 0
1765 589 1 -0.8476 16.361560730660372 22.5011109327828 6.4401523198787585 0 0 0
1766 589 2 0.4238 17.048070995133738 22.167901907753837 5.759330891611139 0 0 0
1767 589 2 0.4238 16.375448841804918 23.52005249738561 6.371118731145486 0 0 0
1780 594 1 -0.8476 15.471002240023376 28.3522663710648 3.0931474145298488 0 0 0
1781 594 2 0.4238 15.799226646637702 28.331655107759737 2.1405013489117275 0 0 0
1782 594 2 0.4238 14.965910178749205 27.474924528420047 3.2517093157038426 0 0 0
113 38 2 0.4238 29.07124004726684 23.300805411641424 5.5702114085714225 0 0 0
178 60 1 -0.8476 22.8990819807644 26.164063427676925 6.48819611144614 0 0 0
179 60 2 0.4238 23.71279791813113 26.435749889898513 7.036353844224257 0 0 0
180 60 2 0.4238 23.22623015615484 25.567604147483728 5.725292856472852 0 0 0
238 80 1 -0.8476 23.79459414230729 24.811000548214437 4.3075902802652015 0 0 0
239 80 2 0.4238 24.063135224821792 25.581255599838567 3.686590936356489 0 0 0
240 80 2 0.4238 24.661922628268428 24.43575272222335 4.6936935045931 0 0 0
1709 570 2 0.4238 25.499838331659838 24.486301166469215 10.041997674973755 0 0 0
406 136 1 -0.8476 26.09909099448221 29.255318871685272 7.194984900938497 0 0 0
407 136 2 0.4238 25.405630435026165 29.69673801245463 6.583418929158936 0 0 0
408 136 2 0.4238 25.622274332696193 28.470006184282838 7.643443695607625 0 0 0
565 189 1 -0.8476 25.982124652157022 26.644316687348894 0.6560049103699237 0 0 0
566 189 2 0.4238 26.883835599985574 26.700781954538392 1.1212626453569878 0 0 0
1698 566 2 0.4238 27.463546045116274 28.486827173869994 6.484919654685137 0 0 0
730 244 1 -0.8476 27.91417754106431 26.099096410727856 4.705815822063087 0 0 0
731 244 2 0.4238 28.731702290773804 25.493261230021997 4.745349817198609 0 0 0
732 244 2 0.4238 28.11269945520223 26.914254197357234 5.2965875540176075 0 0 0
976 326 1 -0.8476 24.503189258167904 26.96170559156729 2.8882106700538843 0 0 0
977 326 2 0.4238 25.076850704261652 27.755369009305074 3.206617639916307 0 0 0
978 326 2 0.4238 24.893941809515333 26.719224239275032 1.974297895754279 0 0 0
1282 428 1 -0.8476 26.114923042807895 24.207119371147005 5.5890168294218086 0 0 0
1283 428 2 0.4238 26.577004570018723 25.050158442413935 5.246391066624333 0 0 0
1284 428 2 0.4238 26.883197196538184 23.580859442141172 5.8322642966697655 0 0 0
1678 560 1 -0.8476 28.33521909081119 26.887530444878575 2.1200063664479947 0 0 0
1679 560 2 0.4238 29.107175721423506 26.25602867187305 1.9256795625595333 0 0 0
1680 560 2 0.4238 28.009052020474588 26.65964698386716 3.062071242995465 0 0 0
1696 566 1 -0.8476 28.42630507279086 28.23578136692301 6.258840425275682 0 0 0
1011 337 2 0.4238 17.68027107673562 28.96583590492507 5.045084490419976 0 -1 0
683 228 2 0.4238 11.049651603851773 28.339843220432993 1.2199299835587367 0 0 1
232 78 1 -0.8476 1.725593501630801 15.343104903938821 9.44699620348229 0 0 0
233 78 2 0.4238 2.7291592683300134 15.168150501585025 9.364659460269522 0 0 0
792 264 2 0.4238 5.971563599914451 27.99172721676097 6.176340329839245 0 -1 0
292 98 1 -0.8476 7.170552159939682 21.20134020856552 11.80923541897028 0 0 0
293 98 2 0.4238 6.299456301205267 20.873478445522743 12.224225253909516 0 0 0
294 98 2 0.4238 6.949753622395161 22.003336465129188 11.225981737626892 0 0 0
517 173 1 -0.8476 0.27173887619017406 16.11407752063951 12.837658731740742 0 0 0
519 173 2 0.4238 29.654810864948647 15.972215876509058 13.638761238503008 -1 0 0
835 279 1 -0.8476 27.860683926062546 20.863852474855896 9.846891146542394 -1 0 0
836 279 2 0.4238 28.093440913402485 21.816418948859408 9.57522321509974 -1 0 0
837 279 2 0.4238 28.654576354948436 20.459656750210566 10.315316126051789 -1 0 0
852 284 2 0.4238 3.545994730561238 16.305219551077442 13.267115504081039 0 0 0
862 288 1 -0.8476 4.723329123475678 17.482070132907715 13.083303400730568 0 0 0
863 288 2 0.4238 4.861369879295017 18.485846849214386 13.06511810475348 0 0 0
864 288 2 0.4238 5.628699384165383 17.04789429647123 13.259007913820458 0 0 0
1084 362 1 -0.8476 4.718883722247995 20.276193595387102 12.798005915360424 0 0 0
1085 362 2 0.4238 3.9757176557880745 20.15038094090561 12.134320142912552 0 0 0
1086 362 2 0.4238 4.276498929673375 20.612516092987505 13.661311310153975 0 0 0
1090 364 1 -0.8476 7.151092749171986 16.326173271443253 13.541821540486696 0 0 0
1091 364 2 0.4238 7.72269089262162 15.649327159997036 13.033293602733309 0 0 0
1092 364 2 0.4238 7.773527903136904 17.111972454340314 13.684557846286785 0 0 0
1708 570 1 -0.8476 24.985401298717367 23.633304882086236 9.81673288173213 0 0 0
1449 483 2 0.4238 28.049654665207175 23.37474800966026 7.905543742633057 0 0 0
1497 499 2 0.4238 5.065778031542371 15.594304017738263 9.007388261399374 0 0 0
1585 529 1 -0.8476 0.612355384048073 17.83710209287235 9.49988526991996 0 0 0
1586 529 2 0.4238 0.8385268986471245 18.07341824828795 8.548027913688605 0 0 0
1587 529 2 0.4238 1.0021766833780705 16.90591709229957 9.648969625600788 0 0 0
28 10 1 -0.8476 14.022219894254127 20.378377254832966 11.892918593201047 0 0 0
29 10 2 0.4238 13.730178991553057 20.139921944974077 10.944838931473507 0 0 0
30 10 2 0.4238 13.204310463825065 20.25824376695868 12.494449494887752 0 0 0
301 101 1 -0.8476 13.284897500973225 19.58792307294344 9.35607639683201 0 0 0
302 101 2 0.4238 13.717667661421453 20.10704604487203 8.58509444154449 0 0 0
303 101 2 0.4238 13.414775049278475 18.600690439997564 9.150316365111758 0 0 0
340 114 1 -0.8476 11.873082237822244 19.882714089011014 13.46186150689164 0 0 0
341 114 2 0.4238 11.521393560937812 19.646880432298033 14.383866267552685 0 0 0
342 114 2 0.4238 11.05114452072035 20.100437597353004 12.893919127391127 0 0 0
412 138 1 -0.8476 13.464633108325625 17.64176137364738 13.730825331408019 0 0 0
413 138 2 0.4238 13.453086987877164 17.216227801926777 12.798043489086446 0 0 0
414 138 2 0.4238 12.923278608808802 18.50055332391265 13.657837505356879 0 0 0
604 202 1 -0.8476 10.764385078649317 20.53437526960161 9.420699394545041 0 0 0
606 202 2 0.4238 11.708041444906629 20.13445534438985 9.429015332351916 0 0 0
673 225 1 -0.8476 13.37592412216569 16.43666957509341 11.355171956545803 0 0 0
674 225 2 0.4238 13.946871742151842 15.607262283562301 11.530448007005965 0 0 0
675 225 2 0.4238 13.534651513142954 16.6955791938239 10.382727686735942 0 0 0
1549 517 1 -0.8476 19.620901971851588 28.644657384433444 1.0012207190074784 0 -1 0
830 277 2 0.4238 9.597286861844669 15.154624629269028 11.771293082929928 0 0 0
1448 483 2 0.4238 26.756335535803498 23.334218977460516 8.911825192746733 0 0 0
772 258 1 -0.8476 28.358735859246053 15.778425530519069 14.734885116351851 0 0 0
1189 397 1 -0.8476 11.449530824753259 19.66895891819892 0.296528372242086 0 0 1
1174 392 1 -0.8476 14.156563122549798 21.059272618085078 7.26301801762861 0 0 0
1175 392 2 0.4238 14.988621918215273 21.48795803834215 6.848645420135729 0 0 0
1109 370 2 0.4238 26.897457025496703 25.268465305233484 14.444655590574719 0 0 0
1244 415 2 0.4238 10.150796016908048 18.065756953148295 14.647159622413088 0 0 0
1294 432 1 -0.8476 9.67130642423731 20.245994314021814 11.905206598706865 0 0 0
1295 432 2 0.4238 9.99426341502105 20.33684731415902 10.941644579341968 0 0 0
1296 432 2 0.4238 8.719226704692838 20.635165481248713 11.929555013863192 0 0 0
1534 512 1 -0.8476 9.510297267589918 17.816017784575248 13.085895334093628 0 0 0
1535 512 2 0.4238 9.869862737513499 17.18212637167857 12.376447503830656 0 0 0
1536 512 2 0.4238 9.470007692694507 18.736729212093472 12.645530544486451 0 0 0
1608 536 2 0.4238 12.369090760865348 16.603839008779403 8.582189683996097 0 0 0
1666 556 1 -0.8476 15.483264047973238 22.04825400679275 13.624748216164168 0 0 0
1668 556 2 0.4238 14.941040081867522 21.455415895253395 13.002742505483438 0 0 0
1747 583 1 -0.8476 10.638561428591014 16.249714664244607 10.982299204608601 0 0 0
1748 583 2 0.4238 10.57516324586343 16.256875497624655 9.965666747289772 0 0 0
1749 583 2 0.4238 11.631127346618046 16.273574789165718 11.214698987535245 0 0 0
1551 517 2 0.4238 19.822091178561834 29.39814757914118 0.3457830324920741 0 -1 0
366 122 2 0.4238 17.121498252868854 16.764108535454294 14.013650183203064 0 0 0
274 92 1 -0.8476 21.54380270003261 18.38341337776925 11.719947174403655 0 0 0
276 92 2 0.4238 20.725973469586883 18.94296909843425 11.978618422135675 0 0 0
391 131 1 -0.8476 21.016931149290045 23.720813319853914 12.28967487387331 0 0 0
514 172 1 -0.8476 17.978119269199606 21.806001980614656 11.401280121391922 0 0 0
515 172 2 0.4238 18.064060937929654 22.59435945686802 12.035182424910692 0 0 0
516 172 2 0.4238 17.526937300253593 22.155244511678337 10.554409827256457 0 0 0
1000 334 1 -0.8476 21.45188426715577 16.77302970975113 13.948595361801816 0 0 0
1001 334 2 0.4238 21.293165773273042 17.378092058632067 13.143651122269516 0 0 0
1002 334 2 0.4238 20.637233507395123 16.84821551730966 14.558179720880675 0 0 0
1015 339 1 -0.8476 16.578030707573344 19.564740814189122 12.031288610698127 0 0 0
1016 339 2 0.4238 15.591882095900285 19.7870698052961 11.885840691086479 0 0 0
1017 339 2 0.4238 17.091058963675895 20.401644975221497 11.749978584487607 0 0 0
1185 395 2 0.4238 21.20180845227377 21.93780440825831 6.660932269523155 0 0 0
1369 457 1 -0.8476 9.799770830128216 28.783855729387827 4.189921531567954 0 0 0
1538 513 2 0.4238 8.797421180630389 29.595143870401795 9.942244320780759 0 -1 0
1125 375 2 0.4238 0.6711212656893067 29.86283226585982 12.422237895938972 0 0 0
1516 506 1 -0.8476 22.39048829338854 20.985163914139502 7.611698261719504 0 0 0
1518 506 2 0.4238 22.576416212191024 20.635637166275583 8.549135229617349 0 0 0
1667 556 2 0.4238 16.0056941247628 21.444658282815382 14.25503980211559 0 0 0
1717 573 1 -0.8476 19.37490748926311 19.745376563561543 12.537098621665995 0 0 0
1718 573 2 0.4238 19.134661561632882 20.604466043899993 12.041354500813052 0 0 0
1719 573 2 0.4238 18.53167154282965 19.18488845158944 12.508085924598195 0 0 0
1738 580 1 -0.8476 16.1034841578897 18.114272303798927 14.224758991289011 0 0 0
1739 580 2 0.4238 16.312971811666507 18.61295374960348 13.35472133092013 0 0 0
1740 580 2 0.4238 15.11217307028839 17.872858420284004 14.1846339506957 0 0 0
85 29 1 -0.8476 22.577436655651734 15.93735749302012 11.140802545522599 0 0 0
86 29 2 0.4238 22.112274433872333 16.82721257472489 11.340442835903957 0 0 0
136 46 1 -0.8476 25.494153506646395 21.230569748421576 11.127518331405843 0 0 0
137 46 2 0.4238 26.359725008972287 20.95289441009591 10.653488788708383 0 0 0
138 46 2 0.4238 25.219486349502088 22.11348379538254 10.695293130361652 0 0 0
139 47 1 -0.8476 23.961936629007123 17.280256738762855 9.196990361898084 0 0 0
140 47 2 0.4238 23.477104673310933 16.649800475090327 9.835172180248462 0 0 0
141 47 2 0.4238 23.628432956032395 17.053594136925547 8.259984596840301 0 0 0
250 84 1 -0.8476 25.400384116063705 18.993915062864833 12.885804650235192 0 0 0
251 84 2 0.4238 26.27226158918019 18.864808284276712 13.403017742930395 0 0 0
252 84 2 0.4238 25.45545605336147 19.88984308512474 12.409852597731753 0 0 0
275 92 2 0.4238 22.119524877025338 18.98531885897915 11.13039487730857 0 0 0
375 125 2 0.4238 29.105963924526666 19.50251045844556 6.489446299854603 0 0 0
460 154 1 -0.8476 23.437761871719506 18.498550736629237 14.698633347259358 0 0 0
461 154 2 0.4238 24.098534569328056 18.69357529727707 13.941401811217798 0 0 0
462 154 2 0.4238 22.81232576309261 17.763954416113542 14.372276980980525 0 0 0
518 173 2 0.4238 29.845533456923214 16.857160353177388 12.287624975109242 -1 0 0
1065 355 2 0.4238 12.853956447221508 20.66419862743445 0.6128549473390347 0 0 0
539 180 2 0.4238 26.165186532905363 23.333472355106863 13.632042645393177 0 0 0
540 180 2 0.4238 25.694616408126777 21.987784164027318 12.834639704893679 0 0 0
630 210 2 0.4238 22.180043986687505 15.909052385327932 6.7135172758792745 0 0 0
1447 483 1 -0.8476 27.757141424821672 23.47112846414966 8.879543791737637 0 0 0
1111 371 1 -0.8476 27.875861370502985 18.349765520781162 13.9725775581272 0 0 0
1112 371 2 0.4238 28.320176478767102 18.355412474824227 13.05222118647536 0 0 0
1113 371 2 0.4238 27.972020774084925 17.395364769715925 14.325925517154184 0 0 0
1234 412 1 -0.8476 23.271610419253545 19.7871935705368 10.032583722954374 0 0 0
1235 412 2 0.4238 23.63172094916826 18.90664327112748 9.66154201764214 0 0 0
1236 412 2 0.4238 24.050893775225965 20.278378823000317 10.460449846989393 0 0 0
1336 446 1 -0.8476 26.293336180205582 17.683149432642605 10.639861623264418 0 0 0
1337 446 2 0.4238 25.549269284656756 17.47269012718424 9.980825286344405 0 0 0
1338 446 2 0.4238 25.854347200332555 18.043788156588484 11.482024212246996 0 0 0
1517 506 2 0.4238 23.154543085236035 21.6352127859794 7.395222822829323 0 0 0
1525 509 1 -0.8476 24.376338094166297 22.77321123118356 7.2678956925342595 0 0 0
1645 549 1 -0.8476 28.838919217475077 18.05058264309018 11.458795976735766 0 0 0
1646 549 2 0.4238 27.918017343680994 17.861267461464983 11.04816139401866 0 0 0
1647 549 2 0.4238 29.50977914475769 18.038378124487714 10.681655405400308 0 0 0
316 106 1 -0.8476 3.9663333230695255 25.971124688188436 13.015389641158261 0 0 0
317 106 2 0.4238 3.394757988337134 25.177682162826557 13.230115378408467 0 0 0
318 106 2 0.4238 4.508465726593425 25.735454052138397 12.175621342015404 0 0 0
595 199 1 -0.8476 5.363441921380341 25.382710547571538 10.832956950024542 0 0 0
596 199 2 0.4238 5.805709587311292 24.514782820665154 10.543839106006722 0 0 0
597 199 2 0.4238 5.757813565146347 26.131885268427087 10.269156861617018 0 0 0
676 226 1 -0.8476 6.624345016706411 27.413637905222522 9.416297003307282 0 0 0
677 226 2 0.4238 6.353322079191854 27.929588036929825 8.581269565531269 0 0 0
678 226 2 0.4238 6.991140705421282 28.091405098294896 10.085439639364003 0 0 0
769 257 1 -0.8476 8.165158323230468 25.253987824058854 8.90404219847586 0 0 0
771 257 2 0.4238 7.5979991638551345 26.092127134259158 9.051188548255874 0 0 0
847 283 1 -0.8476 27.837940308384223 27.187151218092346 12.2023383235845 -1 0 0
848 283 2 0.4238 28.594719630138982 27.68243462880786 11.75434656686089 -1 0 0
849 283 2 0.4238 27.688972195836268 27.652348166150972 13.093663911393373 -1 0 0
1024 342 1 -0.8476 4.112594638997209 28.62123866251211 13.259483882254038 0 0 0
1025 342 2 0.4238 4.0108954801934535 27.59993930911133 13.239948764667272 0 0 0
1026 342 2 0.4238 4.960544938408281 28.838863131532644 12.771648724499524 0 0 0
1370 457 2 0.4238 9.416509786480894 29.06388355307002 5.084215754034156 0 0 0
538 180 1 -0.8476 25.88759286275902 22.35727844883562 13.756063315823424 0 0 0
845 282 2 0.4238 0.8769730385883528 29.43008837283536 14.80016857862738 0 0 0
1072 358 1 -0.8476 12.27415139837979 15.431332751651484 14.773998330793397 0 0 0
1010 337 2 0.4238 16.49166578779948 29.524972651460452 4.120446083502429 0 -1 0
1697 566 2 0.4238 28.98908984523947 28.94628937902901 6.693573662752869 0 0 0
1704 568 2 0.4238 2.797088798776975 29.519693711224964 13.551410291450262 0 0 0
145 49 1 -0.8476 11.894508565684506 29.211335510971725 8.852016118508029 0 0 0
1110 370 2 0.4238 27.053477972980023 25.606750312271664 12.861689198864608 0 0 0
148 50 1 -0.8476 7.852945184856174 29.037056153693168 11.279776074302077 0 0 0
149 50 2 0.4238 7.863153353143735 29.962787153960814 11.721834211564373 0 0 0
150 50 2 0.4238 8.262537665338643 28.400513207044117 11.942859186599701 0 0 0
169 57 1 -0.8476 11.061481797673881 27.055624099582175 7.438959524804491 0 0 0
170 57 2 0.4238 11.508044618821348 27.86685873363622 7.876431080759466 0 0 0
171 57 2 0.4238 11.67731129365096 26.717696452958233 6.706200471174112 0 0 0
1028 343 2 0.4238 28.224264171998463 28.61270579361473 1.983586015679355 0 -1 0
1594 532 1 -0.8476 27.12946102069442 15.868241803188605 2.135421214225592 0 0 0
605 202 2 0.4238 10.354495566794364 20.2908821276992 8.534417274733135 0 0 0
770 257 2 0.4238 9.07108939644883 25.43482620288196 9.341216938877803 0 0 0
1212 404 2 0.4238 14.39562144425821 26.506447609380235 11.072534580387565 0 0 0
1231 411 1 -0.8476 13.872557659931608 23.15926554035968 8.949151840926337 0 0 0
1232 411 2 0.4238 12.999235906622753 23.11781720922554 9.477283214587828 0 0 0
1233 411 2 0.4238 13.867389725728438 22.366492060743596 8.303740778582517 0 0 0
1342 448 1 -0.8476 14.127426422588194 25.613206738929016 7.906027993490385 0 0 0
1343 448 2 0.4238 14.067602985260555 24.670313280127807 8.303827473149457 0 0 0
1344 448 2 0.4238 13.891572689916353 26.249519590414646 8.667690020435968 0 0 0
1405 469 1 -0.8476 13.099524407128516 27.02875006380103 10.037295078646295 0 0 0
1406 469 2 0.4238 12.82820725241043 27.961440917437752 9.725313120354922 0 0 0
1407 469 2 0.4238 12.229637653430014 26.533268145359244 10.213433773378503 0 0 0
1420 474 1 -0.8476 11.481430555610105 23.03059903177156 10.219787311745277 0 0 0
1421 474 2 0.4238 11.384212840327478 23.022443574015767 11.221957266236119 0 0 0
1422 474 2 0.4238 11.108637923648953 22.14285396732296 9.87720948701183 0 0 0
1756 586 1 -0.8476 10.716457619039213 25.618826079216188 9.72121768886842 0 0 0
1757 586 2 0.4238 11.04215808368294 24.652079616825006 9.745721109221662 0 0 0
1758 586 2 0.4238 10.874514925114697 25.998605343711514 8.785300343873926 0 0 0
349 117 1 -0.8476 20.974680703152313 24.73370059437595 7.80222034426822 0 0 0
350 117 2 0.4238 20.739380362743418 23.9320573145372 7.210453218882677 0 0 0
392 131 2 0.4238 20.029561992543254 23.919454732963455 12.413522930926106 0 0 0
393 131 2 0.4238 21.360775764014463 23.460212215942548 13.20099482440519 0 0 0
465 155 2 0.4238 17.242777304540557 25.417288554918585 7.1406892546085725 0 0 0
762 254 2 0.4238 7.732484988905011 15.392443014816406 5.07341051043675 0 0 0
1073 358 2 0.4238 12.844398594926576 16.219592440034692 14.465015234468511 0 0 0
600 200 2 0.4238 19.56097765317849 23.696014318509224 14.501084681032248 0 0 0
1087 363 1 -0.8476 15.808788885766774 24.646324629636084 13.92427916835072 0 0 0
1088 363 2 0.4238 15.462390661745513 25.13931004308156 13.102625258523648 0 0 0
1089 363 2 0.4238 15.609166171399137 23.64651566195172 13.782757522743077 0 0 0
1165 389 1 -0.8476 18.368507286407887 24.12423772394007 13.000851250019918 0 0 0
1166 389 2 0.4238 18.147527900264027 24.591812165887504 12.11499518428377 0 0 0
1167 389 2 0.4238 17.55484300726222 24.299658680880793 13.5895625818027 0 0 0
1674 558 2 0.4238 27.622062176758522 29.54322463693552 14.174194772968795 0 0 0
1210 404 1 -0.8476 15.160503550313956 26.18063156381746 11.663277739096603 0 0 0
1211 404 2 0.4238 15.346679703346906 26.939358136546037 12.333049667337598 0 0 0
1471 491 1 -0.8476 17.389872618952733 25.017993625577283 10.678260494771328 0 0 0
1472 491 2 0.4238 16.557152532810985 25.53021109474072 10.986604357485767 0 0 0
1473 491 2 0.4238 17.05858206804795 24.23149165233123 10.115392821853877 0 0 0
1693 565 1 -0.8476 18.435549736024225 25.638721207795243 8.217873862733843 0 0 0
1694 565 2 0.4238 19.397872149094677 25.328836374812234 8.085601071342605 0 0 0
1695 565 2 0.4238 18.213447917734694 25.543478520014656 9.205094633543938 0 0 0
1726 576 1 -0.8476 16.55370439885649 22.859238973372623 9.28028355456586 0 0 0
1727 576 2 0.4238 15.537984081217227 22.95960490596135 9.31545118179815 0 0 0
1728 576 2 0.4238 16.767898683424715 22.62939940236632 8.31388229255124 0 0 0
1736 579 2 0.4238 15.606767154069056 28.92320031125798 13.829818606503501 0 0 0
355 119 1 -0.8476 22.424930246811595 24.31261987092054 10.099728431843085 0 0 0
356 119 2 0.4238 21.875934771633297 24.0364751496218 10.923797103623018 0 0 0
357 119 2 0.4238 21.796399635586077 24.28507094734237 9.295465029032526 0 0 0
1108 370 1 -0.8476 26.648417096919516 24.94424962297991 13.512442198525207 0 0 0
757 253 1 -0.8476 22.503742149418052 26.994256596991097 9.582496997357454 0 0 0
758 253 2 0.4238 22.526880119148604 26.047106165337674 9.95616965535695 0 0 0
759 253 2 0.4238 21.684310240343056 27.056956054571476 9.00519825849122 0 0 0
961 321 1 -0.8476 24.867633464826532 27.09164979048872 8.316931054429114 0 0 0
962 321 2 0.4238 25.55359679979328 26.642725684987823 8.922465686241214 0 0 0
963 321 2 0.4238 24.007008815451528 27.178626425132556 8.866120527530835 0 0 0
1078 360 1 -0.8476 26.628604811744847 25.814677784369707 10.053566342341533 0 0 0
1079 360 2 0.4238 27.358856028515422 25.201233213631703 9.703854024990877 0 0 0
1080 360 2 0.4238 27.029080747742846 26.36382322428712 10.812077581157302 0 0 0
1045 349 1 -0.8476 21.15947354090744 29.77698474282458 3.0532811553804686 0 -1 0
1097 366 2 0.4238 24.376423704968182 25.644436360819473 14.780751991926351 0 0 0
365 122 2 0.4238 18.50534453779384 16.14508903000789 14.607660817907217 0 0 0
156 52 2 0.4238 19.670446635293263 20.296979891077214 14.184342141663748 0 0 0
773 258 2 0.4238 27.86965626522543 15.083799791552734 14.155724418302743 0 0 0
10 4 1 -0.8476 25.905760652253267 29.076444482571297 3.6011160984332315 0 -1 0
1651 551 1 -0.8476 8.922001520297302 28.72373924783068 6.88984514140062 0 -1 0
791 264 2 0.4238 7.24586148412404 28.73801357263284 6.856946218192024 0 -1 0
1652 551 2 0.4238 9.070757645208614 29.344861868184193 7.68889022655823 0 -1 0
12 4 2 0.4238 26.671148679917337 29.509819628013958 3.095888318627311 0 -1 0
335 112 2 0.4238 23.595285638507452 29.563138925559382 5.177893067833134 0 -1 0
790 264 1 -0.8476 6.228671640326926 28.620067891897644 6.917110628094141 0 -1 0
11 4 2 0.4238 25.517473968510032 29.750965142565164 4.252039774233264 0 -1 0
1735 579 1 -0.8476 15.658730602886404 27.932225207189678 13.5956332360349 0 0 0
1494 498 2 0.4238 20.90208755839481 18.942274408473377 0.11757938558965678 0 0 1
1308 436 2 0.4238 14.245436200018807 29.540576142823518 3.3687682057243573 0 -1 0
368 123 2 0.4238 21.74230426405823 15.114795935673037 14.134702621039064 0 0 0
135 45 2 0.4238 4.9850900520614845 29.87901882399513 6.824410337882486 0 -1 0
741 247 2 0.4238 11.18708793030945 23.213707799489804 0.023056767747262237 0 0 0
567 189 2 0.4238 25.93575943262768 27.431859964145495 0.006585843205947299 0 0 0
89 30 2 0.4238 7.388205170373723 22.45169808676574 21.85707637737779 0 0 0
526 176 1 -0.8476 7.874418778757659 19.555802514681222 19.099644506608154 0 0 0
527 176 2 0.4238 7.1080446350845365 19.12141188386216 18.616040281555403 0 0 0
663 221 2 0.4238 26.0719566258856 26.15285490682829 16.092167154919498 0 0 0
904 302 1 -0.8476 6.600346900671165 21.466152936168406 20.66289215127407 0 0 0
905 302 2 0.4238 5.84387881108699 20.840501806760724 20.95765197307475 0 0 0
906 302 2 0.4238 7.207994605876051 20.904671134575995 20.06564749058462 0 0 0
1300 434 1 -0.8476 1.2512487329713433 20.48151330465405 16.506655487089432 0 0 0
1301 434 2 0.4238 1.49413113496704 20.39218010553556 17.488300650427895 0 0 0
1302 434 2 0.4238 0.2880263531345764 20.16845326709187 16.402889270521005 0 0 0
1393 465 1 -0.8476 2.1252310580775853 20.419748516198272 19.167248657636026 0 0 0
1394 465 2 0.4238 3.0137588409250027 20.886269719575328 19.236947671997044 0 0 0
1395 465 2 0.4238 2.2151075520920096 19.545533436475168 19.690712489555555 0 0 0
512 171 2 0.4238 9.91677498176783 27.800647561330603 27.893316294642812 0 -1 0
1293 431 2 0.4238 26.006692965828396 28.795325558665457 15.490569800441596 0 0 0
1609 537 1 -0.8476 29.84701566075337 21.328166047962647 20.331652360767382 -1 0 0
1610 537 2 0.4238 0.13593216792565466 22.084544557992086 20.927310076838605 0 0 0
1611 537 2 0.4238 0.6636998541934921 21.05647584065282 19.77940700560041 0 0 0
1720 574 1 -0.8476 2.3870332145102195 18.288126880962444 20.842249866132224 0 0 0
1721 574 2 0.4238 1.3885695474683055 18.1784268894177 20.994835804458365 0 0 0
1722 574 2 0.4238 2.838768111574627 17.41424436246945 21.1289410669837 0 0 0
528 176 2 0.4238 8.43003034547371 18.811238652229736 19.518457881552152 0 0 0
589 197 1 -0.8476 13.861648914811092 20.40784199544402 20.8591834306869 0 0 0
590 197 2 0.4238 14.847830594160486 20.33859073439352 20.616041545266345 0 0 0
591 197 2 0.4238 13.365146469644618 20.5760277813249 19.98302015065013 0 0 0
811 271 1 -0.8476 8.008967972614698 15.34542859384266 19.417261951148593 0 0 0
812 271 2 0.4238 7.71407596236518 15.128371288604205 20.355349660887004 0 0 0
813 271 2 0.4238 8.584744304719463 16.189159488873038 19.48358396070717 0 0 0
354 118 2 0.4238 26.893938930460074 29.299742783017873 28.854242550816814 0 0 0
1245 415 2 0.4238 11.272449236869269 17.465650304213977 15.661658272893964 0 0 0
1332 444 2 0.4238 12.490567888676747 15.876216519309354 21.079380279547888 0 0 0
1522 508 1 -0.8476 12.795012243780914 20.960135769429947 18.39828544428177 0 0 0
1523 508 2 0.4238 11.972617359232542 20.376081550035515 18.23676148170143 0 0 0
1675 559 1 -0.8476 15.49833167208074 21.10985774877901 17.78222602905012 0 0 0
1676 559 2 0.4238 15.61648641158796 22.109869284026523 17.96623253499623 0 0 0
1677 559 2 0.4238 14.501289919467174 20.923033088220937 17.88982805650852 0 0 0
1723 575 1 -0.8476 10.534620229349848 19.464255787114432 17.936106842159976 0 0 0
1724 575 2 0.4238 10.551752683043048 19.087186626731647 16.98542941582031 0 0 0
1725 575 2 0.4238 9.60569292084965 19.82953357310368 18.107123060383437 0 0 0
1774 592 1 -0.8476 9.629964563558932 17.51907731214243 19.746690517825325 0 0 0
1775 592 2 0.4238 10.212681488425432 18.073571787332806 19.123258863709058 0 0 0
1776 592 2 0.4238 10.20569800959638 17.309730150017355 20.56726486710322 0 0 0
1243 415 1 -0.8476 10.698660575589312 18.27506443276946 15.48574799952767 0 0 0
191 64 2 0.4238 20.198574570032907 16.32935096525189 18.593972078471992 0 0 0
283 95 1 -0.8476 16.529346379857433 20.394365085724445 20.221612061393316 0 0 0
284 95 2 0.4238 16.946064565821118 19.453007914253952 20.20715974998724 0 0 0
285 95 2 0.4238 16.27897581813177 20.607989066909898 19.254139557756876 0 0 0
359 120 2 0.4238 22.113801689479885 22.460104962319186 18.854154748029014 0 0 0
1074 358 2 0.4238 12.504404465151007 15.255782145221804 15.76119347095065 0 0 0
736 246 1 -0.8476 6.501357880333332 15.925702996271186 27.00135032593148 0 0 0
946 316 1 -0.8476 18.764451587608793 21.98510894226873 20.56654354462508 0 0 0
947 316 2 0.4238 19.532800453374723 21.331822637714737 20.720785480877307 0 0 0
948 316 2 0.4238 17.923280522420832 21.42757779493507 20.443903576098528 0 0 0
1003 335 1 -0.8476 16.8737263254573 20.438964092481744 15.482365671728495 0 0 0
1575 525 2 0.4238 25.29275885238576 16.012009885192956 27.59208976471408 0 0 0
1005 335 2 0.4238 16.388891400434737 20.644766280968103 16.35817476221651 0 0 0
1156 386 1 -0.8476 17.535969675893572 17.918249364161674 20.141588540502916 0 0 0
1157 386 2 0.4238 16.869410468702092 17.33581189638489 20.647791162560093 0 0 0
1158 386 2 0.4238 18.19353006193629 17.285355571665555 19.684213658464806 0 0 0
1180 394 1 -0.8476 20.870148513365926 20.277864055654977 20.812008067778585 0 0 0
1181 394 2 0.4238 21.533452079862457 20.458798808693317 20.051495136857376 0 0 0
1182 394 2 0.4238 20.613924109473324 19.307132425893546 20.756316387854753 0 0 0
1348 450 1 -0.8476 21.682675720318876 19.36021423992418 16.5740508334794 0 0 0
1349 450 2 0.4238 20.89767480906952 19.832380471378745 16.12462656443212 0 0 0
1468 490 1 -0.8476 21.628282915904556 16.724794209296302 17.618892580542507 0 0 0
1469 490 2 0.4238 22.521723036409398 16.24440184604144 17.661854895168844 0 0 0
1470 490 2 0.4238 21.808819162192044 17.699014240069317 17.381188714453042 0 0 0
1654 552 1 -0.8476 15.712810783861343 16.434116361120434 21.544791733341775 0 0 0
1655 552 2 0.4238 14.806542149757455 16.03579766337114 21.291648909026673 0 0 0
31 11 1 -0.8476 22.50892679781674 20.780207623258722 18.72514305370434 0 0 0
32 11 2 0.4238 22.21223268515777 20.231504860925007 17.913400923237813 0 0 0
33 11 2 0.4238 23.483623992662036 21.034908613290817 18.566449897912683 0 0 0
439 147 1 -0.8476 28.441049409535054 17.935544549875164 18.45478871314852 0 0 0
440 147 2 0.4238 28.550922846870616 18.593307514570718 17.680802063096518 0 0 0
441 147 2 0.4238 27.510264858462175 17.538401969913778 18.3684655326382 0 0 0
774 258 2 0.4238 28.388269294513485 15.417122106808069 15.683049372723037 0 0 0
865 289 1 -0.8476 28.583497323782563 19.64625540046325 16.287628114402043 0 0 0
353 118 2 0.4238 25.396780569105836 29.649123835961323 29.36700757278196 0 0 0
867 289 2 0.4238 27.808145878112224 20.307219046690683 16.356979076980647 0 0 0
991 331 1 -0.8476 29.516993968608194 18.64046462375083 20.843871310495253 0 0 0
992 331 2 0.4238 29.145139304007905 18.286764742865007 19.956467357163177 0 0 0
993 331 2 0.4238 29.56672279019171 19.65328185589279 20.73512959886562 0 0 0
1144 382 1 -0.8476 26.060339868704602 16.480306214324465 17.891592088029057 0 0 0
907 303 1 -0.8476 0.7319920978158841 24.009240582782464 25.332223817121548 1 0 0
1146 382 2 0.4238 25.76575820695028 17.33689334212105 17.40121609698997 0 0 0
1192 398 1 -0.8476 26.31477284025734 21.15505936621461 16.15434309705496 0 0 0
1193 398 2 0.4238 26.109245972443077 21.612222548120986 15.259700555327742 0 0 0
1194 398 2 0.4238 25.750188017069267 21.613314520061234 16.869537679798682 0 0 0
1350 450 2 0.4238 22.363554090547424 19.159681494278274 15.838605897578029 0 0 0
1423 475 1 -0.8476 28.40958486730009 15.2029023544561 17.513257933594474 0 0 0
1424 475 2 0.4238 27.45133942443186 15.54749098901811 17.617665042925214 0 0 0
1425 475 2 0.4238 28.994901164966137 15.973540736896148 17.80778502353757 0 0 0
1732 578 1 -0.8476 25.295268260663995 18.66727579509237 16.643166150063077 0 0 0
1733 578 2 0.4238 25.72917323177732 19.577168731535505 16.498217847605094 0 0 0
1734 578 2 0.4238 24.573761908921963 18.577643702325126 15.928174977277669 0 0 0
90 30 2 0.4238 7.8588721915459745 24.010324974718703 21.90287735469414 0 0 0
223 75 1 -0.8476 5.514245588572454 23.97106336956037 20.334311172018197 0 0 0
224 75 2 0.4238 5.910798380095508 23.034785864882007 20.382754310666648 0 0 0
225 75 2 0.4238 6.269942374865965 24.615960386905094 20.54216090174651 0 0 0
478 160 1 -0.8476 2.8733433687227157 24.226355144060843 20.68128505650129 0 0 0
479 160 2 0.4238 2.5387353232846688 24.443052025286203 19.761509381571354 0 0 0
480 160 2 0.4238 3.8924848789718958 24.121168739622004 20.608239671033164 0 0 0
1227 409 2 0.4238 21.53357283559031 25.68601074161173 29.12913404340014 0 0 0
844 282 1 -0.8476 0.21526463431667978 29.093269634593177 15.496697937071845 0 0 0
612 204 2 0.4238 21.111779379224203 29.76206000775502 19.77007522650865 0 -1 0
846 282 2 0.4238 0.5652493708914671 29.380426103332816 16.40479421849217 0 0 0
1706 569 2 0.4238 13.96219082739354 29.84227013043743 25.727850777988394 0 0 0
854 285 2 0.4238 2.5271690465168293 20.81369778477641 15.408960187374193 0 0 0
855 285 2 0.4238 3.62343459959798 22.009129620334267 15.440099087054534 0 0 0
1101 367 2 0.4238 10.159081960049496 29.56536694285393 17.349473050496567 0 0 0
738 246 2 0.4238 6.816185298403497 15.030989760263333 27.377241461695334 0 0 0
1384 462 1 -0.8476 16.25903808780425 21.33966272400141 29.860708197209153 0 0 -1
1753 585 1 -0.8476 1.7703803563027434 29.52949385862016 21.79798148453364 0 0 0
1754 585 2 0.4238 1.357937107182134 28.682096640815242 22.17912098346115 0 0 0
809 270 2 0.4238 7.051620031407773 15.710047889258146 23.94913506675448 0 0 0
352 118 1 -0.8476 26.023478131880317 28.883961008857344 29.13125137246732 0 0 0
446 149 2 0.4238 10.740192110385852 29.8269320738689 21.19643739865344 0 -1 0
505 169 1 -0.8476 13.704227905625164 27.561129088630533 21.877093712028863 0 0 0
507 169 2 0.4238 13.07551035999918 27.051262171543343 21.253720673355208 0 0 0
523 175 1 -0.8476 7.720239941421729 25.522575881932948 21.133047431398307 0 0 0
524 175 2 0.4238 7.519915753888985 26.170675115367576 21.8967980698656 0 0 0
525 175 2 0.4238 8.383504248493578 25.97593113724504 20.504550430484816 0 0 0
787 263 1 -0.8476 11.470329232770947 29.13063372111095 22.485584711225176 0 0 0
788 263 2 0.4238 12.284371091732169 28.527812800633015 22.427767728382204 0 0 0
880 294 1 -0.8476 13.616680214891085 23.8105814399967 20.36326211327154 0 0 0
881 294 2 0.4238 13.229237697529562 23.060871147124487 20.909157865446062 0 0 0
882 294 2 0.4238 13.00659310566412 24.621637599594784 20.455137339563144 0 0 0
916 306 1 -0.8476 9.494102227095622 26.538119116661797 19.219705127000683 0 0 0
917 306 2 0.4238 9.571270516822098 27.46975907425318 18.79845619164283 0 0 0
918 306 2 0.4238 9.293030919063112 25.903783406305983 18.466695538461032 0 0 0
1099 367 1 -0.8476 9.73424864547868 28.98710946661618 18.061460049367724 0 0 0
1100 367 2 0.4238 9.94689129800192 29.43845506302439 18.953691262724483 0 0 0
1147 383 1 -0.8476 12.086861837578935 26.096680122570806 20.195747939276245 0 0 0
1148 383 2 0.4238 11.11122201455513 26.29343043270826 19.982079346715278 0 0 0
1149 383 2 0.4238 12.626047684008334 26.368232878496354 19.36059741280147 0 0 0
1216 406 1 -0.8476 12.335924882418846 23.456533646675542 17.450273085287883 0 0 0
1217 406 2 0.4238 12.175999963313977 24.13613982720497 18.171269414981467 0 0 0
1218 406 2 0.4238 13.015183706444098 23.866035233644173 16.812214490502317 0 0 0
1524 508 2 0.4238 12.567127729417214 21.88807173425952 18.027271325069318 0 0 0
1612 538 1 -0.8476 13.601792708726682 26.64099555423794 18.109468310728793 0 0 0
1613 538 2 0.4238 14.456891076370189 27.118353864022026 18.39559468290188 0 0 0
1614 538 2 0.4238 13.850065884815221 26.05748845099609 17.311410160714438 0 0 0
1783 595 1 -0.8476 10.174158691747259 22.0172430097003 23.22229765242475 0 0 0
166 56 1 -0.8476 16.01387332906596 27.61943187719452 18.927666181027714 0 0 0
167 56 2 0.4238 16.42316222131304 26.720167384975376 19.18690152159287 0 0 0
168 56 2 0.4238 16.44313592408655 28.29855193630705 19.55538739811103 0 0 0
358 120 1 -0.8476 22.04515561738684 23.477100564264234 18.856681882677396 0 0 0
360 120 2 0.4238 21.292016103072996 23.726085634990472 19.486823183938053 0 0 0
506 169 2 0.4238 14.481929852019768 26.938412214960373 22.06787422729939 0 0 0
631 211 1 -0.8476 14.458750871498117 24.797376001757883 16.299052768790922 0 0 0
632 211 2 0.4238 14.982851062861497 24.765193573192676 15.422486410492645 0 0 0
633 211 2 0.4238 15.030103698598845 24.346273882484155 17.014621014991224 0 0 0
709 237 1 -0.8476 17.457123044669626 29.321220801094135 20.4960092657652 0 0 0
722 241 2 0.4238 28.7501105204792 21.6354574357049 25.68206040339088 0 0 0
711 237 2 0.4238 18.4513489417559 29.11688827505986 20.372893927017664 0 0 0
778 260 1 -0.8476 20.337863604614967 26.387998360671975 18.497697397026556 0 0 0
779 260 2 0.4238 20.070675556444993 25.625376776910617 19.122168752384948 0 0 0
780 260 2 0.4238 20.98314521099592 25.98846529179364 17.819193503816738 0 0 0
913 305 1 -0.8476 19.73367437981761 24.425007476406105 20.32131070846985 0 0 0
914 305 2 0.4238 20.035485875276045 24.66554785570053 21.272096494173038 0 0 0
915 305 2 0.4238 19.331405673797274 23.477266422444945 20.387152506551146 0 0 0
949 317 1 -0.8476 15.575140806803216 23.70752734341553 18.52731405820566 0 0 0
950 317 2 0.4238 14.793659384107595 23.703630104212625 19.192926247929393 0 0 0
951 317 2 0.4238 16.290836023608374 24.28602648307678 18.9667022642159 0 0 0
1102 368 1 -0.8476 20.060160708242268 28.446272720536033 20.30553042220592 0 0 0
1103 368 2 0.4238 20.193239341455037 27.678577545720636 19.644975642621684 0 0 0
1104 368 2 0.4238 20.21529825455999 28.079760905075013 21.240593296414286 0 0 0
1138 380 1 -0.8476 19.060468603871136 28.037789743395102 16.67812114442764 0 0 0
1139 380 2 0.4238 19.438160286580448 27.454636204078565 17.42305508889811 0 0 0
1140 380 2 0.4238 19.648343225961867 27.911426700165215 15.87579341801038 0 0 0
1597 533 1 -0.8476 17.113015007066227 25.38414040935869 20.019445224364002 0 0 0
1598 533 2 0.4238 18.06890842286892 25.06337302516616 20.156493975500407 0 0 0
1599 533 2 0.4238 16.666601956463925 25.422895482765764 20.93203667352767 0 0 0
1630 544 1 -0.8476 16.69751097988679 29.3095888492035 16.865235400051446 0 0 0
1631 544 2 0.4238 16.255464558341874 28.660873257449943 17.51509849937358 0 0 0
1632 544 2 0.4238 17.63232422615643 28.920015257963506 16.702211619596394 0 0 0
1574 525 2 0.4238 26.12510046123806 15.316094064525975 28.782979843266446 0 0 0
644 215 2 0.4238 10.803747050842619 29.95807457912779 28.948077059054093 0 0 0
1777 593 1 -0.8476 21.94580105577012 24.980126991200486 16.643389600647353 0 0 0
1778 593 2 0.4238 21.36745667332159 24.431511910223353 16.003504396463804 0 0 0
1779 593 2 0.4238 22.1001057407161 24.380428876679908 17.460303124497276 0 0 0
1401 467 2 0.4238 29.384445087411336 27.60330096134975 25.684602598056117 0 0 0
19 7 1 -0.8476 28.11662385849762 23.847910241923703 17.16319706687396 0 0 0
20 7 2 0.4238 28.255324293062845 23.22434791377964 16.388185055420415 0 0 0
21 7 2 0.4238 27.79345280987639 24.73703098959903 16.785285041960453 0 0 0
64 22 1 -0.8476 24.910016468632108 22.12595494721427 18.3302398280273 0 0 0
65 22 2 0.4238 24.417085701896735 22.96376347555452 18.5956219707976 0 0 0
66 22 2 0.4238 25.822415227042594 22.150391992907437 18.80064730374639 0 0 0
547 183 1 -0.8476 27.419902086824642 22.344107196746737 19.29344378139061 0 0 0
548 183 2 0.4238 28.245194607121935 21.884045143151244 19.662989760833618 0 0 0
549 183 2 0.4238 27.7347619211286 22.961426384319402 18.540391975707298 0 0 0
661 221 1 -0.8476 27.07582279829909 26.094201920698307 15.92993859854727 0 0 0
37 13 1 -0.8476 28.07524367369644 15.864458094208025 26.587395717726405 0 0 0
816 272 2 0.4238 21.10946198342116 24.683870858317935 23.435196815015086 0 0 0
1141 381 1 -0.8476 26.855687172427142 17.034757309543306 29.662123223465 0 0 0
842 281 2 0.4238 20.35266041820174 16.584797319505263 16.498479778896385 0 0 0
1540 514 1 -0.8476 22.210351818161108 23.82386733019601 24.41081781215711 0 0 0
1541 514 2 0.4238 23.208531845743966 23.932508066373696 24.39820977918952 0 0 0
1542 514 2 0.4238 22.008620189450298 22.953284151962965 23.89438129303867 0 0 0
1556 519 2 0.4238 29.792500157079807 27.017605849678127 22.19031845437622 -1 0 0
486 162 2 0.4238 4.457925049843634 28.905725530960282 27.68480297760188 0 0 0
513 171 2 0.4238 8.98942468448898 29.131816216130577 27.957896961894964 0 -1 0
247 83 1 -0.8476 4.727167219180933 16.960787494511745 28.845262940085274 0 0 0
248 83 2 0.4238 4.763905039382576 17.839282064527698 29.367025388058952 0 0 0
249 83 2 0.4238 3.907727403179404 16.99978539574427 28.264219311713195 0 0 0
310 104 1 -0.8476 8.914487501563652 21.039343066750934 26.542215025103772 0 0 0
312 104 2 0.4238 8.757104033669954 20.222697198474386 25.945730522704622 0 0 0
502 168 1 -0.8476 4.756674857106826 19.59639630365321 21.337055053001507 0 0 0
503 168 2 0.4238 3.851939229658358 19.174460285059567 21.13333004338425 0 0 0
504 168 2 0.4238 5.182376788406445 19.025329201157433 22.044575617636507 0 0 0
808 270 1 -0.8476 7.5636058807693765 16.323057362909136 24.584769864417535 0 0 0
111 37 2 0.4238 0.4510790124249237 22.784382472846147 29.673862841248546 0 0 -1
810 270 2 0.4238 7.105894742665176 16.218523578157452 25.499436402786042 0 0 0
871 291 1 -0.8476 28.963206170568803 18.023712796694337 28.079796744935518 -1 0 0
872 291 2 0.4238 28.522704399593234 18.62735063040358 27.397408576737952 -1 0 0
873 291 2 0.4238 28.92725267191803 17.090061638508413 27.674254225966667 -1 0 0
980 327 2 0.4238 4.393673579169735 15.99323259479263 22.543573387694273 0 0 0
1066 356 1 -0.8476 0.6254135126354057 19.6954536573739 29.494784426119754 0 0 0
1067 356 2 0.4238 0.039654637815567495 20.52994662168954 29.44352610897107 0 0 0
1068 356 2 0.4238 0.1115125098919342 18.971275715543158 28.989427575929266 0 0 0
1372 458 1 -0.8476 8.836992915488949 18.789846672458612 24.992157491111726 0 0 0
1374 458 2 0.4238 8.293754957984614 17.97278928935353 24.719003647069073 0 0 0
242 81 2 0.4238 14.243423038833487 29.233793346093584 22.045312590159313 0 0 0
1490 497 2 0.4238 6.783166058971364 23.93208928625714 25.391994423020357 0 0 0
1491 497 2 0.4238 6.968134502154916 23.85618575119146 23.76927488024314 0 0 0
1642 548 1 -0.8476 3.0184997533938036 21.146279334501674 29.300272175217422 0 0 0
1643 548 2 0.4238 2.1704200791817505 20.584700190845442 29.23693208302714 0 0 0
1644 548 2 0.4238 3.7189443655633894 20.526568655612035 29.712096036793174 0 0 0
43 15 1 -0.8476 10.879134338057412 19.457749270114842 23.243861871420467 0 0 0
44 15 2 0.4238 11.87065733242796 19.569515677834865 23.431068637409638 0 0 0
45 15 2 0.4238 10.516133608216569 20.414830889971302 23.151988414638872 0 0 0
79 27 1 -0.8476 14.638249586436098 17.415467337848344 23.957205770925754 0 0 0
80 27 2 0.4238 15.178455762829993 17.178997951597555 24.771493563764373 0 0 0
81 27 2 0.4238 13.751684607898639 16.90520867493327 24.026730270289377 0 0 0
311 104 2 0.4238 8.106241622132712 21.64592384841105 26.46142284072338 0 0 0
1145 382 2 0.4238 25.215958733310494 15.920125292861396 17.987642149848153 0 0 0
1142 381 2 0.4238 27.735192552861324 17.4222513103301 29.335963397795442 0 0 0
979 327 1 -0.8476 3.860473407446336 16.134496985612174 21.699694813827385 0 0 0
110 37 2 0.4238 2.0505750274356687 22.542713456562915 29.87315005907976 0 0 -1
1190 397 2 0.4238 11.30099736193639 20.005951941452253 29.340058004406973 0 0 0
841 281 1 -0.8476 19.51862691556284 16.65363344415889 15.913024340290312 0 0 0
1273 425 1 -0.8476 13.635247625793603 19.871252857845082 23.45206270833204 0 0 0
1274 425 2 0.4238 14.050122741717338 18.945338092106898 23.599582933542056 0 0 0
1275 425 2 0.4238 13.596932060097942 20.01811027773085 22.432809451009298 0 0 0
1285 429 1 -0.8476 12.319977163002795 16.04321261257595 24.19930305774708 0 0 0
1286 429 2 0.4238 11.518109823683279 16.002510393857516 24.833915342771512 0 0 0
1287 429 2 0.4238 12.708565326796837 15.104805400039817 24.13129445250879 0 0 0
1312 438 1 -0.8476 11.232117422138755 20.64436699312715 27.79573077397417 0 0 0
1313 438 2 0.4238 11.980701596794061 20.792183254879564 27.11729558848227 0 0 0
1314 438 2 0.4238 10.354274033374487 20.684350126805032 27.263117089478726 0 0 0
1345 449 1 -0.8476 15.51685500273598 21.815272377266606 27.157785956790324 0 0 0
1347 449 2 0.4238 15.783168323331006 21.637885770331387 28.125628275638388 0 0 0
1373 458 2 0.4238 9.537500022100504 18.955998142482493 24.271327440080068 0 0 0
1588 530 1 -0.8476 13.135031196418577 21.188413742131857 25.879810242177967 0 0 0
1589 530 2 0.4238 13.328739689354382 20.671875323229337 25.023292810047653 0 0 0
1590 530 2 0.4238 14.02842580054149 21.32414733433109 26.35619006398364 0 0 0
1098 366 2 0.4238 23.447517853090734 25.80438753220635 16.1030921860903 0 0 0
1741 581 1 -0.8476 11.204041530847867 17.113787508269848 21.92543166274652 0 0 0
1742 581 2 0.4238 11.59173903761168 16.6032893931339 22.717675358301392 0 0 0
1743 581 2 0.4238 11.000614830302652 18.045677375447642 22.292355161614836 0 0 0
1785 595 2 0.4238 9.284121831796922 22.45775205985662 22.98655142921489 0 0 0
13 5 1 -0.8476 21.574489535810837 20.086973816887166 25.31036356302685 0 0 0
14 5 2 0.4238 22.159722403164526 19.700379635792785 26.04420623891338 0 0 0
15 5 2 0.4238 20.78377319073716 20.540690446006987 25.765077023032763 0 0 0
49 17 1 -0.8476 17.33959699227134 22.199338750420054 25.11581800059987 0 0 0
50 17 2 0.4238 16.701586351670038 22.012766889572887 25.888607125085546 0 0 0
51 17 2 0.4238 16.844461404792817 21.928144511474883 24.264762882720348 0 0 0
39 13 2 0.4238 27.28408298563987 15.330946982912023 26.932876176523354 0 0 0
222 74 2 0.4238 20.544958654203135 22.727964636248856 26.84370271987481 0 0 0
421 141 1 -0.8476 18.85228377426936 17.238865493875725 27.859387850478743 0 0 0
422 141 2 0.4238 19.659494518516663 17.691215930415357 28.277398347405313 0 0 0
423 141 2 0.4238 19.190782823218086 16.368304333489426 27.448682491990763 0 0 0
508 170 1 -0.8476 19.52426246897936 21.44471195573963 26.529046202281748 0 0 0
509 170 2 0.4238 18.768298173808788 21.736777984111654 25.90437152626964 0 0 0
510 170 2 0.4238 19.07914588309135 20.93624424225989 27.296018549253077 0 0 0
699 233 2 0.4238 22.157337261665933 19.03546875066351 28.151823161586478 0 0 0
805 269 1 -0.8476 15.7418829242547 21.657153008788942 22.999722695104758 0 0 0
806 269 2 0.4238 16.131816481104227 21.45605115648423 22.086795509159852 0 0 0
807 269 2 0.4238 14.987686255434554 20.992251115564525 23.151351464905165 0 0 0
1225 409 1 -0.8476 20.694045129053066 25.1330549027148 29.09113476272885 0 0 0
1290 430 2 0.4238 14.965613564896291 23.097457741867473 23.54813408842204 0 0 0
972 324 2 0.4238 7.72037100751598 24.978081842928848 29.358028783178614 0 0 0
1304 435 2 0.4238 17.21281743305066 16.31726811592614 27.51339723520367 0 0 0
1492 498 1 -0.8476 20.72047657262167 18.899261994724963 29.129505310840294 0 0 0
1493 498 2 0.4238 19.915448172977563 19.500348274434494 28.9463860439315 0 0 0
192 64 2 0.4238 19.19176845618086 15.129102443195215 19.07863932079636 0 0 0
1656 552 2 0.4238 15.556052725206241 16.889571100125323 22.438259980583773 0 0 0
1711 571 1 -0.8476 18.315819419392167 20.029720068326768 28.50699847005054 0 0 0
1712 571 2 0.4238 17.548610846507728 20.457590609090133 29.028862863019658 0 0 0
1713 571 2 0.4238 18.038338318972798 19.086119212896435 28.262814517578054 0 0 0
40 14 1 -0.8476 23.058200543377048 21.930266706542564 28.32487257878671 0 0 0
41 14 2 0.4238 22.406559890510987 22.521290991057633 27.809719384095285 0 0 0
42 14 2 0.4238 23.33618241279963 22.43240706025864 29.147122682964394 0 0 0
121 41 1 -0.8476 27.85581149594121 17.974051071883487 22.91005860479291 0 0 0
122 41 2 0.4238 26.97648392231931 18.19513339949664 22.47475417775956 0 0 0
123 41 2 0.4238 28.580484309635104 18.216703515310595 22.228216274299022 0 0 0
229 77 1 -0.8476 27.348022472511264 18.32598737987507 25.692926471832354 0 0 0
230 77 2 0.4238 27.540918705853038 18.374334340782152 24.69727214230931 0 0 0
231 77 2 0.4238 27.607613250841194 17.38636492872325 25.99067503869714 0 0 0
668 223 2 0.4238 21.719624649840856 20.90694858962195 23.865759458694534 0 0 0
697 233 1 -0.8476 22.96873731480533 19.339431894081653 27.61347306334372 0 0 0
698 233 2 0.4238 23.113224610580392 20.323579936983805 27.863171105009894 0 0 0
721 241 1 -0.8476 29.180649790640157 22.126884417942577 26.44277927233606 0 0 0
723 241 2 0.4238 29.77841810959615 22.852109325345623 26.02969056811349 0 0 0
1021 341 1 -0.8476 25.238618041626932 17.8174902920296 27.520155175047517 0 0 0
1022 341 2 0.4238 24.37506427083653 18.369009154718736 27.527138715111363 0 0 0
1023 341 2 0.4238 25.833949161447542 18.207219912519445 26.7940720113805 0 0 0
1226 409 2 0.4238 20.796544439443615 24.49816726013853 28.294418279488276 0 0 0
1143 381 2 0.4238 26.137896161525827 17.42935246585753 29.057707927167087 0 0 0
1600 534 1 -0.8476 29.13002954680758 21.932789986905902 29.081655359082447 0 0 0
511 171 1 -0.8476 9.806503141706978 28.705456663630407 28.36310363412898 0 -1 0
1602 534 2 0.4238 29.154710059459557 22.007408861739666 28.053453777616028 0 0 0
1400 467 2 0.4238 0.42739959507419684 27.79869207219425 24.443998316093865 1 0 0
1617 539 2 0.4238 28.207083452540434 16.420120333671417 23.54315141751457 0 0 0
46 16 1 -0.8476 7.107720775649929 26.89210326496249 23.461565724602284 0 0 0
48 16 2 0.4238 6.273808112074939 27.423775195648826 23.723469597925963 0 0 0
57 19 2 0.4238 7.7201681241409705 29.88642020034237 24.198777305940265 0 0 0
74 25 2 0.4238 6.054892969497629 22.939822038696295 27.220078885190503 0 0 0
88 30 1 -0.8476 7.819638941020626 23.154765980218233 22.457650546766846 0 0 0
190 64 1 -0.8476 19.277365670320293 16.137262364417563 18.981667794828258 0 0 0
154 52 1 -0.8476 19.62721137874856 20.648506417533643 15.139692917208988 0 0 0
737 246 2 0.4238 5.913661821410692 16.352782374535916 27.711687486839196 0 0 0
484 162 1 -0.8476 4.711518230599779 28.15397196479946 27.03830777649249 0 0 0
909 303 2 0.4238 1.112458061274603 24.725667162191893 25.9474548834892 1 0 0
562 188 1 -0.8476 4.7994222716559545 25.663611330189177 28.449856237072204 0 0 0
563 188 2 0.4238 4.684625576873739 24.70524165388929 28.127537426756554 0 0 0
564 188 2 0.4238 3.938237488169407 25.881627501775785 28.95039618752584 0 0 0
577 193 1 -0.8476 2.1938014281805223 25.711745141121224 29.306539420308425 0 0 0
578 193 2 0.4238 1.854360542493384 24.769888553805917 29.49595500651389 0 0 0
579 193 2 0.4238 2.0076677643443532 25.908022834733366 28.322415173942137 0 0 0
613 205 1 -0.8476 1.9886240774323873 26.08243685567163 26.58945990722995 0 0 0
614 205 2 0.4238 2.83928091386733 26.008716881161284 26.03368934441961 0 0 0
615 205 2 0.4238 1.5022388137281841 26.922335035534385 26.27709796376509 0 0 0
784 262 1 -0.8476 4.06566059938188 25.63185769445847 24.719688578999996 0 0 0
785 262 2 0.4238 4.929773907478089 25.091982833670883 24.668450117010085 0 0 0
786 262 2 0.4238 4.3416236910874275 26.603174267928008 24.56050679645893 0 0 0
908 303 2 0.4238 1.0846668798319528 24.2271006725656 24.402851892225186 1 0 0
971 324 2 0.4238 6.556183506542298 25.688161149328835 28.45323732483377 0 0 0
1177 393 1 -0.8476 4.914897134463316 28.177056689785367 24.375097808955857 0 0 0
1178 393 2 0.4238 4.5647946310795895 29.038690907728736 23.956724506654407 0 0 0
1179 393 2 0.4238 4.870388027316262 28.296921465484125 25.397169566399526 0 0 0
1246 416 1 -0.8476 4.333181240755244 23.008757927940792 27.677657726714195 0 0 0
1247 416 2 0.4238 3.926635262592761 22.324300874478254 28.31800258526244 0 0 0
1248 416 2 0.4238 3.7229630518523127 23.049743687319157 26.87764857814074 0 0 0
1444 482 1 -0.8476 1.9895102124681916 25.009248048136254 23.094341384285894 0 0 0
1445 482 2 0.4238 2.823693466481841 25.193205613784755 23.657902127851855 0 0 0
1446 482 2 0.4238 2.3226852623349137 24.6551442559248 22.19039835703013 0 0 0
1489 497 1 -0.8476 6.531888825666713 24.39708150463862 24.51956418004658 0 0 0
1555 519 1 -0.8476 0.5390583495919785 27.25626671586174 22.819087116124628 0 0 0
1557 519 2 0.4238 1.1211221177794555 26.41689846519229 22.917981658127523 0 0 0
204 68 2 0.4238 9.999471862537881 17.17155252093725 25.994411053755247 0 0 0
47 16 2 0.4238 7.018021072491519 25.99828119900398 23.943373617939255 0 0 0
55 19 1 -0.8476 8.383508770791924 29.169933352752114 24.496953821437575 0 0 0
56 19 2 0.4238 8.024617401529353 28.278353933934394 24.17079836414869 0 0 0
73 25 1 -0.8476 7.006337801231128 23.14867876752305 26.921096266104968 0 0 0
75 25 2 0.4238 7.281141022285931 23.993027379005476 27.424492717353562 0 0 0
128 43 2 0.4238 9.900258612428697 29.606830739938538 24.90848557087543 0 -1 0
430 144 1 -0.8476 11.954898389338025 23.495449252255845 24.886033641792807 0 0 0
431 144 2 0.4238 12.182127139345914 22.62150464191565 25.362320161829523 0 0 0
432 144 2 0.4238 12.805678678819781 23.734134667040525 24.36827317952528 0 0 0
640 214 1 -0.8476 12.533502710354536 25.42468754897354 26.89299024578676 0 0 0
641 214 2 0.4238 12.269527060560845 24.736127870234547 26.195680137894062 0 0 0
642 214 2 0.4238 11.658685468646327 25.783661492373422 27.271542916344412 0 0 0
1683 561 2 0.4238 10.441822002142292 21.901969530491776 28.690952135952177 0 0 0
974 325 2 0.4238 0.034597625505736224 29.78922297497637 25.445608873248954 1 -1 0
667 223 1 -0.8476 21.77067867053429 21.578345802525423 23.093167442561437 0 0 0
536 179 2 0.4238 7.362097587636687 29.420526861321346 21.231564092188837 0 -1 0
1330 444 1 -0.8476 13.304693824878555 15.279686657084865 21.176259751677755 0 0 0
754 252 1 -0.8476 9.866312268090438 26.23081422469498 27.33376314488105 0 0 0
755 252 2 0.4238 8.992233655202053 25.901571302560757 27.747802621738078 0 0 0
756 252 2 0.4238 9.827150606713253 25.96987737390573 26.341606264080745 0 0 0
789 263 2 0.4238 11.33184440921053 29.376439882237168 23.462827155664666 0 0 0
886 296 1 -0.8476 14.343489174861203 27.478802327838135 27.040023042113443 0 0 0
887 296 2 0.4238 13.655898981714149 26.727409807612503 27.00184810171894 0 0 0
888 296 2 0.4238 13.80251298572811 28.33880699851725 27.139246348762 0 0 0
970 324 1 -0.8476 7.519428613614589 25.347455133001752 28.428511913734827 0 0 0
866 289 2 0.4238 28.428086089737857 19.15468012268879 15.406151673751564 0 0 0
1196 399 2 0.4238 11.990447720275965 29.689293411723334 26.297050687788047 0 0 0
1288 430 1 -0.8476 14.444292227834467 23.88491832185102 23.937036089017443 0 0 0
1346 449 2 0.4238 15.368366135854021 22.8249134303575 27.068392279339378 0 0 0
1639 547 1 -0.8476 9.95586553622833 25.375695817404115 24.813263889795888 0 0 0
1640 547 2 0.4238 9.825213268595968 25.78094990422643 23.90376104081213 0 0 0
1641 547 2 0.4238 10.665432196127698 24.64949554642181 24.74314304280216 0 0 0
1681 561 1 -0.8476 9.82624770000207 22.677889574551855 28.933159633869824 0 0 0
1682 561 2 0.4238 9.212482339130322 22.770037452294353 28.135747510114857 0 0 0
1784 595 2 0.4238 10.675179367330758 22.633646333883053 23.848549045795007 0 0 0
220 74 1 -0.8476 21.234727338139233 23.47426072016395 26.978795023604857 0 0 0
221 74 2 0.4238 21.565602166533047 23.71624070368401 26.04413613320211 0 0 0
259 87 1 -0.8476 16.86024165406022 26.480702039515666 27.033121408404092 0 0 0
260 87 2 0.4238 17.430849496566147 26.661666411766614 27.85962083790194 0 0 0
261 87 2 0.4238 15.975484180817398 26.98250663670943 27.15170095673551 0 0 0
382 128 1 -0.8476 15.826760713080976 25.76701777548733 22.52368814737332 0 0 0
383 128 2 0.4238 16.672617830807244 25.355817260153874 22.949142324442246 0 0 0
384 128 2 0.4238 15.078734544272564 25.167048038852215 22.87185581947603 0 0 0
388 130 1 -0.8476 18.519342338004986 27.46625971357888 25.046181861842683 0 0 0
389 130 2 0.4238 17.987041585268802 26.89694310153926 25.70568651687053 0 0 0
390 130 2 0.4238 17.901249486411203 27.627635420442683 24.248668756338066 0 0 0
442 148 1 -0.8476 18.710021831069202 27.03465410396463 29.02789244588161 0 0 0
1399 467 1 -0.8476 0.28869833015235125 27.967452428864146 25.442394613018653 1 0 0
669 223 2 0.4238 21.4350199764069 21.100381115632228 22.260407409061788 0 0 0
814 272 1 -0.8476 20.421825882240572 25.12752671956473 22.82300984352187 0 0 0
815 272 2 0.4238 20.545420977733738 26.13683442981544 22.913362178168732 0 0 0
943 315 1 -0.8476 19.16768048884849 29.018424827373664 27.20419912341043 0 0 0
944 315 2 0.4238 18.98326617100325 28.32555611863491 27.92813249541441 0 0 0
945 315 2 0.4238 19.05012278896612 28.52587443807138 26.32293428822247 0 0 0
1033 345 1 -0.8476 20.414640331638143 27.843159620304043 23.083937687827497 0 0 0
1034 345 2 0.4238 20.769972504122816 28.776906499956507 23.204221102448447 0 0 0
1035 345 2 0.4238 19.772842181991738 27.67650315802167 23.861167936494954 0 0 0
1289 430 2 0.4238 14.820641869818488 24.057789269843717 24.87111644148877 0 0 0
598 200 1 -0.8476 20.336131153453906 23.361155779109215 15.060067489845414 0 0 0
1325 442 2 0.4238 17.87636912309691 29.53246579774518 23.712203965126864 0 0 0
485 162 2 0.4238 4.789988013163656 27.303158295431956 27.583727638847424 0 0 0
1366 456 1 -0.8476 15.11514112068116 24.399542046637357 26.557606520621345 0 0 0
1367 456 2 0.4238 15.851789923139258 25.091389392085183 26.711396133204136 0 0 0
1368 456 2 0.4238 14.241850695981002 24.820293433757456 26.869072132312475 0 0 0
1390 464 1 -0.8476 17.046875912394682 28.179365932300254 22.922962132697442 0 0 0
1391 464 2 0.4238 16.513636220968678 27.32855149520921 22.747556921483486 0 0 0
1392 464 2 0.4238 17.15471440114014 28.642276402374396 22.015615607051235 0 0 0
1528 510 1 -0.8476 17.871607645791713 24.544278290113397 23.63140532661453 0 0 0
1529 510 2 0.4238 18.850480336924818 24.680813746771683 23.38166860650174 0 0 0
1530 510 2 0.4238 17.824554433233985 23.734672743227403 24.244204612327426 0 0 0
202 68 1 -0.8476 10.072464135868332 16.201848060282757 25.721881157029102 0 0 0
1004 335 2 0.4238 16.594847987797323 19.501181286003362 15.195005150395248 0 0 0
1291 431 1 -0.8476 25.11177746181315 28.77047092992466 15.963273308144842 0 0 0
1615 539 1 -0.8476 28.411993364947527 15.506619850771926 23.94987324108005 0 0 0
1707 569 2 0.4238 15.132869802033744 28.813966155311178 25.301864556036573 0 0 0
981 327 2 0.4238 4.07828632940327 15.33652832087814 21.10911228300483 0 0 0
1673 558 2 0.4238 28.655698337511545 28.679185124723382 15.056136874282979 0 0 0
1573 525 1 -0.8476 25.671371086412186 15.116973548769757 27.901132174758082 0 0 0
38 13 2 0.4238 28.264844526593457 15.551437491928851 25.62935478344017 0 0 0
1383 461 2 0.4238 1.7084874573282325 29.778492259611507 18.647315191912377 0 0 0
1292 431 2 0.4238 24.721197636304563 27.838540488913953 15.834292748731897 0 0 0
1096 366 1 -0.8476 24.301043036483456 26.141972409150956 15.653873260617948 0 0 0
662 221 2 0.4238 27.397403286035424 27.022744386021845 15.680021016801213 0 0 0
1705 569 1 -0.8476 14.732643400341193 29.710282309353545 25.06835481473292 0 0 0
203 68 2 0.4238 9.199509119308892 15.998566329397502 25.233992901249366 0 0 0
444 148 2 0.4238 19.35585427490408 26.245161464939248 29.018477970806153 0 0 0
443 148 2 0.4238 18.94373141677308 27.578709837528876 29.864330519284962 0 0 0
1195 399 1 -0.8476 12.777402570123634 29.676818378715833 26.953935113360554 0 0 0
843 281 2 0.4238 18.757881036000093 16.82448750511527 16.551902092756492 0 0 0
1303 435 1 -0.8476 16.855981401486208 15.406438243129312 27.242944432288873 0 0 0
1601 534 2 0.4238 28.19126459465656 22.157789235794105 29.363050669454648 0 0 0
396 132 2 0.4238 7.093209963043257 29.747646929356012 17.478129473222097 0 -1 0
684 228 2 0.4238 10.45990365285176 27.8561588416968 29.784745882949796 0 0 0
155 52 2 0.4238 18.639902276088122 20.622154222274105 15.398559175120473 0 0 0
599 200 2 0.4238 20.164521206644416 22.371847306886725 15.232779046915573 0 0 0
201 67 2 0.4238 24.215724903825528 29.793555519031834 16.98187701105565 0 -1 0
127 43 1 -0.8476 10.858479768355238 29.938777179308723 25.081151349073604 0 -1 0
281 94 2 0.4238 3.340398294211187 29.96913348348973 22.462144629979313 0 0 0

Velocities

704 0 0 0
435 0 0 0
747 0 0 0
901 0 0 0
902 0 0 0
903 0 0 0
940 0 0 0
941 0 0 0
942 0 0 0
995 0 0 0
1796 0 0 0
1007 0 0 0
1353 0 0 0
1699 0 0 0
1537 0 0 0
1499 0 0 0
1334 0 0 0
1430 0 0 0
1519 0 0 0
1520 0 0 0
1624 0 0 0
1625 0 0 0
1626 0 0 0
994 0 0 0
996 0 0 0
1495 0 0 0
1306 0 0 0
1307 0 0 0
291 0 0 0
1228 0 0 0
1380 0 0 0
1207 0 0 0
530 0 0 0
1521 0 0 0
1006 0 0 0
651 0 0 0
1662 0 0 0
271 0 0 0
273 0 0 0
1435 0 0 0
715 0 0 0
716 0 0 0
717 0 0 0
645 0 0 0
956 0 0 0
1701 0 0 0
228 0 0 0
1046 0 0 0
1161 0 0 0
1255 0 0 0
1257 0 0 0
1297 0 0 0
1298 0 0 0
1299 0 0 0
1363 0 0 0
1364 0 0 0
1365 0 0 0
1462 0 0 0
1463 0 0 0
1464 0 0 0
1485 0 0 0
636 0 0 0
1584 0 0 0
649 0 0 0
234 0 0 0
1797 0 0 0
76 0 0 0
77 0 0 0
78 0 0 0
94 0 0 0
95 0 0 0
96 0 0 0
214 0 0 0
215 0 0 0
216 0 0 0
268 0 0 0
269 0 0 0
270 0 0 0
955 0 0 0
336 0 0 0
688 0 0 0
689 0 0 0
690 0 0 0
1700 0 0 0
1281 0 0 0
290 0 0 0
1094 0 0 0
1256 0 0 0
1501 0 0 0
1502 0 0 0
1503 0 0 0
1362 0 0 0
829 0 0 0
160 0 0 0
161 0 0 0
162 0 0 0
487 0 0 0
488 0 0 0
489 0 0 0
550 0 0 0
551 0 0 0
552 0 0 0
568 0 0 0
569 0 0 0
570 0 0 0
616 0 0 0
617 0 0 0
618 0 0 0
492 0 0 0
776 0 0 0
838 0 0 0
839 0 0 0
840 0 0 0
874 0 0 0
936 0 0 0
876 0 0 0
997 0 0 0
998 0 0 0
999 0 0 0
1057 0 0 0
1058 0 0 0
1059 0 0 0
1583 0 0 0
163 0 0 0
164 0 0 0
165 0 0 0
205 0 0 0
206 0 0 0
207 0 0 0
323 0 0 0
1230 0 0 0
691 0 0 0
582 0 0 0
766 0 0 0
767 0 0 0
768 0 0 0
1114 0 0 0
1115 0 0 0
1116 0 0 0
1378 0 0 0
1379 0 0 0
1408 0 0 0
1409 0 0 0
1450 0 0 0
1451 0 0 0
1452 0 0 0
1788 0 0 0
529 0 0 0
1702 0 0 0
198 0 0 0
957 0 0 0
332 0 0 0
333 0 0 0
1159 0 0 0
1440 0 0 0
802 0 0 0
803 0 0 0
910 0 0 0
911 0 0 0
912 0 0 0
925 0 0 0
926 0 0 0
927 0 0 0
958 0 0 0
959 0 0 0
960 0 0 0
967 0 0 0
968 0 0 0
969 0 0 0
1150 0 0 0
1151 0 0 0
1152 0 0 0
385 0 0 0
386 0 0 0
387 0 0 0
296 0 0 0
1316 0 0 0
1703 0 0 0
451 0 0 0
334 0 0 0
1354 0 0 0
1355 0 0 0
1356 0 0 0
1360 0 0 0
1361 0 0 0
1387 0 0 0
1388 0 0 0
1389 0 0 0
227 0 0 0
1595 0 0 0
1744 0 0 0
1745 0 0 0
1746 0 0 0
67 0 0 0
68 0 0 0
69 0 0 0
491 0 0 0
133 0 0 0
134 0 0 0
666 0 0 0
286 0 0 0
287 0 0 0
288 0 0 0
329 0 0 0
330 0 0 0
400 0 0 0
401 0 0 0
402 0 0 0
424 0 0 0
425 0 0 0
454 0 0 0
455 0 0 0
456 0 0 0
982 0 0 0
693 0 0 0
1569 0 0 0
1040 0 0 0
1049 0 0 0
1213 0 0 0
1214 0 0 0
1215 0 0 0
1429 0 0 0
1459 0 0 0
1460 0 0 0
1461 0 0 0
331 0 0 0
580 0 0 0
82 0 0 0
83 0 0 0
84 0 0 0
142 0 0 0
143 0 0 0
144 0 0 0
1250 0 0 0
151 0 0 0
152 0 0 0
153 0 0 0
181 0 0 0
182 0 0 0
183 0 0 0
1692 0 0 0
533 0 0 0
583 0 0 0
584 0 0 0
585 0 0 0
781 0 0 0
782 0 0 0
783 0 0 0
1279 0 0 0
920 0 0 0
1060 0 0 0
1062 0 0 0
1397 0 0 0
1426 0 0 0
1427 0 0 0
1428 0 0 0
490 0 0 0
452 0 0 0
1539 0 0 0
1792 0 0 0
1793 0 0 0
1794 0 0 0
103 0 0 0
104 0 0 0
105 0 0 0
217 0 0 0
218 0 0 0
219 0 0 0
226 0 0 0
272 0 0 0
325 0 0 0
326 0 0 0
327 0 0 0
494 0 0 0
1690 0 0 0
625 0 0 0
626 0 0 0
627 0 0 0
703 0 0 0
705 0 0 0
883 0 0 0
884 0 0 0
885 0 0 0
898 0 0 0
899 0 0 0
900 0 0 0
954 0 0 0
1061 0 0 0
1204 0 0 0
1205 0 0 0
1206 0 0 0
1208 0 0 0
1309 0 0 0
1310 0 0 0
1311 0 0 0
1396 0 0 0
1398 0 0 0
1414 0 0 0
1415 0 0 0
1483 0 0 0
1484 0 0 0
634 0 0 0
1280 0 0 0
831 0 0 0
328 0 0 0
370 0 0 0
371 0 0 0
372 0 0 0
379 0 0 0
380 0 0 0
671 0 0 0
581 0 0 0
1496 0 0 0
983 0 0 0
984 0 0 0
1039 0 0 0
1041 0 0 0
1402 0 0 0
1403 0 0 0
1404 0 0 0
1431 0 0 0
298 0 0 0
299 0 0 0
300 0 0 0
952 0 0 0
289 0 0 0
426 0 0 0
635 0 0 0
131 0 0 0
931 0 0 0
932 0 0 0
933 0 0 0
1038 0 0 0
1048 0 0 0
1050 0 0 0
1126 0 0 0
1127 0 0 0
1249 0 0 0
1410 0 0 0
1261 0 0 0
1262 0 0 0
1263 0 0 0
1375 0 0 0
1376 0 0 0
1377 0 0 0
1582 0 0 0
1251 0 0 0
1477 0 0 0
1478 0 0 0
1479 0 0 0
1564 0 0 0
1565 0 0 0
1566 0 0 0
185 0 0 0
235 0 0 0
236 0 0 0
237 0 0 0
264 0 0 0
322 0 0 0
324 0 0 0
532 0 0 0
534 0 0 0
1437 0 0 0
609 0 0 0
652 0 0 0
653 0 0 0
654 0 0 0
670 0 0 0
672 0 0 0
859 0 0 0
860 0 0 0
861 0 0 0
877 0 0 0
878 0 0 0
879 0 0 0
1036 0 0 0
1037 0 0 0
1128 0 0 0
1153 0 0 0
1154 0 0 0
1155 0 0 0
1124 0 0 0
1229 0 0 0
1043 0 0 0
531 0 0 0
657 0 0 0
1591 0 0 0
1592 0 0 0
1593 0 0 0
1786 0 0 0
1787 0 0 0
184 0 0 0
186 0 0 0
262 0 0 0
263 0 0 0
295 0 0 0
297 0 0 0
367 0 0 0
130 0 0 0
369 0 0 0
495 0 0 0
381 0 0 0
658 0 0 0
659 0 0 0
660 0 0 0
799 0 0 0
800 0 0 0
801 0 0 0
1691 0 0 0
1160 0 0 0
692 0 0 0
1069 0 0 0
1070 0 0 0
1071 0 0 0
1416 0 0 0
1453 0 0 0
1454 0 0 0
1455 0 0 0
1567 0 0 0
1568 0 0 0
934 0 0 0
1029 0 0 0
1351 0 0 0
433 0 0 0
147 0 0 0
664 0 0 0
97 0 0 0
157 0 0 0
158 0 0 0
159 0 0 0
277 0 0 0
278 0 0 0
279 0 0 0
361 0 0 0
362 0 0 0
363 0 0 0
394 0 0 0
395 0 0 0
1561 0 0 0
436 0 0 0
437 0 0 0
438 0 0 0
496 0 0 0
593 0 0 0
700 0 0 0
701 0 0 0
724 0 0 0
725 0 0 0
726 0 0 0
751 0 0 0
1559 0 0 0
753 0 0 0
1543 0 0 0
1544 0 0 0
1545 0 0 0
1563 0 0 0
99 0 0 0
187 0 0 0
189 0 0 0
210 0 0 0
241 0 0 0
1333 0 0 0
253 0 0 0
254 0 0 0
255 0 0 0
746 0 0 0
447 0 0 0
475 0 0 0
476 0 0 0
477 0 0 0
520 0 0 0
521 0 0 0
522 0 0 0
745 0 0 0
571 0 0 0
572 0 0 0
573 0 0 0
646 0 0 0
647 0 0 0
648 0 0 0
92 0 0 0
702 0 0 0
857 0 0 0
858 0 0 0
921 0 0 0
1162 0 0 0
1164 0 0 0
1188 0 0 0
1264 0 0 0
1265 0 0 0
1266 0 0 0
1669 0 0 0
1670 0 0 0
1671 0 0 0
1768 0 0 0
1769 0 0 0
1770 0 0 0
1771 0 0 0
1772 0 0 0
1773 0 0 0
208 0 0 0
209 0 0 0
403 0 0 0
405 0 0 0
497 0 0 0
498 0 0 0
1335 0 0 0
623 0 0 0
895 0 0 0
896 0 0 0
897 0 0 0
953 0 0 0
1381 0 0 0
1318 0 0 0
1319 0 0 0
1320 0 0 0
1504 0 0 0
1505 0 0 0
1506 0 0 0
1513 0 0 0
1514 0 0 0
1515 0 0 0
1552 0 0 0
1553 0 0 0
1554 0 0 0
1576 0 0 0
1577 0 0 0
1578 0 0 0
1648 0 0 0
1649 0 0 0
1650 0 0 0
1789 0 0 0
1790 0 0 0
196 0 0 0
197 0 0 0
200 0 0 0
469 0 0 0
470 0 0 0
471 0 0 0
472 0 0 0
473 0 0 0
474 0 0 0
650 0 0 0
1467 0 0 0
727 0 0 0
728 0 0 0
729 0 0 0
964 0 0 0
965 0 0 0
966 0 0 0
1030 0 0 0
1031 0 0 0
1032 0 0 0
1357 0 0 0
1358 0 0 0
1359 0 0 0
100 0 0 0
101 0 0 0
102 0 0 0
256 0 0 0
257 0 0 0
1616 0 0 0
398 0 0 0
574 0 0 0
575 0 0 0
576 0 0 0
592 0 0 0
594 0 0 0
601 0 0 0
602 0 0 0
603 0 0 0
823 0 0 0
824 0 0 0
825 0 0 0
938 0 0 0
1326 0 0 0
1117 0 0 0
1118 0 0 0
1055 0 0 0
1604 0 0 0
1663 0 0 0
1664 0 0 0
1665 0 0 0
1684 0 0 0
1685 0 0 0
1686 0 0 0
63 0 0 0
211 0 0 0
212 0 0 0
213 0 0 0
556 0 0 0
434 0 0 0
586 0 0 0
587 0 0 0
588 0 0 0
608 0 0 0
718 0 0 0
719 0 0 0
720 0 0 0
889 0 0 0
890 0 0 0
891 0 0 0
1163 0 0 0
1186 0 0 0
1187 0 0 0
1223 0 0 0
175 0 0 0
1618 0 0 0
1619 0 0 0
1620 0 0 0
1633 0 0 0
1634 0 0 0
1635 0 0 0
58 0 0 0
59 0 0 0
60 0 0 0
70 0 0 0
71 0 0 0
72 0 0 0
1438 0 0 0
98 0 0 0
244 0 0 0
245 0 0 0
246 0 0 0
1755 0 0 0
545 0 0 0
280 0 0 0
544 0 0 0
546 0 0 0
553 0 0 0
554 0 0 0
555 0 0 0
622 0 0 0
624 0 0 0
458 0 0 0
1044 0 0 0
282 0 0 0
1042 0 0 0
1081 0 0 0
1082 0 0 0
1083 0 0 0
1465 0 0 0
1466 0 0 0
1095 0 0 0
1579 0 0 0
1580 0 0 0
1581 0 0 0
34 0 0 0
35 0 0 0
36 0 0 0
106 0 0 0
107 0 0 0
108 0 0 0
172 0 0 0
173 0 0 0
174 0 0 0
1324 0 0 0
337 0 0 0
338 0 0 0
339 0 0 0
466 0 0 0
467 0 0 0
468 0 0 0
1171 0 0 0
1172 0 0 0
1173 0 0 0
1510 0 0 0
1511 0 0 0
1512 0 0 0
1627 0 0 0
1628 0 0 0
1629 0 0 0
1729 0 0 0
1730 0 0 0
1731 0 0 0
4 0 0 0
5 0 0 0
6 0 0 0
307 0 0 0
309 0 0 0
313 0 0 0
314 0 0 0
315 0 0 0
343 0 0 0
344 0 0 0
345 0 0 0
1800 0 0 0
448 0 0 0
449 0 0 0
450 0 0 0
706 0 0 0
707 0 0 0
708 0 0 0
765 0 0 0
1132 0 0 0
752 0 0 0
1134 0 0 0
1201 0 0 0
1202 0 0 0
1203 0 0 0
1327 0 0 0
1328 0 0 0
1329 0 0 0
1474 0 0 0
1475 0 0 0
1476 0 0 0
7 0 0 0
8 0 0 0
9 0 0 0
115 0 0 0
116 0 0 0
117 0 0 0
607 0 0 0
129 0 0 0
1209 0 0 0
1508 0 0 0
1352 0 0 0
713 0 0 0
748 0 0 0
749 0 0 0
750 0 0 0
763 0 0 0
764 0 0 0
856 0 0 0
928 0 0 0
929 0 0 0
930 0 0 0
176 0 0 0
1441 0 0 0
1442 0 0 0
1443 0 0 0
1621 0 0 0
1622 0 0 0
1623 0 0 0
1791 0 0 0
1637 0 0 0
1750 0 0 0
1751 0 0 0
1752 0 0 0
16 0 0 0
17 0 0 0
404 0 0 0
610 0 0 0
1382 0 0 0
665 0 0 0
399 0 0 0
826 0 0 0
827 0 0 0
828 0 0 0
833 0 0 0
988 0 0 0
989 0 0 0
990 0 0 0
1276 0 0 0
1277 0 0 0
1278 0 0 0
611 0 0 0
1570 0 0 0
1571 0 0 0
1572 0 0 0
243 0 0 0
1714 0 0 0
1715 0 0 0
1716 0 0 0
346 0 0 0
347 0 0 0
348 0 0 0
541 0 0 0
1605 0 0 0
832 0 0 0
834 0 0 0
868 0 0 0
869 0 0 0
870 0 0 0
973 0 0 0
919 0 0 0
975 0 0 0
1018 0 0 0
1019 0 0 0
1020 0 0 0
1093 0 0 0
1252 0 0 0
1253 0 0 0
1254 0 0 0
1509 0 0 0
1687 0 0 0
1688 0 0 0
1689 0 0 0
1759 0 0 0
1760 0 0 0
1761 0 0 0
557 0 0 0
695 0 0 0
308 0 0 0
481 0 0 0
482 0 0 0
483 0 0 0
637 0 0 0
638 0 0 0
639 0 0 0
199 0 0 0
1636 0 0 0
1439 0 0 0
892 0 0 0
893 0 0 0
894 0 0 0
937 0 0 0
939 0 0 0
132 0 0 0
1119 0 0 0
1129 0 0 0
1130 0 0 0
1131 0 0 0
1456 0 0 0
1457 0 0 0
1458 0 0 0
61 0 0 0
62 0 0 0
459 0 0 0
1795 0 0 0
1562 0 0 0
266 0 0 0
427 0 0 0
428 0 0 0
643 0 0 0
1222 0 0 0
537 0 0 0
712 0 0 0
714 0 0 0
820 0 0 0
821 0 0 0
822 0 0 0
1054 0 0 0
1056 0 0 0
1258 0 0 0
1259 0 0 0
1260 0 0 0
1331 0 0 0
1531 0 0 0
1532 0 0 0
1533 0 0 0
18 0 0 0
91 0 0 0
93 0 0 0
265 0 0 0
267 0 0 0
922 0 0 0
923 0 0 0
924 0 0 0
1105 0 0 0
1106 0 0 0
1107 0 0 0
1198 0 0 0
1199 0 0 0
1200 0 0 0
1240 0 0 0
1241 0 0 0
1242 0 0 0
1270 0 0 0
1271 0 0 0
1272 0 0 0
1305 0 0 0
1486 0 0 0
1487 0 0 0
1488 0 0 0
1798 0 0 0
1799 0 0 0
1638 0 0 0
258 0 0 0
457 0 0 0
710 0 0 0
118 0 0 0
119 0 0 0
120 0 0 0
542 0 0 0
543 0 0 0
679 0 0 0
680 0 0 0
681 0 0 0
1500 0 0 0
1558 0 0 0
1219 0 0 0
1220 0 0 0
1221 0 0 0
1560 0 0 0
1507 0 0 0
1603 0 0 0
188 0 0 0
429 0 0 0
696 0 0 0
177 0 0 0
493 0 0 0
535 0 0 0
1498 0 0 0
445 0 0 0
1224 0 0 0
1133 0 0 0
558 0 0 0
694 0 0 0
1197 0 0 0
397 0 0 0
1008 0 0 0
453 0 0 0
875 0 0 0
193 0 0 0
195 0 0 0
415 0 0 0
416 0 0 0
417 0 0 0
559 0 0 0
560 0 0 0
561 0 0 0
733 0 0 0
734 0 0 0
735 0 0 0
742 0 0 0
743 0 0 0
744 0 0 0
760 0 0 0
761 0 0 0
777 0 0 0
87 0 0 0
796 0 0 0
797 0 0 0
798 0 0 0
817 0 0 0
818 0 0 0
819 0 0 0
1315 0 0 0
1550 0 0 0
1317 0 0 0
1480 0 0 0
1481 0 0 0
25 0 0 0
26 0 0 0
27 0 0 0
194 0 0 0
376 0 0 0
377 0 0 0
378 0 0 0
1436 0 0 0
793 0 0 0
794 0 0 0
795 0 0 0
1012 0 0 0
1013 0 0 0
1014 0 0 0
1063 0 0 0
1064 0 0 0
1168 0 0 0
1169 0 0 0
1170 0 0 0
1176 0 0 0
1321 0 0 0
1322 0 0 0
1323 0 0 0
629 0 0 0
1606 0 0 0
1607 0 0 0
1762 0 0 0
1763 0 0 0
1764 0 0 0
850 0 0 0
1672 0 0 0
1661 0 0 0
418 0 0 0
419 0 0 0
420 0 0 0
619 0 0 0
620 0 0 0
655 0 0 0
656 0 0 0
686 0 0 0
1051 0 0 0
1052 0 0 0
1053 0 0 0
1135 0 0 0
1136 0 0 0
1137 0 0 0
1183 0 0 0
1184 0 0 0
851 0 0 0
1339 0 0 0
1340 0 0 0
1341 0 0 0
146 0 0 0
1123 0 0 0
1482 0 0 0
112 0 0 0
114 0 0 0
373 0 0 0
374 0 0 0
628 0 0 0
1660 0 0 0
935 0 0 0
1737 0 0 0
1075 0 0 0
1076 0 0 0
1077 0 0 0
1120 0 0 0
1121 0 0 0
1122 0 0 0
1047 0 0 0
1527 0 0 0
1710 0 0 0
1596 0 0 0
1657 0 0 0
1658 0 0 0
1659 0 0 0
1 0 0 0
2 0 0 0
3 0 0 0
109 0 0 0
804 0 0 0
1191 0 0 0
304 0 0 0
305 0 0 0
306 0 0 0
409 0 0 0
410 0 0 0
411 0 0 0
621 0 0 0
1009 0 0 0
986 0 0 0
1432 0 0 0
1433 0 0 0
1434 0 0 0
682 0 0 0
22 0 0 0
23 0 0 0
24 0 0 0
499 0 0 0
500 0 0 0
501 0 0 0
775 0 0 0
739 0 0 0
740 0 0 0
985 0 0 0
987 0 0 0
1237 0 0 0
1239 0 0 0
1267 0 0 0
1268 0 0 0
1269 0 0 0
1526 0 0 0
1371 0 0 0
1411 0 0 0
1412 0 0 0
1413 0 0 0
1546 0 0 0
1547 0 0 0
1548 0 0 0
1653 0 0 0
52 0 0 0
53 0 0 0
54 0 0 0
124 0 0 0
125 0 0 0
126 0 0 0
319 0 0 0
320 0 0 0
321 0 0 0
351 0 0 0
853 0 0 0
463 0 0 0
464 0 0 0
685 0 0 0
687 0 0 0
1238 0 0 0
1027 0 0 0
1385 0 0 0
1386 0 0 0
1417 0 0 0
1418 0 0 0
1419 0 0 0
364 0 0 0
1765 0 0 0
1766 0 0 0
1767 0 0 0
1780 0 0 0
1781 0 0 0
1782 0 0 0
113 0 0 0
178 0 0 0
179 0 0 0
180 0 0 0
238 0 0 0
239 0 0 0
240 0 0 0
1709 0 0 0
406 0 0 0
407 0 0 0
408 0 0 0
565 0 0 0
566 0 0 0
1698 0 0 0
730 0 0 0
731 0 0 0
732 0 0 0
976 0 0 0
977 0 0 0
978 0 0 0
1282 0 0 0
1283 0 0 0
1284 0 0 0
1678 0 0 0
1679 0 0 0
1680 0 0 0
1696 0 0 0
1011 0 0 0
683 0 0 0
232 0 0 0
233 0 0 0
792 0 0 0
292 0 0 0
293 0 0 0
294 0 0 0
517 0 0 0
519 0 0 0
835 0 0 0
836 0 0 0
837 0 0 0
852 0 0 0
862 0 0 0
863 0 0 0
864 0 0 0
1084 0 0 0
1085 0 0 0
1086 0 0 0
1090 0 0 0
1091 0 0 0
1092 0 0 0
1708 0 0 0
1449 0 0 0
1497 0 0 0
1585 0 0 0
1586 0 0 0
1587 0 0 0
28 0 0 0
29 0 0 0
30 0 0 0
301 0 0 0
302 0 0 0
303 0 0 0
340 0 0 0
341 0 0 0
342 0 0 0
412 0 0 0
413 0 0 0
414 0 0 0
604 0 0 0
606 0 0 0
673 0 0 0
674 0 0 0
675 0 0 0
1549 0 0 0
830 0 0 0
1448 0 0 0
772 0 0 0
1189 0 0 0
1174 0 0 0
1175 0 0 0
1109 0 0 0
1244 0 0 0
1294 0 0 0
1295 0 0 0
1296 0 0 0
1534 0 0 0
1535 0 0 0
1536 0 0 0
1608 0 0 0
1666 0 0 0
1668 0 0 0
1747 0 0 0
1748 0 0 0
1749 0 0 0
1551 0 0 0
366 0 0 0
274 0 0 0
276 0 0 0
391 0 0 0
514 0 0 0
515 0 0 0
516 0 0 0
1000 0 0 0
1001 0 0 0
1002 0 0 0
1015 0 0 0
1016 0 0 0
1017 0 0 0
1185 0 0 0
1369 0 0 0
1538 0 0 0
1125 0 0 0
1516 0 0 0
1518 0 0 0
1667 0 0 0
1717 0 0 0
1718 0 0 0
1719 0 0 0
1738 0 0 0
1739 0 0 0
1740 0 0 0
85 0 0 0
86 0 0 0
136 0 0 0
137 0 0 0
138 0 0 0
139 0 0 0
140 0 0 0
141 0 0 0
250 0 0 0
251 0 0 0
252 0 0 0
275 0 0 0
375 0 0 0
460 0 0 0
461 0 0 0
462 0 0 0
518 0 0 0
1065 0 0 0
539 0 0 0
540 0 0 0
630 0 0 0
1447 0 0 0
1111 0 0 0
1112 0 0 0
1113 0 0 0
1234 0 0 0
1235 0 0 0
1236 0 0 0
1336 0 0 0
1337 0 0 0
1338 0 0 0
1517 0 0 0
1525 0 0 0
1645 0 0 0
1646 0 0 0
1647 0 0 0
316 0 0 0
317 0 0 0
318 0 0 0
595 0 0 0
596 0 0 0
597 0 0 0
676 0 0 0
677 0 0 0
678 0 0 0
769 0 0 0
771 0 0 0
847 0 0 0
848 0 0 0
849 0 0 0
1024 0 0 0
1025 0 0 0
1026 0 0 0
1370 0 0 0
538 0 0 0
845 0 0 0
1072 0 0 0
1010 0 0 0
1697 0 0 0
1704 0 0 0
145 0 0 0
1110 0 0 0
148 0 0 0
149 0 0 0
150 0 0 0
169 0 0 0
170 0 0 0
171 0 0 0
1028 0 0 0
1594 0 0 0
605 0 0 0
770 0 0 0
1212 0 0 0
1231 0 0 0
1232 0 0 0
1233 0 0 0
1342 0 0 0
1343 0 0 0
1344 0 0 0
1405 0 0 0
1406 0 0 0
1407 0 0 0
1420 0 0 0
1421 0 0 0
1422 0 0 0
1756 0 0 0
1757 0 0 0
1758 0 0 0
349 0 0 0
350 0 0 0
392 0 0 0
393 0 0 0
465 0 0 0
762 0 0 0
1073 0 0 0
600 0 0 0
1087 0 0 0
1088 0 0 0
1089 0 0 0
1165 0 0 0
1166 0 0 0
1167 0 0 0
1674 0 0 0
1210 0 0 0
1211 0 0 0
1471 0 0 0
1472 0 0 0
1473 0 0 0
1693 0 0 0
1694 0 0 0
1695 0 0 0
1726 0 0 0
1727 0 0 0
1728 0 0 0
1736 0 0 0
355 0 0 0
356 0 0 0
357 0 0 0
1108 0 0 0
757 0 0 0
758 0 0 0
759 0 0 0
961 0 0 0
962 0 0 0
963 0 0 0
1078 0 0 0
1079 0 0 0
1080 0 0 0
1045 0 0 0
1097 0 0 0
365 0 0 0
156 0 0 0
773 0 0 0
10 0 0 0
1651 0 0 0
791 0 0 0
1652 0 0 0
12 0 0 0
335 0 0 0
790 0 0 0
11 0 0 0
1735 0 0 0
1494 0 0 0
1308 0 0 0
368 0 0 0
135 0 0 0
741 0 0 0
567 0 0 0
89 0 0 0
526 0 0 0
527 0 0 0
663 0 0 0
904 0 0 0
905 0 0 0
906 0 0 0
1300 0 0 0
1301 0 0 0
1302 0 0 0
1393 0 0 0
1394 0 0 0
1395 0 0 0
512 0 0 0
1293 0 0 0
1609 0 0 0
1610 0 0 0
1611 0 0 0
1720 0 0 0
1721 0 0 0
1722 0 0 0
528 0 0 0
589 0 0 0
590 0 0 0
591 0 0 0
811 0 0 0
812 0 0 0
813 0 0 0
354 0 0 0
1245 0 0 0
1332 0 0 0
1522 0 0 0
1523 0 0 0
1675 0 0 0
1676 0 0 0
1677 0 0 0
1723 0 0 0
1724 0 0 0
1725 0 0 0
1774 0 0 0
1775 0 0 0
1776 0 0 0
1243 0 0 0
191 0 0 0
283 0 0 0
284 0 0 0
285 0 0 0
359 0 0 0
1074 0 0 0
736 0 0 0
946 0 0 0
947 0 0 0
948 0 0 0
1003 0 0 0
1575 0 0 0
1005 0 0 0
1156 0 0 0
1157 0 0 0
1158 0 0 0
1180 0 0 0
1181 0 0 0
1182 0 0 0
1348 0 0 0
1349 0 0 0
1468 0 0 0
1469 0 0 0
1470 0 0 0
1654 0 0 0
1655 0 0 0
31 0 0 0
32 0 0 0
33 0 0 0
439 0 0 0
440 0 0 0
441 0 0 0
774 0 0 0
865 0 0 0
353 0 0 0
867 0 0 0
991 0 0 0
992 0 0 0
993 0 0 0
1144 0 0 0
907 0 0 0
1146 0 0 0
1192 0 0 0
1193 0 0 0
1194 0 0 0
1350 0 0 0
1423 0 0 0
1424 0 0 0
1425 0 0 0
1732 0 0 0
1733 0 0 0
1734 0 0 0
90 0 0 0
223 0 0 0
224 0 0 0
225 0 0 0
478 0 0 0
479 0 0 0
480 0 0 0
1227 0 0 0
844 0 0 0
612 0 0 0
846 0 0 0
1706 0 0 0
854 0 0 0
855 0 0 0
1101 0 0 0
738 0 0 0
1384 0 0 0
1753 0 0 0
1754 0 0 0
809 0 0 0
352 0 0 0
446 0 0 0
505 0 0 0
507 0 0 0
523 0 0 0
524 0 0 0
525 0 0 0
787 0 0 0
788 0 0 0
880 0 0 0
881 0 0 0
882 0 0 0
916 0 0 0
917 0 0 0
918 0 0 0
1099 0 0 0
1100 0 0 0
1147 0 0 0
1148 0 0 0
1149 0 0 0
1216 0 0 0
1217 0 0 0
1218 0 0 0
1524 0 0 0
1612 0 0 0
1613 0 0 0
1614 0 0 0
1783 0 0 0
166 0 0 0
167 0 0 0
168 0 0 0
358 0 0 0
360 0 0 0
506 0 0 0
631 0 0 0
632 0 0 0
633 0 0 0
709 0 0 0
722 0 0 0
711 0 0 0
778 0 0 0
779 0 0 0
780 0 0 0
913 0 0 0
914 0 0 0
915 0 0 0
949 0 0 0
950 0 0 0
951 0 0 0
1102 0 0 0
1103 0 0 0
1104 0 0 0
1138 0 0 0
1139 0 0 0
1140 0 0 0
1597 0 0 0
1598 0 0 0
1599 0 0 0
1630 0 0 0
1631 0 0 0
1632 0 0 0
1574 0 0 0
644 0 0 0
1777 0 0 0
1778 0 0 0
1779 0 0 0
1401 0 0 0
19 0 0 0
20 0 0 0
21 0 0 0
64 0 0 0
65 0 0 0
66 0 0 0
547 0 0 0
548 0 0 0
549 0 0 0
661 0 0 0
37 0 0 0
816 0 0 0
1141 0 0 0
842 0 0 0
1540 0 0 0
1541 0 0 0
1542 0 0 0
1556 0 0 0
486 0 0 0
513 0 0 0
247 0 0 0
248 0 0 0
249 0 0 0
310 0 0 0
312 0 0 0
502 0 0 0
503 0 0 0
504 0 0 0
808 0 0 0
111 0 0 0
810 0 0 0
871 0 0 0
872 0 0 0
873 0 0 0
980 0 0 0
1066 0 0 0
1067 0 0 0
1068 0 0 0
1372 0 0 0
1374 0 0 0
242 0 0 0
1490 0 0 0
1491 0 0 0
1642 0 0 0
1643 0 0 0
1644 0 0 0
43 0 0 0
44 0 0 0
45 0 0 0
79 0 0 0
80 0 0 0
81 0 0 0
311 0 0 0
1145 0 0 0
1142 0 0 0
979 0 0 0
110 0 0 0
1190 0 0 0
841 0 0 0
1273 0 0 0
1274 0 0 0
1275 0 0 0
1285 0 0 0
1286 0 0 0
1287 0 0 0
1312 0 0 0
1313 0 0 0
1314 0 0 0
1345 0 0 0
1347 0 0 0
1373 0 0 0
1588 0 0 0
1589 0 0 0
1590 0 0 0
1098 0 0 0
1741 0 0 0
1742 0 0 0
1743 0 0 0
1785 0 0 0
13 0 0 0
14 0 0 0
15 0 0 0
49 0 0 0
50 0 0 0
51 0 0 0
39 0 0 0
222 0 0 0
421 0 0 0
422 0 0 0
423 0 0 0
508 0 0 0
509 0 0 0
510 0 0 0
699 0 0 0
805 0 0 0
806 0 0 0
807 0 0 0
1225 0 0 0
1290 0 0 0
972 0 0 0
1304 0 0 0
1492 0 0 0
1493 0 0 0
192 0 0 0
1656 0 0 0
1711 0 0 0
1712 0 0 0
1713 0 0 0
40 0 0 0
41 0 0 0
42 0 0 0
121 0 0 0
122 0 0 0
123 0 0 0
229 0 0 0
230 0 0 0
231 0 0 0
668 0 0 0
697 0 0 0
698 0 0 0
721 0 0 0
723 0 0 0
1021 0 0 0
1022 0 0 0
1023 0 0 0
1226 0 0 0
1143 0 0 0
1600 0 0 0
511 0 0 0
1602 0 0 0
1400 0 0 0
1617 0 0 0
46 0 0 0
48 0 0 0
57 0 0 0
74 0 0 0
88 0 0 0
190 0 0 0
154 0 0 0
737 0 0 0
484 0 0 0
909 0 0 0
562 0 0 0
563 0 0 0
564 0 0 0
577 0 0 0
578 0 0 0
579 0 0 0
613 0 0 0
614 0 0 0
615 0 0 0
784 0 0 0
785 0 0 0
786 0 0 0
908 0 0 0
971 0 0 0
1177 0 0 0
1178 0 0 0
1179 0 0 0
1246 0 0 0
1247 0 0 0
1248 0 0 0
1444 0 0 0
1445 0 0 0
1446 0 0 0
1489 0 0 0
1555 0 0 0
1557 0 0 0
204 0 0 0
47 0 0 0
55 0 0 0
56 0 0 0
73 0 0 0
75 0 0 0
128 0 0 0
430 0 0 0
431 0 0 0
432 0 0 0
640 0 0 0
641 0 0 0
642 0 0 0
1683 0 0 0
974 0 0 0
667 0 0 0
536 0 0 0
1330 0 0 0
754 0 0 0
755 0 0 0
756 0 0 0
789 0 0 0
886 0 0 0
887 0 0 0
888 0 0 0
970 0 0 0
866 0 0 0
1196 0 0 0
1288 0 0 0
1346 0 0 0
1639 0 0 0
1640 0 0 0
1641 0 0 0
1681 0 0 0
1682 0 0 0
1784 0 0 0
220 0 0 0
221 0 0 0
259 0 0 0
260 0 0 0
261 0 0 0
382 0 0 0
383 0 0 0
384 0 0 0
388 0 0 0
389 0 0 0
390 0 0 0
442 0 0 0
1399 0 0 0
669 0 0 0
814 0 0 0
815 0 0 0
943 0 0 0
944 0 0 0
945 0 0 0
1033 0 0 0
1034 0 0 0
1035 0 0 0
1289 0 0 0
598 0 0 0
1325 0 0 0
485 0 0 0
1366 0 0 0
1367 0 0 0
1368 0 0 0
1390 0 0 0
1391 0 0 0
1392 0 0 0
1528 0 0 0
1529 0 0 0
1530 0 0 0
202 0 0 0
1004 0 0 0
1291 0 0 0
1615 0 0 0
1707 0 0 0
981 0 0 0
1673 0 0 0
1573 0 0 0
38 0 0 0
1383 0 0 0
1292 0 0 0
1096 0 0 0
662 0 0 0
1705 0 0 0
203 0 0 0
444 0 0 0
443 0 0 0
1195 0 0 0
843 0 0 0
1303 0 0 0
1601 0 0 0
396 0 0 0
684 0 0 0
155 0 0 0
599 0 0 0
201 0 0 0
127 0 0 0
281 0 0 0

Bonds

1 1 901 902
2 1 901 903
3 1 940 941
4 1 940 942
5 1 1699 1700
6 1 1699 1701
7 1 1537 1538
8 1 1537 1539
9 1 1519 1520
10 1 1519 1521
11 1 1624 1625
12 1 1624 1626
13 1 994 995
14 1 994 996
15 1 1495 1496
16 1 1495 1497
17 1 1306 1307
18 1 1306 1308
19 1 1228 1229
20 1 1228 1230
21 1 1207 1208
22 1 1207 1209
23 1 1006 1007
24 1 1006 1008
25 1 271 272
26 1 271 273
27 1 1435 1436
28 1 1435 1437
29 1 715 716
30 1 715 717
31 1 1255 1256
32 1 1255 1257
33 1 1297 1298
34 1 1297 1299
35 1 1363 1364
36 1 1363 1365
37 1 1462 1463
38 1 1462 1464
39 1 649 650
40 1 649 651
41 1 76 77
42 1 76 78
43 1 94 95
44 1 94 96
45 1 214 215
46 1 214 216
47 1 268 269
48 1 268 270
49 1 955 956
50 1 955 957
51 1 688 689
52 1 688 690
53 1 1501 1502
54 1 1501 1503
55 1 829 830
56 1 829 831
57 1 160 161
58 1 160 162
59 1 487 488
60 1 487 489
61 1 550 551
62 1 550 552
63 1 568 569
64 1 568 570
65 1 616 617
66 1 616 618
67 1 838 839
68 1 838 840
69 1 874 875
70 1 874 876
71 1 997 998
72 1 997 999
73 1 1057 1058
74 1 1057 1059
75 1 163 164
76 1 163 165
77 1 205 206
78 1 205 207
79 1 691 692
80 1 691 693
81 1 766 767
82 1 766 768
83 1 1114 1115
84 1 1114 1116
85 1 1378 1379
86 1 1378 1380
87 1 1408 1409
88 1 1408 1410
89 1 1450 1451
90 1 1450 1452
91 1 529 530
92 1 529 531
93 1 1702 1703
94 1 1702 1704
95 1 1159 1160
96 1 1159 1161
97 1 802 803
98 1 802 804
99 1 910 911
100 1 910 912
101 1 925 926
102 1 925 927
103 1 958 959
104 1 958 960
105 1 967 968
106 1 967 969
107 1 1150 1151
108 1 1150 1152
109 1 385 386
110 1 385 387
111 1 451 452
112 1 451 453
113 1 334 335
114 1 334 336
115 1 1354 1355
116 1 1354 1356
117 1 1360 1361
118 1 1360 1362
119 1 1387 1388
120 1 1387 1389
121 1 1744 1745
122 1 1744 1746
123 1 67 68
124 1 67 69
125 1 133 134
126 1 133 135
127 1 286 287
128 1 286 288
129 1 400 401
130 1 400 402
131 1 424 425
132 1 424 426
133 1 454 455
134 1 454 456
135 1 982 983
136 1 982 984
137 1 1213 1214
138 1 1213 1215
139 1 1429 1430
140 1 1429 1431
141 1 1459 1460
142 1 1459 1461
143 1 331 332
144 1 331 333
145 1 580 581
146 1 580 582
147 1 82 83
148 1 82 84
149 1 142 143
150 1 142 144
151 1 151 152
152 1 151 153
153 1 181 182
154 1 181 183
155 1 583 584
156 1 583 585
157 1 781 782
158 1 781 783
159 1 1279 1280
160 1 1279 1281
161 1 1060 1061
162 1 1060 1062
163 1 1426 1427
164 1 1426 1428
165 1 490 491
166 1 490 492
167 1 1792 1793
168 1 1792 1794
169 1 103 104
170 1 103 105
171 1 217 218
172 1 217 219
173 1 226 227
174 1 226 228
175 1 325 326
176 1 325 327
177 1 1690 1691
178 1 1690 1692
179 1 625 626
180 1 625 627
181 1 703 704
182 1 703 705
183 1 883 884
184 1 883 885
185 1 898 899
186 1 898 900
187 1 1204 1205
188 1 1204 1206
189 1 1309 1310
190 1 1309 1311
191 1 1396 1397
192 1 1396 1398
193 1 1414 1415
194 1 1414 1416
195 1 1483 1484
196 1 1483 1485
197 1 634 635
198 1 634 636
199 1 328 329
200 1 328 330
201 1 370 371
202 1 370 372
203 1 379 380
204 1 379 381
205 1 1039 1040
206 1 1039 1041
207 1 1402 1403
208 1 1402 1404
209 1 298 299
210 1 298 300
211 1 952 953
212 1 952 954
213 1 289 290
214 1 289 291
215 1 931 932
216 1 931 933
217 1 1048 1049
218 1 1048 1050
219 1 1126 1127
220 1 1126 1128
221 1 1249 1250
222 1 1249 1251
223 1 1261 1262
224 1 1261 1263
225 1 1375 1376
226 1 1375 1377
227 1 1582 1583
228 1 1582 1584
229 1 1477 1478
230 1 1477 1479
231 1 1564 1565
232 1 1564 1566
233 1 235 236
234 1 235 237
235 1 322 323
236 1 322 324
237 1 532 533
238 1 532 534
239 1 652 653
240 1 652 654
241 1 670 671
242 1 670 672
243 1 859 860
244 1 859 861
245 1 877 878
246 1 877 879
247 1 1036 1037
248 1 1036 1038
249 1 1153 1154
250 1 1153 1155
251 1 1591 1592
252 1 1591 1593
253 1 1786 1787
254 1 1786 1788
255 1 184 185
256 1 184 186
257 1 262 263
258 1 262 264
259 1 295 296
260 1 295 297
261 1 367 368
262 1 367 369
263 1 130 131
264 1 130 132
265 1 658 659
266 1 658 660
267 1 799 800
268 1 799 801
269 1 1069 1070
270 1 1069 1071
271 1 1453 1454
272 1 1453 1455
273 1 1567 1568
274 1 1567 1569
275 1 934 935
276 1 934 936
277 1 1351 1352
278 1 1351 1353
279 1 433 434
280 1 433 435
281 1 664 665
282 1 664 666
283 1 97 98
284 1 97 99
285 1 157 158
286 1 157 159
287 1 277 278
288 1 277 279
289 1 361 362
290 1 361 363
291 1 394 395
292 1 394 396
293 1 1561 1562
294 1 1561 1563
295 1 436 437
296 1 436 438
297 1 496 497
298 1 496 498
299 1 700 701
300 1 700 702
301 1 724 725
302 1 724 726
303 1 751 752
304 1 751 753
305 1 1543 1544
306 1 1543 1545
307 1 187 188
308 1 187 189
309 1 241 242
310 1 241 243
311 1 1333 1334
312 1 1333 1335
313 1 253 254
314 1 253 255
315 1 475 476
316 1 475 477
317 1 520 521
318 1 520 522
319 1 745 746
320 1 745 747
321 1 571 572
322 1 571 573
323 1 646 647
324 1 646 648
325 1 1162 1163
326 1 1162 1164
327 1 1264 1265
328 1 1264 1266
329 1 1669 1670
330 1 1669 1671
331 1 1768 1769
332 1 1768 1770
333 1 1771 1772
334 1 1771 1773
335 1 208 209
336 1 208 210
337 1 403 404
338 1 403 405
339 1 895 896
340 1 895 897
341 1 1381 1382
342 1 1381 1383
343 1 1318 1319
344 1 1318 1320
345 1 1504 1505
346 1 1504 1506
347 1 1513 1514
348 1 1513 1515
349 1 1552 1553
350 1 1552 1554
351 1 1576 1577
352 1 1576 1578
353 1 1648 1649
354 1 1648 1650
355 1 1789 1790
356 1 1789 1791
357 1 196 197
358 1 196 198
359 1 469 470
360 1 469 471
361 1 472 473
362 1 472 474
363 1 727 728
364 1 727 729
365 1 964 965
366 1 964 966
367 1 1030 1031
368 1 1030 1032
369 1 1357 1358
370 1 1357 1359
371 1 100 101
372 1 100 102
373 1 256 257
374 1 256 258
375 1 574 575
376 1 574 576
377 1 592 593
378 1 592 594
379 1 601 602
380 1 601 603
381 1 823 824
382 1 823 825
383 1 1117 1118
384 1 1117 1119
385 1 1663 1664
386 1 1663 1665
387 1 1684 1685
388 1 1684 1686
389 1 211 212
390 1 211 213
391 1 556 557
392 1 556 558
393 1 586 587
394 1 586 588
395 1 718 719
396 1 718 720
397 1 889 890
398 1 889 891
399 1 1186 1187
400 1 1186 1188
401 1 175 176
402 1 175 177
403 1 1618 1619
404 1 1618 1620
405 1 1633 1634
406 1 1633 1635
407 1 58 59
408 1 58 60
409 1 70 71
410 1 70 72
411 1 1438 1439
412 1 1438 1440
413 1 244 245
414 1 244 246
415 1 280 281
416 1 280 282
417 1 544 545
418 1 544 546
419 1 553 554
420 1 553 555
421 1 622 623
422 1 622 624
423 1 1042 1043
424 1 1042 1044
425 1 1081 1082
426 1 1081 1083
427 1 1465 1466
428 1 1465 1467
429 1 1579 1580
430 1 1579 1581
431 1 34 35
432 1 34 36
433 1 106 107
434 1 106 108
435 1 172 173
436 1 172 174
437 1 1324 1325
438 1 1324 1326
439 1 337 338
440 1 337 339
441 1 466 467
442 1 466 468
443 1 1171 1172
444 1 1171 1173
445 1 1510 1511
446 1 1510 1512
447 1 1627 1628
448 1 1627 1629
449 1 1729 1730
450 1 1729 1731
451 1 4 5
452 1 4 6
453 1 307 308
454 1 307 309
455 1 313 314
456 1 313 315
457 1 343 344
458 1 343 345
459 1 448 449
460 1 448 450
461 1 706 707
462 1 706 708
463 1 1132 1133
464 1 1132 1134
465 1 1201 1202
466 1 1201 1203
467 1 1327 1328
468 1 1327 1329
469 1 1474 1475
470 1 1474 1476
471 1 7 8
472 1 7 9
473 1 115 116
474 1 115 117
475 1 607 608
476 1 607 609
477 1 748 749
478 1 748 750
479 1 763 764
480 1 763 765
481 1 856 857
482 1 856 858
483 1 928 929
484 1 928 930
485 1 1441 1442
486 1 1441 1443
487 1 1621 1622
488 1 1621 1623
489 1 1750 1751
490 1 1750 1752
491 1 16 17
492 1 16 18
493 1 610 611
494 1 610 612
495 1 826 827
496 1 826 828
497 1 988 989
498 1 988 990
499 1 1276 1277
500 1 1276 1278
501 1 1570 1571
502 1 1570 1572
503 1 1714 1715
504 1 1714 1716
505 1 346 347
506 1 346 348
507 1 541 542
508 1 541 543
509 1 832 833
510 1 832 834
511 1 868 869
512 1 868 870
513 1 973 974
514 1 973 975
515 1 919 920
516 1 919 921
517 1 1018 1019
518 1 1018 1020
519 1 1093 1094
520 1 1093 1095
521 1 1252 1253
522 1 1252 1254
523 1 1687 1688
524 1 1687 1689
525 1 1759 1760
526 1 1759 1761
527 1 481 482
528 1 481 483
529 1 637 638
530 1 637 639
531 1 199 200
532 1 199 201
533 1 1636 1637
534 1 1636 1638
535 1 892 893
536 1 892 894
537 1 937 938
538 1 937 939
539 1 1129 1130
540 1 1129 1131
541 1 1456 1457
542 1 1456 1458
543 1 61 62
544 1 61 63
545 1 1795 1796
546 1 1795 1797
547 1 427 428
548 1 427 429
549 1 643 644
550 1 643 645
551 1 1222 1223
552 1 1222 1224
553 1 712 713
554 1 712 714
555 1 820 821
556 1 820 822
557 1 1054 1055
558 1 1054 1056
559 1 1258 1259
560 1 1258 1260
561 1 1531 1532
562 1 1531 1533
563 1 91 92
564 1 91 93
565 1 265 266
566 1 265 267
567 1 922 923
568 1 922 924
569 1 1105 1106
570 1 1105 1107
571 1 1198 1199
572 1 1198 1200
573 1 1240 1241
574 1 1240 1242
575 1 1270 1271
576 1 1270 1272
577 1 1486 1487
578 1 1486 1488
579 1 1798 1799
580 1 1798 1800
581 1 457 458
582 1 457 459
583 1 118 119
584 1 118 120
585 1 679 680
586 1 679 681
587 1 1558 1559
588 1 1558 1560
589 1 1219 1220
590 1 1219 1221
591 1 1507 1508
592 1 1507 1509
593 1 1603 1604
594 1 1603 1605
595 1 493 494
596 1 493 495
597 1 535 536
598 1 535 537
599 1 1498 1499
600 1 1498 1500
601 1 445 446
602 1 445 447
603 1 694 695
604 1 694 696
605 1 397 398
606 1 397 399
607 1 193 194
608 1 193 195
609 1 415 416
610 1 415 417
611 1 559 560
612 1 559 561
613 1 733 734
614 1 733 735
615 1 742 743
616 1 742 744
617 1 760 761
618 1 760 762
619 1 796 797
620 1 796 798
621 1 817 818
622 1 817 819
623 1 1315 1316
624 1 1315 1317
625 1 1480 1481
626 1 1480 1482
627 1 25 26
628 1 25 27
629 1 376 377
630 1 376 378
631 1 793 794
632 1 793 795
633 1 1012 1013
634 1 1012 1014
635 1 1063 1064
636 1 1063 1065
637 1 1168 1169
638 1 1168 1170
639 1 1321 1322
640 1 1321 1323
641 1 1606 1607
642 1 1606 1608
643 1 1762 1763
644 1 1762 1764
645 1 850 851
646 1 850 852
647 1 1672 1673
648 1 1672 1674
649 1 418 419
650 1 418 420
651 1 619 620
652 1 619 621
653 1 655 656
654 1 655 657
655 1 1051 1052
656 1 1051 1053
657 1 1135 1136
658 1 1135 1137
659 1 1183 1184
660 1 1183 1185
661 1 1339 1340
662 1 1339 1341
663 1 1123 1124
664 1 1123 1125
665 1 112 113
666 1 112 114
667 1 373 374
668 1 373 375
669 1 628 629
670 1 628 630
671 1 1660 1661
672 1 1660 1662
673 1 1075 1076
674 1 1075 1077
675 1 1120 1121
676 1 1120 1122
677 1 1657 1658
678 1 1657 1659
679 1 1 2
680 1 1 3
681 1 109 110
682 1 109 111
683 1 304 305
684 1 304 306
685 1 409 410
686 1 409 411
687 1 1009 1010
688 1 1009 1011
689 1 1432 1433
690 1 1432 1434
691 1 682 683
692 1 682 684
693 1 22 23
694 1 22 24
695 1 499 500
696 1 499 501
697 1 775 776
698 1 775 777
699 1 739 740
700 1 739 741
701 1 985 986
702 1 985 987
703 1 1237 1238
704 1 1237 1239
705 1 1267 1268
706 1 1267 1269
707 1 1411 1412
708 1 1411 1413
709 1 1546 1547
710 1 1546 1548
711 1 52 53
712 1 52 54
713 1 124 125
714 1 124 126
715 1 319 320
716 1 319 321
717 1 853 854
718 1 853 855
719 1 463 464
720 1 463 465
721 1 685 686
722 1 685 687
723 1 1027 1028
724 1 1027 1029
725 1 1417 1418
726 1 1417 1419
727 1 364 365
728 1 364 366
729 1 1765 1766
730 1 1765 1767
731 1 1780 1781
732 1 1780 1782
733 1 178 179
734 1 178 180
735 1 238 239
736 1 238 240
737 1 406 407
738 1 406 408
739 1 565 566
740 1 565 567
741 1 730 731
742 1 730 732
743 1 976 977
744 1 976 978
745 1 1282 1283
746 1 1282 1284
747 1 1678 1679
748 1 1678 1680
749 1 1696 1697
750 1 1696 1698
751 1 232 233
752 1 232 234
753 1 292 293
754 1 292 294
755 1 517 518
756 1 517 519
757 1 835 836
758 1 835 837
759 1 862 863
760 1 862 864
761 1 1084 1085
762 1 1084 1086
763 1 1090 1091
764 1 1090 1092
765 1 1708 1709
766 1 1708 1710
767 1 1585 1586
768 1 1585 1587
769 1 28 29
770 1 28 30
771 1 301 302
772 1 301 303
773 1 340 341
774 1 340 342
775 1 412 413
776 1 412 414
777 1 604 605
778 1 604 606
779 1 673 674
780 1 673 675
781 1 1549 1550
782 1 1549 1551
783 1 772 773
784 1 772 774
785 1 1189 1190
786 1 1189 1191
787 1 1174 1175
788 1 1174 1176
789 1 1294 1295
790 1 1294 1296
791 1 1534 1535
792 1 1534 1536
793 1 1666 1667
794 1 1666 1668
795 1 1747 1748
796 1 1747 1749
797 1 274 275
798 1 274 276
799 1 391 392
800 1 391 393
801 1 514 515
802 1 514 516
803 1 1000 1001
804 1 1000 1002
805 1 1015 1016
806 1 1015 1017
807 1 1369 1370
808 1 1369 1371
809 1 1516 1517
810 1 1516 1518
811 1 1717 1718
812 1 1717 1719
813 1 1738 1739
814 1 1738 1740
815 1 85 86
816 1 85 87
817 1 136 137
818 1 136 138
819 1 139 140
820 1 139 141
821 1 250 251
822 1 250 252
823 1 460 461
824 1 460 462
825 1 1447 1448
826 1 1447 1449
827 1 1111 1112
828 1 1111 1113
829 1 1234 1235
830 1 1234 1236
831 1 1336 1337
832 1 1336 1338
833 1 1525 1526
834 1 1525 1527
835 1 1645 1646
836 1 1645 1647
837 1 316 317
838 1 316 318
839 1 595 596
840 1 595 597
841 1 676 677
842 1 676 678
843 1 769 770
844 1 769 771
845 1 847 848
846 1 847 849
847 1 1024 1025
848 1 1024 1026
849 1 538 539
850 1 538 540
851 1 1072 1073
852 1 1072 1074
853 1 145 146
854 1 145 147
855 1 148 149
856 1 148 150
857 1 169 170
858 1 169 171
859 1 1594 1595
860 1 1594 1596
861 1 1231 1232
862 1 1231 1233
863 1 1342 1343
864 1 1342 1344
865 1 1405 1406
866 1 1405 1407
867 1 1420 1421
868 1 1420 1422
869 1 1756 1757
870 1 1756 1758
871 1 349 350
872 1 349 351
873 1 1087 1088
874 1 1087 1089
875 1 1165 1166
876 1 1165 1167
877 1 1210 1211
878 1 1210 1212
879 1 1471 1472
880 1 1471 1473
881 1 1693 1694
882 1 1693 1695
883 1 1726 1727
884 1 1726 1728
885 1 355 356
886 1 355 357
887 1 1108 1109
888 1 1108 1110
889 1 757 758
890 1 757 759
891 1 961 962
892 1 961 963
893 1 1078 1079
894 1 1078 1080
895 1 1045 1046
896 1 1045 1047
897 1 10 11
898 1 10 12
899 1 1651 1652
900 1 1651 1653
901 1 790 791
902 1 790 792
903 1 1735 1736
904 1 1735 1737
905 1 526 527
906 1 526 528
907 1 904 905
908 1 904 906
909 1 1300 1301
910 1 1300 1302
911 1 1393 1394
912 1 1393 1395
913 1 1609 1610
914 1 1609 1611
915 1 1720 1721
916 1 1720 1722
917 1 589 590
918 1 589 591
919 1 811 812
920 1 811 813
921 1 1522 1523
922 1 1522 1524
923 1 1675 1676
924 1 1675 1677
925 1 1723 1724
926 1 1723 1725
927 1 1774 1775
928 1 1774 1776
929 1 1243 1244
930 1 1243 1245
931 1 283 284
932 1 283 285
933 1 736 737
934 1 736 738
935 1 946 947
936 1 946 948
937 1 1003 1004
938 1 1003 1005
939 1 1156 1157
940 1 1156 1158
941 1 1180 1181
942 1 1180 1182
943 1 1348 1349
944 1 1348 1350
945 1 1468 1469
946 1 1468 1470
947 1 1654 1655
948 1 1654 1656
949 1 31 32
950 1 31 33
951 1 439 440
952 1 439 441
953 1 865 866
954 1 865 867
955 1 991 992
956 1 991 993
957 1 1144 1145
958 1 1144 1146
959 1 907 908
960 1 907 909
961 1 1192 1193
962 1 1192 1194
963 1 1423 1424
964 1 1423 1425
965 1 1732 1733
966 1 1732 1734
967 1 223 224
968 1 223 225
969 1 478 479
970 1 478 480
971 1 844 845
972 1 844 846
973 1 1384 1385
974 1 1384 1386
975 1 1753 1754
976 1 1753 1755
977 1 352 353
978 1 352 354
979 1 505 506
980 1 505 507
981 1 523 524
982 1 523 525
983 1 787 788
984 1 787 789
985 1 880 881
986 1 880 882
987 1 916 917
988 1 916 918
989 1 1099 1100
990 1 1099 1101
991 1 1147 1148
992 1 1147 1149
993 1 1216 1217
994 1 1216 1218
995 1 1612 1613
996 1 1612 1614
997 1 1783 1784
998 1 1783 1785
999 1 166 167
1000 1 166 168
1001 1 358 359
1002 1 358 360
1003 1 631 632
1004 1 631 633
1005 1 709 710
1006 1 709 711
1007 1 778 779
1008 1 778 780
1009 1 913 914
1010 1 913 915
1011 1 949 950
1012 1 949 951
1013 1 1102 1103
1014 1 1102 1104
1015 1 1138 1139
1016 1 1138 1140
1017 1 1597 1598
1018 1 1597 1599
1019 1 1630 1631
1020 1 1630 1632
1021 1 1777 1778
1022 1 1777 1779
1023 1 19 20
1024 1 19 21
1025 1 64 65
1026 1 64 66
1027 1 547 548
1028 1 547 549
1029 1 661 662
1030 1 661 663
1031 1 37 38
1032 1 37 39
1033 1 1141 1142
1034 1 1141 1143
1035 1 1540 1541
1036 1 1540 1542
1037 1 247 248
1038 1 247 249
1039 1 310 311
1040 1 310 312
1041 1 502 503
1042 1 502 504
1043 1 808 809
1044 1 808 810
1045 1 871 872
1046 1 871 873
1047 1 1066 1067
1048 1 1066 1068
1049 1 1372 1373
1050 1 1372 1374
1051 1 1642 1643
1052 1 1642 1644
1053 1 43 44
1054 1 43 45
1055 1 79 80
1056 1 79 81
1057 1 979 980
1058 1 979 981
1059 1 841 842
1060 1 841 843
1061 1 1273 1274
1062 1 1273 1275
1063 1 1285 1286
1064 1 1285 1287
1065 1 1312 1313
1066 1 1312 1314
1067 1 1345 1346
1068 1 1345 1347
1069 1 1588 1589
1070 1 1588 1590
1071 1 1741 1742
1072 1 1741 1743
1073 1 13 14
1074 1 13 15
1075 1 49 50
1076 1 49 51
1077 1 421 422
1078 1 421 423
1079 1 508 509
1080 1 508 510
1081 1 805 806
1082 1 805 807
1083 1 1225 1226
1084 1 1225 1227
1085 1 1492 1493
1086 1 1492 1494
1087 1 1711 1712
1088 1 1711 1713
1089 1 40 41
1090 1 40 42
1091 1 121 122
1092 1 121 123
1093 1 229 230
1094 1 229 231
1095 1 697 698
1096 1 697 699
1097 1 721 722
1098 1 721 723
1099 1 1021 1022
1100 1 1021 1023
1101 1 1600 1601
1102 1 1600 1602
1103 1 511 512
1104 1 511 513
1105 1 46 47
1106 1 46 48
1107 1 88 89
1108 1 88 90
1109 1 190 191
1110 1 190 192
1111 1 154 155
1112 1 154 156
1113 1 484 485
1114 1 484 486
1115 1 562 563
1116 1 562 564
1117 1 577 578
1118 1 577 579
1119 1 613 614
1120 1 613 615
1121 1 784 785
1122 1 784 786
1123 1 1177 1178
1124 1 1177 1179
1125 1 1246 1247
1126 1 1246 1248
1127 1 1444 1445
1128 1 1444 1446
1129 1 1489 1490
1130 1 1489 1491
1131 1 1555 1556
1132 1 1555 1557
1133 1 55 56
1134 1 55 57
1135 1 73 74
1136 1 73 75
1137 1 430 431
1138 1 430 432
1139 1 640 641
1140 1 640 642
1141 1 667 668
1142 1 667 669
1143 1 1330 1331
1144 1 1330 1332
1145 1 754 755
1146 1 754 756
1147 1 886 887
1148 1 886 888
1149 1 970 971
1150 1 970 972
1151 1 1288 1289
1152 1 1288 1290
1153 1 1639 1640
1154 1 1639 1641
1155 1 1681 1682
1156 1 1681 1683
1157 1 220 221
1158 1 220 222
1159 1 259 260
1160 1 259 261
1161 1 382 383
1162 1 382 384
1163 1 388 389
1164 1 388 390
1165 1 442 443
1166 1 442 444
1167 1 1399 1400
1168 1 1399 1401
1169 1 814 815
1170 1 814 816
1171 1 943 944
1172 1 943 945
1173 1 1033 1034
1174 1 1033 1035
1175 1 598 599
1176 1 598 600
1177 1 1366 1367
1178 1 1366 1368
1179 1 1390 1391
1180 1 1390 1392
1181 1 1528 1529
1182 1 1528 1530
1183 1 202 203
1184 1 202 204
1185 1 1291 1292
1186 1 1291 1293
1187 1 1615 1616
1188 1 1615 1617
1189 1 1573 1574
1190 1 1573 1575
1191 1 1096 1097
1192 1 1096 1098
1193 1 1705 1706
1194 1 1705 1707
1195 1 1195 1196
1196 1 1195 1197
1197 1 1303 1304
1198 1 1303 1305
1199 1 127 128
1200 1 127 129

Angles

1 1 902 901 903
2 1 941 940 942
3 1 1700 1699 1701
4 1 1538 1537 1539
5 1 1520 1519 1521
6 1 1625 1624 1626
7 1 995 994 996
8 1 1496 1495 1497
9 1 1307 1306 1308
10 1 1229 1228 1230
11 1 1208 1207 1209
12 1 1007 1006 1008
13 1 272 271 273
14 1 1436 1435 1437
15 1 716 715 717
16 1 1256 1255 1257
17 1 1298 1297 1299
18 1 1364 1363 1365
19 1 1463 1462 1464
20 1 650 649 651
21 1 77 76 78
22 1 95 94 96
23 1 215 214 216
24 1 269 268 270
25 1 956 955 957
26 1 689 688 690
27 1 1502 1501 1503
28 1 830 829 831
29 1 161 160 162
30 1 488 487 489
31 1 551 550 552
32 1 569 568 570
33 1 617 616 618
34 1 839 838 840
35 1 875 874 876
36 1 998 997 999
37 1 1058 1057 1059
38 1 164 163 165
39 1 206 205 207
40 1 692 691 693
41 1 767 766 768
42 1 1115 1114 1116
43 1 1379 1378 1380
44 1 1409 1408 1410
45 1 1451 1450 1452
46 1 530 529 531
47 1 1703 1702 1704
48 1 1160 1159 1161
49 1 803 802 804
50 1 911 910 912
51 1 926 925 927
52 1 959 958 960
53 1 968 967 969
54 1 1151 1150 1152
55 1 386 385 387
56 1 452 451 453
57 1 335 334 336
58 1 1355 1354 1356
59 1 1361 1360 1362
60 1 1388 1387 1389
61 1 1745 1744 1746
62 1 68 67 69
63 1 134 133 135
64 1 287 286 288
65 1 401 400 402
66 1 425 424 426
67 1 455 454 456
68 1 983 982 984
69 1 1214 1213 1215
70 1 1430 1429 1431
71 1 1460 1459 1461
72 1 332 331 333
73 1 581 580 582
74 1 83 82 84
75 1 143 142 144
76 1 152 151 153
77 1 182 181 183
78 1 584 583 585
79 1 782 781 783
80 1 1280 1279 1281
81 1 1061 1060 1062
82 1 1427 1426 1428
83 1 491 490 492
84 1 1793 1792 1794
85 1 104 103 105
86 1 218 217 219
87 1 227 226 228
88 1 326 325 327
89 1 1691 1690 1692
90 1 626 625 627
91 1 704 703 705
92 1 884 883 885
93 1 899 898 900
94 1 1205 1204 1206
95 1 1310 1309 1311
96 1 1397 1396 1398
97 1 1415 1414 1416
98 1 1484 1483 1485
99 1 635 634 636
100 1 329 328 330
101 1 371 370 372
102 1 380 379 381
103 1 1040 1039 1041
104 1 1403 1402 1404
105 1 299 298 300
106 1 953 952 954
107 1 290 289 291
108 1 932 931 933
109 1 1049 1048 1050
110 1 1127 1126 1128
111 1 1250 1249 1251
112 1 1262 1261 1263
113 1 1376 1375 1377
114 1 1583 1582 1584
115 1 1478 1477 1479
116 1 1565 1564 1566
117 1 236 235 237
118 1 323 322 324
119 1 533 532 534
120 1 653 652 654
121 1 671 670 672
122 1 860 859 861
123 1 878 877 879
124 1 1037 1036 1038
125 1 1154 1153 1155
126 1 1592 1591 1593
127 1 1787 1786 1788
128 1 185 184 186
129 1 263 262 264
130 1 296 295 297
131 1 368 367 369
132 1 131 130 132
133 1 659 658 660
134 1 800 799 801
135 1 1070 1069 1071
136 1 1454 1453 1455
137 1 1568 1567 1569
138 1 935 934 936
139 1 1352 1351 1353
140 1 434 433 435
141 1 665 664 666
142 1 98 97 99
143 1 158 157 159
144 1 278 277 279
145 1 362 361 363
146 1 395 394 396
147 1 1562 1561 1563
148 1 437 436 438
149 1 497 496 498
150 1 701 700 702
151 1 725 724 726
152 1 752 751 753
153 1 1544 1543 1545
154 1 188 187 189
155 1 242 241 243
156 1 1334 1333 1335
157 1 254 253 255
158 1 476 475 477
159 1 521 520 522
160 1 746 745 747
161 1 572 571 573
162 1 647 646 648
163 1 1163 1162 1164
164 1 1265 1264 1266
165 1 1670 1669 1671
166 1 1769 1768 1770
167 1 1772 1771 1773
168 1 209 208 210
169 1 404 403 405
170 1 896 895 897
171 1 1382 1381 1383
172 1 1319 1318 1320
173 1 1505 1504 1506
174 1 1514 1513 1515
175 1 1553 1552 1554
176 1 1577 1576 1578
177 1 1649 1648 1650
178 1 1790 1789 1791
179 1 197 196 198
180 1 470 469 471
181 1 473 472 474
182 1 728 727 729
183 1 965 964 966
184 1 1031 1030 1032
185 1 1358 1357 1359
186 1 101 100 102
187 1 257 256 258
188 1 575 574 576
189 1 593 592 594
190 1 602 601 603
191 1 824 823 825
192 1 1118 1117 1119
193 1 1664 1663 1665
194 1 1685 1684 1686
195 1 212 211 213
196 1 557 556 558
197 1 587 586 588
198 1 719 718 720
199 1 890 889 891
200 1 1187 1186 1188
201 1 176 175 177
202 1 1619 1618 1620
203 1 1634 1633 1635
204 1 59 58 60
205 1 71 70 72
206 1 1439 1438 1440
207 1 245 244 246
208 1 281 280 282
209 1 545 544 546
210 1 554 553 555
211 1 623 622 624
212 1 1043 1042 1044
213 1 1082 1081 1083
214 1 1466 1465 1467
215 1 1580 1579 1581
216 1 35 34 36
217 1 107 106 108
218 1 173 172 174
219 1 1325 1324 1326
220 1 338 337 339
221 1 467 466 468
222 1 1172 1171 1173
223 1 1511 1510 1512
224 1 1628 1627 1629
225 1 1730 1729 1731
226 1 5 4 6
227 1 308 307 309
228 1 314 313 315
229 1 344 343 345
230 1 449 448 450
231 1 707 706 708
232 1 1133 1132 1134
233 1 1202 1201 1203
234 1 1328 1327 1329
235 1 1475 1474 1476
236 1 8 7 9
237 1 116 115 117
238 1 608 607 609
239 1 749 748 750
240 1 764 763 765
241 1 857 856 858
242 1 929 928 930
243 1 1442 1441 1443
244 1 1622 1621 1623
245 1 1751 1750 1752
246 1 17 16 18
247 1 611 610 612
248 1 827 826 828
249 1 989 988 990
250 1 1277 1276 1278
251 1 1571 1570 1572
252 1 1715 1714 1716
253 1 347 346 348
254 1 542 541 543
255 1 833 832 834
256 1 869 868 870
257 1 974 973 975
258 1 920 919 921
259 1 1019 1018 1020
260 1 1094 1093 1095
261 1 1253 1252 1254
262 1 1688 1687 1689
263 1 1760 1759 1761
264 1 482 481 483
265 1 638 637 639
266 1 200 199 201
267 1 1637 1636 1638
268 1 893 892 894
269 1 938 937 939
270 1 1130 1129 1131
271 1 1457 1456 1458
272 1 62 61 63
273 1 1796 1795 1797
274 1 428 427 429
275 1 644 643 645
276 1 1223 1222 1224
277 1 713 712 714
278 1 821 820 822
279 1 1055 1054 1056
280 1 1259 1258 1260
281 1 1532 1531 1533
282 1 92 91 93
283 1 266 265 267
284 1 923 922 924
285 1 1106 1105 1107
286 1 1199 1198 1200
287 1 1241 1240 1242
288 1 1271 1270 1272
289 1 1487 1486 1488
290 1 1799 1798 1800
291 1 458 457 459
292 1 119 118 120
293 1 680 679 681
294 1 1559 1558 1560
295 1 1220 1219 1221
296 1 1508 1507 1509
297 1 1604 1603 1605
298 1 494 493 495
299 1 536 535 537
300 1 1499 1498 1500
301 1 446 445 447
302 1 695 694 696
303 1 398 397 399
304 1 194 193 195
305 1 416 415 417
306 1 560 559 561
307 1 734 733 735
308 1 743 742 744
309 1 761 760 762
310 1 797 796 798
311 1 818 817 819
312 1 1316 1315 1317
313 1 1481 1480 1482
314 1 26 25 27
315 1 377 376 378
316 1 794 793 795
317 1 1013 1012 1014
318 1 1064 1063 1065
319 1 1169 1168 1170
320 1 1322 1321 1323
321 1 1607 1606 1608
322 1 1763 1762 1764
323 1 851 850 852
324 1 1673 1672 1674
325 1 419 418 420
326 1 620 619 621
327 1 656 655 657
328 1 1052 1051 1053
329 1 1136 1135 1137
330 1 1184 1183 1185
331 1 1340 1339 1341
332 1 1124 1123 1125
333 1 113 112 114
334 1 374 373 375
335 1 629 628 630
336 1 1661 1660 1662
337 1 1076 1075 1077
338 1 1121 1120 1122
339 1 1658 1657 1659
340 1 2 1 3
341 1 110 109 111
342 1 305 304 306
343 1 410 409 411
344 1 1010 1009 1011
345 1 1433 1432 1434
346 1 683 682 684
347 1 23 22 24
348 1 500 499 501
349 1 776 775 777
350 1 740 739 741
351 1 986 985 987
352 1 1238 1237 1239
353 1 1268 1267 1269
354 1 1412 1411 1413
355 1 1547 1546 1548
356 1 53 52 54
357 1 125 124 126
358 1 320 319 321
359 1 854 853 855
360 1 464 463 465
361 1 686 685 687
362 1 1028 1027 1029
363 1 1418 1417 1419
364 1 365 364 366
365 1 1766 1765 1767
366 1 1781 1780 1782
367 1 179 178 180
368 1 239 238 240
369 1 407 406 408
370 1 566 565 567
371 1 731 730 732
372 1 977 976 978
373 1 1283 1282 1284
374 1 1679 1678 1680
375 1 1697 1696 1698
376 1 233 232 234
377 1 293 292 294
378 1 518 517 519
379 1 836 835 837
380 1 863 862 864
381 1 1085 1084 1086
382 1 1091 1090 1092
383 1 1709 1708 1710
384 1 1586 1585 1587
385 1 29 28 30
386 1 302 301 303
387 1 341 340 342
388 1 413 412 414
389 1 605 604 606
390 1 674 673 675
391 1 1550 1549 1551
392 1 773 772 774
393 1 1190 1189 1191
394 1 1175 1174 1176
395 1 1295 1294 1296
396 1 1535 1534 1536
397 1 1667 1666 1668
398 1 1748 1747 1749
399 1 275 274 276
400 1 392 391 393
401 1 515 514 516
402 1 1001 1000 1002
403 1 1016 1015 1017
404 1 1370 1369 1371
405 1 1517 1516 1518
406 1 1718 1717 1719
407 1 1739 1738 1740
408 1 86 85 87
409 1 137 136 138
410 1 140 139 141
411 1 251 250 252
412 1 461 460 462
413 1 1448 1447 1449
414 1 1112 1111 1113
415 1 1235 1234 1236
416 1 1337 1336 1338
417 1 1526 1525 1527
418 1 1646 1645 1647
419 1 317 316 318
420 1 596 595 597
421 1 677 676 678
422 1 770 769 771
423 1 848 847 849
424 1 1025 1024 1026
425 1 539 538 540
426 1 1073 1072 1074
427 1 146 145 147
428 1 149 148 150
429 1 170 169 171
430 1 1595 1594 1596
431 1 1232 1231 1233
432 1 1343 1342 1344
433 1 1406 1405 1407
434 1 1421 1420 1422
435 1 1757 1756 1758
436 1 350 349 351
437 1 1088 1087 1089
438 1 1166 1165 1167
439 1 1211 1210 1212
440 1 1472 1471 1473
441 1 1694 1693 1695
442 1 1727 1726 1728
443 1 356 355 357
444 1 1109 1108 1110
445 1 758 757 759
446 1 962 961 963
447 1 1079 1078 1080
448 1 1046 1045 1047
449 1 11 10 12
450 1 1652 1651 1653
451 1 791 790 792
452 1 1736 1735 1737
453 1 527 526 528
454 1 905 904 906
455 1 1301 1300 1302
456 1 1394 1393 1395
457 1 1610 1609 1611
458 1 1721 1720 1722
459 1 590 589 591
460 1 812 811 813
461 1 1523 1522 1524
462 1 1676 1675 1677
463 1 1724 1723 1725
464 1 1775 1774 1776
465 1 1244 1243 1245
466 1 284 283 285
467 1 737 736 738
468 1 947 946 948
469 1 1004 1003 1005
470 1 1157 1156 1158
471 1 1181 1180 1182
472 1 1349 1348 1350
473 1 1469 1468 1470
474 1 1655 1654 1656
475 1 32 31 33
476 1 440 439 441
477 1 866 865 867
478 1 992 991 993
479 1 1145 1144 1146
480 1 908 907 909
481 1 1193 1192 1194
482 1 1424 1423 1425
483 1 1733 1732 1734
484 1 224 223 225
485 1 479 478 480
486 1 845 844 846
487 1 1385 1384 1386
488 1 1754 1753 1755
489 1 353 352 354
490 1 506 505 507
491 1 524 523 525
492 1 788 787 789
493 1 881 880 882
494 1 917 916 918
495 1 1100 1099 1101
496 1 1148 1147 1149
497 1 1217 1216 1218
498 1 1613 1612 1614
499 1 1784 1783 1785
500 1 167 166 168
501 1 359 358 360
502 1 632 631 633
503 1 710 709 711
504 1 779 778 780
505 1 914 913 915
506 1 950 949 951
507 1 1103 1102 1104
508 1 1139 1138 1140
509 1 1598 1597 1599
510 1 1631 1630 1632
511 1 1778 1777 1779
512 1 20 19 21
513 1 65 64 66
514 1 548 547 549
515 1 662 661 663
516 1 38 37 39
517 1 1142 1141 1143
518 1 1541 1540 1542
519 1 248 247 249
520 1 311 310 312
521 1 503 502 504
522 1 809 808 810
523 1 872 871 873
524 1 1067 1066 1068
525 1 1373 1372 1374
526 1 1643 1642 1644
527 1 44 43 45
528 1 80 79 81
529 1 980 979 981
530 1 842 841 843
531 1 1274 1273 1275
532 1 1286 1285 1287
533 1 1313 1312 1314
534 1 1346 1345 1347
535 1 1589 1588 1590
536 1 1742 1741 1743
537 1 14 13 15
538 1 50 49 51
539 1 422 421 423
540 1 509 508 510
541 1 806 805 807
542 1 1226 1225 1227
543 1 1493 1492 1494
544 1 1712 1711 1713
545 1 41 40 42
546 1 122 121 123
547 1 230 229 231
548 1 698 697 699
549 1 722 721 723
550 1 1022 1021 1023
551 1 1601 1600 1602
552 1 512 511 513
553 1 47 46 48
554 1 89 88 90
555 1 191 190 192
556 1 155 154 156
557 1 485 484 486
558 1 563 562 564
559 1 578 577 579
560 1 614 613 615
561 1 785 784 786
562 1 1178 1177 1179
563 1 1247 1246 1248
564 1 1445 1444 1446
565 1 1490 1489 1491
566 1 1556 1555 1557
567 1 56 55 57
568 1 74 73 75
569 1 431 430 432
570 1 641 640 642
571 1 668 667 669
572 1 1331 1330 1332
573 1 755 754 756
574 1 887 886 888
575 1 971 970 972
576 1 1289 1288 1290
577 1 1640 1639 1641
578 1 1682 1681 1683
579 1 221 220 222
580 1 260 259 261
581 1 383 382 384
582 1 389 388 390
583 1 443 442 444
584 1 1400 1399 1401
585 1 815 814 816
586 1 944 943 945
587 1 1034 1033 1035
588 1 599 598 600
589 1 1367 1366 1368
590 1 1391 1390 1392
591 1 1529 1528 1530
592 1 203 202 204
593 1 1292 1291 1293
594 1 1616 1615 1617
595 1 1574 1573 1575
596 1 1097 1096 1098
597 1 1706 1705 1707
598 1 1196 1195 1197
599 1 1304 1303 1305
600 1 128 127 129
