LAMMPS (7 Feb 2024 - Update 1)
  using 1 OpenMP thread(s) per MPI task
echo both

# Define temperature parameters
variable	temperature equal 300.0 # Simulation temperature in Kelvin
variable	tempDamp equal 100.0 # Relaxation time of themostat - 0.1 ps

# Define pressure parameters
variable	pressure equal 1.0 # Pressure in bars
variable	pressureDamp equal 500.0 # Relaxation time of the barostat 0.5 ps

# Define random seed
variable	seed equal 98475

# Simulation setup
units		real
atom_style	full
variable	out_freq equal 1000 # Thermo output frequency
variable	out_freq2 equal 10 # Dump output frequency
neigh_modify    delay 10 every 1 # Neighbor list setup

### TIP4P/Ew and NaCl Potential Parameters ###
pair_style      hybrid lj/cut/coul/long 5.0 buck/coul/long 5.0 # This cutoff is too short for a real calculation
# Load configuration
read_data       data.nacl
Reading data file ...
  orthogonal box = (0 0 0) to (15.5 15.5 15.5)
  2 by 2 by 3 MPI processor grid
  reading atoms ...
  320 atoms
  scanning bonds ...
  2 = max bonds/atom
  scanning angles ...
  1 = max angles/atom
  reading bonds ...
  212 bonds
  reading angles ...
  106 angles
Finding 1-2 1-3 1-4 neighbors ...
  special bond factors lj:    0        0        0       
  special bond factors coul:  0        0        0       
     2 = max # of 1-2 neighbors
     1 = max # of 1-3 neighbors
     1 = max # of 1-4 neighbors
     2 = max # of special neighbors
  special bonds CPU = 0.001 seconds
  read_data CPU = 0.006 seconds

# create groups ###

group hy type 1
212 atoms in group hy
group ox type 2
106 atoms in group ox
group na type 3
1 atoms in group na
group cl type 4
1 atoms in group cl

## set charges - beside manually ###
set group ox charge -0.830
Setting atom values ...
  106 settings made for charge
set group hy charge 0.415
Setting atom values ...
  212 settings made for charge
set group na charge 1.0
Setting atom values ...
  1 settings made for charge
set group cl charge -1.0
Setting atom values ...
  1 settings made for charge

# Water TIP3P
pair_coeff      1 1 lj/cut/coul/long 0.0 0.0
pair_coeff      2 2 lj/cut/coul/long 0.102 3.188
pair_coeff      1 2 lj/cut/coul/long 0.0 0.0
# Mixed from Pettitt 86
pair_coeff      2 3 lj/cut/coul/long 0.1338549 2.72
pair_coeff      1 3 lj/cut/coul/long 0.1338549 1.31
pair_coeff      2 4 lj/cut/coul/long 0.359825 3.55
pair_coeff      1 4 lj/cut/coul/long 0.359825 2.14
# NaCl from Pettitt 86
pair_coeff      3 4 buck/coul/long 28929.93 0.317 161.2016
pair_coeff      3 3 buck/coul/long 9772.847 0.317 24.18024 # This is not used
pair_coeff      4 4 buck/coul/long 80312.94 0.317 1683.981 # This is not used
bond_style      harmonic
bond_coeff      1 450 0.9572
angle_style     harmonic
angle_coeff     1 55 104.52
kspace_style    pppm 1e-2 # This value is too large for a real calculation

timestep	2.0 # Timestep 2 fs
thermo          ${out_freq}
thermo          1000
thermo_style 	custom step temp pe ke etotal press lx ly lz xy xz yz
restart 	${out_freq} restart restart2
restart 	1000 restart restart2

velocity        all create ${temperature} ${seed} dist gaussian
velocity        all create 300 ${seed} dist gaussian
velocity        all create 300 98475 dist gaussian
# Perform minimization
minimize 1.0e-2 1.0e-3 100 1000
Switching to 'neigh_modify every 1 delay 0 check yes' setting during minimization
PPPM initialization ...
  using 12-bit tables for long-range coulomb (src/lammps-7Feb2024/src/kspace.cpp:342)
  G vector (1/distance) = 0.40023582
  grid = 8 8 8
  stencil order = 5
  estimated absolute RMS force accuracy = 0.7823365
  estimated relative force accuracy = 0.0023559831
  using double precision MKL FFT
  3d grid and FFT values/proc = 1089 48
Generated 0 of 6 mixed pair_coeff terms from geometric mixing rule
Neighbor list info ...
  update: every = 1 steps, delay = 0 steps, check = yes
  max neighbors/atom: 2000, page size: 100000
  master list distance cutoff = 7
  ghost atom cutoff = 7
  binsize = 3.5, bins = 5 5 5
  3 neighbor lists, perpetual/occasional/extra = 3 0 0
  (1) pair lj/cut/coul/long, perpetual, skip from (3)
      attributes: half, newton on
      pair build: skip
      stencil: none
      bin: none
  (2) pair buck/coul/long, perpetual, skip from (3)
      attributes: half, newton on
      pair build: skip
      stencil: none
      bin: none
  (3) neighbor class addition, perpetual
      attributes: half, newton on
      pair build: half/bin/newton
      stencil: half/bin/3d
      bin: standard
Per MPI rank memory allocation (min/avg/max) = 9.416 | 9.418 | 9.42 Mbytes
   Step          Temp          PotEng         KinEng         TotEng         Press            Lx             Ly             Lz             Xy             Xz             Yz      
         0   300            92556250       285.26352      92556536       6.8175783e+09  15.5           15.5           15.5           0              0              0            
        27   300           -1095.9406      285.26352     -810.67712     -2918.7587      15.5           15.5           15.5           0              0              0            
Loop time of 0.0122067 on 12 procs for 27 steps with 320 atoms

88.4% CPU use with 12 MPI tasks x 1 OpenMP threads

Minimization stats:
  Stopping criterion = energy tolerance
  Energy initial, next-to-last, final = 
       92556250.257805     -1089.35799481  -1095.94064566941
  Force two-norm initial, final = 1.8953089e+09 108.40957
  Force max component initial, final = 1.2163668e+09 24.333575
  Final line search alpha, max atom move = 0.0033714434 0.08203927
  Iterations, force evaluations = 27 35

MPI task timing breakdown:
Section |  min time  |  avg time  |  max time  |%varavg| %total
---------------------------------------------------------------
Pair    | 0.00049389 | 0.00069137 | 0.0008779  |   0.0 |  5.66
Bond    | 1.8682e-05 | 2.8774e-05 | 4.4173e-05 |   0.0 |  0.24
Kspace  | 0.0045796  | 0.0047491  | 0.0049897  |   0.2 | 38.91
Neigh   | 0.00019024 | 0.00020223 | 0.00022555 |   0.0 |  1.66
Comm    | 0.0012983  | 0.0014021  | 0.0015242  |   0.2 | 11.49
Output  | 0          | 0          | 0          |   0.0 |  0.00
Modify  | 0          | 0          | 0          |   0.0 |  0.00
Other   |            | 0.005133   |            |       | 42.05

Nlocal:        26.6667 ave          32 max          19 min
Histogram: 1 0 2 1 0 1 1 2 2 2
Nghost:        766.167 ave         805 max         727 min
Histogram: 2 0 0 2 3 1 1 1 1 1
Neighs:              0 ave           0 max           0 min
Histogram: 12 0 0 0 0 0 0 0 0 0

Total # of neighbors = 0
Ave neighs/atom = 0
Ave special neighs/atom = 1.9875
Neighbor list builds = 3
Dangerous builds = 0

# Write trajectory to file
dump           	myDump all dcd ${out_freq2} out.dcd
dump           	myDump all dcd 10 out.dcd
#dump_modify    	myDump unwrap yes

# Start simulation

reset_timestep 	0


fix umb all plumed plumedfile plumed_1.dat outfile plumed.out
fix             1 all temp/csvr ${temperature} ${temperature} ${tempDamp} ${seed} # Bussi's thermostat
fix             1 all temp/csvr 300 ${temperature} ${tempDamp} ${seed} 
fix             1 all temp/csvr 300 300 ${tempDamp} ${seed} 
fix             1 all temp/csvr 300 300 100 ${seed} 
fix             1 all temp/csvr 300 300 100 98475 
fix             2 all shake 0.0001 20 0 t 1 2 # Shake algorithm
Finding SHAKE clusters ...
       0 = # of size 2 clusters
     106 = # of size 3 clusters
       0 = # of size 4 clusters
       0 = # of frozen angles
  find clusters CPU = 0.000 seconds
#fix             3 all nve
fix             3 all nph iso ${pressure} ${pressure} ${pressureDamp} # Isotropic barostat
fix             3 all nph iso 1 ${pressure} ${pressureDamp} 
fix             3 all nph iso 1 1 ${pressureDamp} 
fix             3 all nph iso 1 1 500 
fix 		4 all momentum 10000 linear 1 1 1 # Set total linear momentum to zero every 10000 steps

run 1000000
PPPM initialization ...
  using 12-bit tables for long-range coulomb (src/lammps-7Feb2024/src/kspace.cpp:342)
  G vector (1/distance) = 0.40023582
  grid = 8 8 8
  stencil order = 5
  estimated absolute RMS force accuracy = 0.7823365
  estimated relative force accuracy = 0.0023559831
  using double precision MKL FFT
  3d grid and FFT values/proc = 1089 48
Generated 0 of 6 mixed pair_coeff terms from geometric mixing rule
Per MPI rank memory allocation (min/avg/max) = 9.186 | 9.188 | 9.19 Mbytes
   Step          Temp          PotEng         KinEng         TotEng         Press            Lx             Ly             Lz             Xy             Xz             Yz      
         0   385.36913     -1127.6681      285.26352     -842.40459     -1769.2029      15.5           15.5           15.5           0              0              0            
      1000   292.7631      -1194.7288      216.71335     -978.01545      1046.7835      15.153335      15.153335      15.153335      0              0              0            
      2000   291.00943     -1171.5143      215.41522     -956.09903      1230.2235      15.210118      15.210118      15.210118      0              0              0            
      3000   304.69515     -1198.9771      225.54586     -973.43127      241.64548      15.097715      15.097715      15.097715      0              0              0            
      4000   308.69432     -1172.8674      228.50618     -944.36123      195.24202      15.058142      15.058142      15.058142      0              0              0            
      5000   313.7293      -1215.5392      232.23325     -983.30597     -258.26759      15.005546      15.005546      15.005546      0              0              0            
      6000   317.1302      -1213.1852      234.75071     -978.43445      1038.0877      14.864672      14.864672      14.864672      0              0              0            
      7000   301.77226     -1228.6802      223.38224     -1005.298      -361.13321      14.829612      14.829612      14.829612      0              0              0            
      8000   301.81046     -1204.4218      223.41051     -981.0113       638.47518      15.168912      15.168912      15.168912      0              0              0            
      9000   268.22543     -1219.6019      198.54971     -1021.0521      1833.3509      14.86032       14.86032       14.86032       0              0              0            
     10000   318.65295     -1181.6516      235.87791     -945.77374     -700.79078      15.24589       15.24589       15.24589       0              0              0            
     11000   279.48966     -1193.1032      206.88789     -986.21527     -1238.4174      14.778902      14.778902      14.778902      0              0              0            
     12000   289.86569     -1157.8311      214.56858     -943.26256      2168.9973      14.785257      14.785257      14.785257      0              0              0            
     13000   306.17214     -1195.4514      226.63918     -968.8122      -1157.469       15.268586      15.268586      15.268586      0              0              0            
     14000   272.40922     -1215.4467      201.6467      -1013.8         1322.8471      15.018176      15.018176      15.018176      0              0              0            
     15000   276.5806      -1210.9662      204.7345      -1006.2317     -1549.9627      15.165747      15.165747      15.165747      0              0              0            
     16000   285.1694      -1173.0584      211.09222     -961.96621     -295.99228      15.16634       15.16634       15.16634       0              0              0            
     17000   332.59808     -1209.1728      246.20057     -962.97224      998.50735      15.093614      15.093614      15.093614      0              0              0            
     18000   314.9031      -1222.585       233.10214     -989.48283     -369.89243      14.865707      14.865707      14.865707      0              0              0            
     19000   299.91816     -1207.0825      222.00976     -985.07269      1399.627       14.911888      14.911888      14.911888      0              0              0            
     20000   318.97472     -1205.6426      236.11609     -969.52652     -1385.5698      15.134336      15.134336      15.134336      0              0              0            
     21000   299.98495     -1195.9929      222.0592      -973.93372     -96.552854      15.113005      15.113005      15.113005      0              0              0            
     22000   290.98049     -1156.5813      215.3938      -941.18749     -2460.7611      15.343774      15.343774      15.343774      0              0              0            
     23000   286.78453     -1223.1492      212.2878      -1010.8614     -2219.8676      15.047617      15.047617      15.047617      0              0              0            
     24000   320.14106     -1199.7326      236.97946     -962.75315      295.21767      14.956768      14.956768      14.956768      0              0              0            
     25000   324.49007     -1196.6591      240.19874     -956.46034     -1168.2745      15.041276      15.041276      15.041276      0              0              0            
     26000   325.86738     -1228.4681      241.21827     -987.24979     -288.5286       14.796114      14.796114      14.796114      0              0              0            
     27000   294.04147     -1194.4122      217.65964     -976.7526       1085.1442      15.081124      15.081124      15.081124      0              0              0            
     28000   285.34408     -1171.7428      211.22153     -960.52131     -1472.9448      15.354652      15.354652      15.354652      0              0              0            
     29000   291.29985     -1228.4221      215.6302      -1012.7919     -688.85868      15.083131      15.083131      15.083131      0              0              0            
     30000   306.83136     -1245.9209      227.12716     -1018.7938     -295.23073      14.941896      14.941896      14.941896      0              0              0            
     31000   295.77583     -1226.198       218.94347     -1007.2546     -1255.3307      14.73483       14.73483       14.73483       0              0              0            
     32000   309.87573     -1207.1325      229.3807      -977.75182      845.47363      14.972951      14.972951      14.972951      0              0              0            
     33000   303.59774     -1223.4172      224.73352     -998.68366      1443.0488      14.770536      14.770536      14.770536      0              0              0            
     34000   280.20404     -1199.6074      207.4167      -992.1907      -974.68404      14.817261      14.817261      14.817261      0              0              0            
     35000   304.3544      -1237.0532      225.29362     -1011.7596      1230.8693      14.955097      14.955097      14.955097      0              0              0            
     36000   310.18022     -1194.3957      229.6061      -964.78959     -858.57265      15.00001       15.00001       15.00001       0              0              0            
     37000   304.11274     -1189.0269      225.11474     -963.91218     -819.61051      15.105132      15.105132      15.105132      0              0              0            
     38000   296.19987     -1203.1684      219.25736     -983.91101     -939.57153      14.959827      14.959827      14.959827      0              0              0            
     39000   290.80727     -1202.7385      215.26557     -987.47297     -197.37138      14.870109      14.870109      14.870109      0              0              0            
     40000   278.32792     -1210.6029      206.02793     -1004.575      -747.51243      14.863897      14.863897      14.863897      0              0              0            
     41000   300.95182     -1203.8197      222.77492     -981.04475      2239.5221      14.859848      14.859848      14.859848      0              0              0            
     42000   291.11722     -1192.7458      215.49501     -977.25081     -1113.752       15.035549      15.035549      15.035549      0              0              0            
     43000   300.87039     -1192.8749      222.71464     -970.16023      1393.3962      14.895826      14.895826      14.895826      0              0              0            
     44000   292.65057     -1184.2378      216.63004     -967.60773     -855.55086      15.119299      15.119299      15.119299      0              0              0            
     45000   291.4429      -1209.329       215.73609     -993.5929       910.93546      14.816328      14.816328      14.816328      0              0              0            
     46000   291.15115     -1223.05        215.52012     -1007.5298      947.40003      15.104971      15.104971      15.104971      0              0              0            
     47000   303.46845     -1188.5687      224.63781     -963.93086      43.656753      15.203282      15.203282      15.203282      0              0              0            
     48000   306.3773      -1197.8655      226.79105     -971.07443      2874.3135      14.797413      14.797413      14.797413      0              0              0            
     49000   305.50446     -1204.3613      226.14494     -978.21637     -439.71095      14.927067      14.927067      14.927067      0              0              0            
     50000   281.83609     -1212.2812      208.6248      -1003.6564     -1649.6985      14.860629      14.860629      14.860629      0              0              0            
     51000   285.15283     -1228.8097      211.07996     -1017.7297     -206.5269       14.781417      14.781417      14.781417      0              0              0            
     52000   290.65021     -1220.4795      215.14931     -1005.3302     -887.42754      14.995026      14.995026      14.995026      0              0              0            
     53000   302.22309     -1213.0638      223.71596     -989.34783     -935.89528      14.914852      14.914852      14.914852      0              0              0            
     54000   299.11982     -1190.4411      221.41881     -969.02229     -1582.08        15.122584      15.122584      15.122584      0              0              0            
     55000   305.0263      -1193.4353      225.79099     -967.64429     -737.55733      15.091712      15.091712      15.091712      0              0              0            
     56000   312.18747     -1194.986       231.09193     -963.89411     -26.113758      14.991867      14.991867      14.991867      0              0              0            
     57000   313.20749     -1198.2738      231.84699     -966.42677      2186.2082      14.914693      14.914693      14.914693      0              0              0            
     58000   303.08423     -1210.7128      224.3534      -986.35936     -1316.2188      14.9459        14.9459        14.9459        0              0              0            
     59000   297.65141     -1191.0794      220.33184     -970.74759      744.90777      15.151026      15.151026      15.151026      0              0              0            
     60000   314.21277     -1172.7973      232.59113     -940.20612      1012.0339      14.962063      14.962063      14.962063      0              0              0            
     61000   275.635       -1194.0907      204.03454     -990.05614      585.73559      15.048221      15.048221      15.048221      0              0              0            
     62000   315.91849     -1194.5198      233.85377     -960.66599     -204.54549      14.913734      14.913734      14.913734      0              0              0            
     63000   294.08731     -1198.8934      217.69357     -981.19986     -813.80267      14.78229       14.78229       14.78229       0              0              0            
     64000   287.79529     -1202.7608      213.036       -989.72483     -642.85529      15.17527       15.17527       15.17527       0              0              0            
     65000   311.48882     -1231.1145      230.57477     -1000.5397     -1549.6612      15.013199      15.013199      15.013199      0              0              0            
     66000   315.84724     -1217.5669      233.80103     -983.76589      130.48282      15.119856      15.119856      15.119856      0              0              0            
     67000   306.61636     -1153.7131      226.96801     -926.74509      259.28499      15.371527      15.371527      15.371527      0              0              0            
     68000   281.26478     -1190.9166      208.20189     -982.71468     -335.57301      14.989913      14.989913      14.989913      0              0              0            
     69000   280.81606     -1205.7452      207.86973     -997.87548     -902.84273      15.029195      15.029195      15.029195      0              0              0            
     70000   307.34712     -1181.9442      227.50894     -954.4353       1234.7433      14.723477      14.723477      14.723477      0              0              0            
     71000   313.1964      -1243.0463      231.83878     -1011.2075      3422.9844      14.841683      14.841683      14.841683      0              0              0            
     72000   319.73598     -1197.0923      236.67961     -960.41273     -1022.2337      15.053297      15.053297      15.053297      0              0              0            
     73000   314.39611     -1216.0072      232.72684     -983.28035      372.85554      15.108564      15.108564      15.108564      0              0              0            
     74000   300.69395     -1208.937       222.58403     -986.35298      552.78243      14.908856      14.908856      14.908856      0              0              0            
     75000   293.88674     -1201.1508      217.5451      -983.60569      995.32411      14.774401      14.774401      14.774401      0              0              0            
     76000   313.95946     -1192.9761      232.40362     -960.57251      970.11938      15.015134      15.015134      15.015134      0              0              0            
     77000   307.17173     -1187.5507      227.37911     -960.17164     -449.05287      14.815997      14.815997      14.815997      0              0              0            
     78000   288.4761      -1194.4018      213.53996     -980.86184      55.728874      15.003948      15.003948      15.003948      0              0              0            
     79000   316.17948     -1215.9113      234.04695     -981.86432      391.52916      14.945719      14.945719      14.945719      0              0              0            
     80000   292.06092     -1194.4679      216.19357     -978.27437      243.43654      15.138426      15.138426      15.138426      0              0              0            
     81000   310.66906     -1232.0511      229.96795     -1002.0831      1792.078       15.116367      15.116367      15.116367      0              0              0            
     82000   293.24442     -1199.7294      217.06963     -982.65974      513.41929      14.950239      14.950239      14.950239      0              0              0            
     83000   288.06483     -1214.8888      213.23552     -1001.6533     -513.4938       14.745434      14.745434      14.745434      0              0              0            
     84000   311.21955     -1192.1497      230.37545     -961.77424     -887.94991      15.160862      15.160862      15.160862      0              0              0            
     85000   303.86633     -1179.6675      224.93234     -954.73519      608.88268      15.091013      15.091013      15.091013      0              0              0            
     86000   292.45617     -1189.6908      216.48614     -973.20469     -128.0602       15.016673      15.016673      15.016673      0              0              0            
     87000   308.20743     -1207.4143      228.14577     -979.26849      2462.7005      14.887897      14.887897      14.887897      0              0              0            
     88000   280.5369      -1186.1552      207.66309     -978.49214     -658.4801       15.297996      15.297996      15.297996      0              0              0            
     89000   307.44102     -1203.2738      227.57845     -975.69532      2236.7413      14.688228      14.688228      14.688228      0              0              0            
     90000   325.61117     -1205.4698      241.02862     -964.4412       2520.7191      14.679382      14.679382      14.679382      0              0              0            
     91000   322.72335     -1200.9937      238.89096     -962.10272      2941.3323      14.811969      14.811969      14.811969      0              0              0            
     92000   311.63072     -1167.551       230.67981     -936.87115     -205.48367      15.00203       15.00203       15.00203       0              0              0            
     93000   297.63486     -1199.0469      220.31959     -978.72729     -2362.1521      15.030139      15.030139      15.030139      0              0              0            
     94000   305.75918     -1221.6115      226.3335      -995.27797     -1456.4799      14.93841       14.93841       14.93841       0              0              0            
     95000   291.73774     -1204.9077      215.95434     -988.95333     -1906.3131      15.1913        15.1913        15.1913        0              0              0            
     96000   304.86323     -1197.7506      225.67028     -972.08036      689.26814      14.954585      14.954585      14.954585      0              0              0            
     97000   293.09047     -1188.9777      216.95567     -972.02205      274.10621      14.887193      14.887193      14.887193      0              0              0            
     98000   295.97756     -1226.1555      219.0928      -1007.0627     -2485.0586      15.208412      15.208412      15.208412      0              0              0            
     99000   301.74646     -1206.4312      223.36314     -983.06802     -801.3267       14.9214        14.9214        14.9214        0              0              0            
    100000   317.21133     -1215.0708      234.81077     -980.26007     -68.610414      14.923272      14.923272      14.923272      0              0              0            
    101000   294.51738     -1203.4876      218.01192     -985.47565     -398.88258      14.784702      14.784702      14.784702      0              0              0            
    102000   288.11821     -1188.4565      213.27504     -975.18147     -786.26281      15.41108       15.41108       15.41108       0              0              0            
    103000   294.96968     -1208.8054      218.34673     -990.4587       498.80895      15.030316      15.030316      15.030316      0              0              0            
    104000   272.81281     -1196.5991      201.94545     -994.65365      454.54712      15.102296      15.102296      15.102296      0              0              0            
    105000   288.616       -1174.6585      213.64352     -961.01497     -1851.9895      15.008483      15.008483      15.008483      0              0              0            
    106000   336.66808     -1207.0503      249.21333     -957.83696      1472.0678      14.846071      14.846071      14.846071      0              0              0            
    107000   298.16305     -1193.9365      220.71057     -973.22593      777.22915      14.928213      14.928213      14.928213      0              0              0            
    108000   306.59644     -1209.2351      226.95326     -982.28183     -1819.6265      15.005102      15.005102      15.005102      0              0              0            
    109000   316.56583     -1203.4323      234.33294     -969.09937     -1308.0597      14.949505      14.949505      14.949505      0              0              0            
    110000   285.60248     -1197.0651      211.41281     -985.65234     -516.29541      14.956374      14.956374      14.956374      0              0              0            
    111000   318.9021      -1200.5938      236.06233     -964.53142      775.12065      14.833624      14.833624      14.833624      0              0              0            
    112000   286.3889      -1209.8795      211.99495     -997.88458     -2378.2334      15.066203      15.066203      15.066203      0              0              0            
    113000   297.5456      -1214.4848      220.25352     -994.23126     -1250.1732      15.001073      15.001073      15.001073      0              0              0            
    114000   277.60835     -1216.1608      205.49528     -1010.6655      2036.8394      14.879582      14.879582      14.879582      0              0              0            
    115000   323.10096     -1233.3967      239.17048     -994.22619     -668.94454      15.081904      15.081904      15.081904      0              0              0            
    116000   291.32057     -1203.8235      215.64553     -988.17792      865.50547      15.016385      15.016385      15.016385      0              0              0            
    117000   316.6379      -1165.7261      234.38629     -931.33976     -1036.7147      15.304389      15.304389      15.304389      0              0              0            
    118000   311.4706      -1161.7872      230.56128     -931.22592     -333.58785      15.162653      15.162653      15.162653      0              0              0            
    119000   308.60017     -1235.3788      228.43649     -1006.9423     -415.70891      14.981424      14.981424      14.981424      0              0              0            
    120000   305.96714     -1175.1766      226.48743     -948.68914      770.73613      15.121969      15.121969      15.121969      0              0              0            
    121000   290.00181     -1195.7759      214.66935     -981.10659      2889.1808      14.921347      14.921347      14.921347      0              0              0            
    122000   301.86028     -1199.5233      223.4474      -976.0759      -442.54985      15.017958      15.017958      15.017958      0              0              0            
    123000   281.95146     -1243.0632      208.7102      -1034.353       1182.7971      14.861297      14.861297      14.861297      0              0              0            
    124000   287.26868     -1217.3598      212.64618     -1004.7136      756.60686      14.985728      14.985728      14.985728      0              0              0            
    125000   308.56441     -1198.5236      228.41002     -970.11359      623.81703      14.917973      14.917973      14.917973      0              0              0            
    126000   320.24129     -1190.2473      237.05365     -953.19361      685.20993      15.092533      15.092533      15.092533      0              0              0            
    127000   309.6703      -1200.0697      229.22864     -970.84109      1339.1913      15.139164      15.139164      15.139164      0              0              0            
    128000   277.7117      -1191.6014      205.57178     -986.02966      83.680495      14.829688      14.829688      14.829688      0              0              0            
    129000   290.55295     -1241.9378      215.07731     -1026.8605     -406.96654      14.88397       14.88397       14.88397       0              0              0            
    130000   298.46389     -1242.5047      220.93327     -1021.5714     -801.60249      14.915443      14.915443      14.915443      0              0              0            
    131000   314.54942     -1201.8058      232.84033     -968.96549      246.74505      15.10041       15.10041       15.10041       0              0              0            
    132000   274.28931     -1230.43        203.03841     -1027.3916      2368.3089      14.50095       14.50095       14.50095       0              0              0            
    133000   320.48338     -1198.2346      237.23285     -961.0017       235.35263      15.069752      15.069752      15.069752      0              0              0            
    134000   302.79732     -1179.6304      224.14102     -955.48941      2323.543       14.960838      14.960838      14.960838      0              0              0            
    135000   293.98591     -1211.4972      217.61851     -993.87873     -318.46368      15.069562      15.069562      15.069562      0              0              0            
    136000   320.54546     -1195.2245      237.27881     -957.94564     -1149.6379      15.271939      15.271939      15.271939      0              0              0            
    137000   301.44914     -1213.2203      223.14306     -990.07727     -1371.4273      15.040269      15.040269      15.040269      0              0              0            
    138000   289.00713     -1207.167       213.93304     -993.23397      1082.6363      14.970544      14.970544      14.970544      0              0              0            
    139000   286.18349     -1215.1961      211.84289     -1003.3532      2713.2822      14.66301       14.66301       14.66301       0              0              0            
    140000   304.65754     -1225.4144      225.51802     -999.89633      294.63615      14.805767      14.805767      14.805767      0              0              0            
    141000   306.65289     -1215.8839      226.99505     -988.88882      83.835952      14.904756      14.904756      14.904756      0              0              0            
    142000   319.47557     -1212.0975      236.48684     -975.61061      39.314916      14.959605      14.959605      14.959605      0              0              0            
    143000   317.63939     -1199.7736      235.12763     -964.64601     -237.60628      15.130006      15.130006      15.130006      0              0              0            
    144000   308.75153     -1206.7726      228.54853     -978.2241       1158.6776      14.893627      14.893627      14.893627      0              0              0            
    145000   273.86201     -1220.1343      202.72211     -1017.4122      673.04919      14.940207      14.940207      14.940207      0              0              0            
    146000   275.31147     -1212.8862      203.79504     -1009.0911      98.34521       14.815448      14.815448      14.815448      0              0              0            
    147000   323.55788     -1188.6101      239.5087      -949.10137     -1463.1588      14.968047      14.968047      14.968047      0              0              0            
    148000   292.99771     -1196.3619      216.88701     -979.47492      380.72137      15.034257      15.034257      15.034257      0              0              0            
    149000   294.08549     -1204.8475      217.69223     -987.15525      518.30578      14.849352      14.849352      14.849352      0              0              0            
    150000   301.52306     -1198.4546      223.19777     -975.25684      538.26142      14.939382      14.939382      14.939382      0              0              0            
    151000   289.19435     -1216.4383      214.07163     -1002.3667     -1624.345       15.035043      15.035043      15.035043      0              0              0            
    152000   290.45982     -1219.8179      215.00838     -1004.8096     -298.92689      14.779658      14.779658      14.779658      0              0              0            
    153000   280.31921     -1225.6506      207.50195     -1018.1487     -625.86679      15.163348      15.163348      15.163348      0              0              0            
    154000   307.12092     -1200.8391      227.3415      -973.49763     -1398.1408      15.006141      15.006141      15.006141      0              0              0            
    155000   301.88773     -1178.9825      223.46771     -955.51482     -2651.0344      15.140176      15.140176      15.140176      0              0              0            
    156000   284.82474     -1166.3243      210.8371      -955.48721     -1046.1297      15.232231      15.232231      15.232231      0              0              0            
    157000   303.7188      -1176.3518      224.82313     -951.52865      436.56109      15.258959      15.258959      15.258959      0              0              0            
    158000   272.42767     -1222.9751      201.66036     -1021.3148      2017.5976      14.932881      14.932881      14.932881      0              0              0            
    159000   292.98485     -1207.2004      216.87749     -990.32288      767.01851      15.056564      15.056564      15.056564      0              0              0            
    160000   291.5033      -1247.818       215.7808      -1032.0372     -538.33819      14.957676      14.957676      14.957676      0              0              0            
    161000   323.98094     -1198.1065      239.82187     -958.28466     -287.34832      14.996058      14.996058      14.996058      0              0              0            
    162000   319.05903     -1185.1277      236.1785      -948.94925      587.23655      15.190752      15.190752      15.190752      0              0              0            
    163000   315.70103     -1198.6295      233.6928      -964.93673      400.1935       15.094861      15.094861      15.094861      0              0              0            
    164000   305.30478     -1196.8383      225.99713     -970.84121     -2328.6042      15.101427      15.101427      15.101427      0              0              0            
    165000   306.81296     -1204.2779      227.11354     -977.16434      851.5125       15.11497       15.11497       15.11497       0              0              0            
    166000   282.49963     -1200.7093      209.11597     -991.59328      1032.7561      15.04273       15.04273       15.04273       0              0              0            
    167000   313.77688     -1218.6195      232.26847     -986.35105      328.86781      14.976141      14.976141      14.976141      0              0              0            
    168000   298.06033     -1188.9049      220.63454     -968.27038      1315.2752      14.757757      14.757757      14.757757      0              0              0            
    169000   267.97289     -1188.5686      198.36278     -990.20584     -1411.4831      15.249062      15.249062      15.249062      0              0              0            
    170000   318.68878     -1233.7185      235.90443     -997.81408      207.1801       14.733825      14.733825      14.733825      0              0              0            
    171000   296.67758     -1189.7128      219.61098     -970.10185     -318.17443      14.940416      14.940416      14.940416      0              0              0            
    172000   275.27589     -1173.873       203.76871     -970.10426     -206.21183      14.820968      14.820968      14.820968      0              0              0            
    173000   285.07107     -1213.3345      211.01944     -1002.315       1998.359       14.960908      14.960908      14.960908      0              0              0            
    174000   310.38328     -1245.7415      229.75641     -1015.9851      29.948249      14.831366      14.831366      14.831366      0              0              0            
    175000   286.08608     -1163.239       211.77078     -951.46817      152.33291      15.003851      15.003851      15.003851      0              0              0            
    176000   298.90222     -1197.9314      221.25773     -976.67365     -911.20002      15.078856      15.078856      15.078856      0              0              0            
    177000   317.36387     -1210.2567      234.92368     -975.33299     -714.81726      15.142609      15.142609      15.142609      0              0              0            
    178000   290.90956     -1195.9542      215.34129     -980.61287     -1215.7356      15.16994       15.16994       15.16994       0              0              0            
    179000   308.38415     -1200.6583      228.27658     -972.38169     -1371.0878      15.051836      15.051836      15.051836      0              0              0            
    180000   267.38674     -1193.2547      197.92889     -995.32578      147.23667      15.018885      15.018885      15.018885      0              0              0            
    181000   288.72324     -1215.261       213.7229      -1001.5381     -1404.6012      14.991995      14.991995      14.991995      0              0              0            
    182000   308.548       -1173.2719      228.39787     -944.87405     -994.62018      15.513724      15.513724      15.513724      0              0              0            
    183000   278.59806     -1199.1852      206.22789     -992.9573      -131.70259      15.123881      15.123881      15.123881      0              0              0            
    184000   275.27031     -1194.827       203.76458     -991.06243      952.72312      14.945017      14.945017      14.945017      0              0              0            
    185000   320.03738     -1218.7336      236.90271     -981.8309      -1564.5965      14.973624      14.973624      14.973624      0              0              0            
    186000   276.23894     -1220.6238      204.48159     -1016.1422      403.40972      14.95115       14.95115       14.95115       0              0              0            
    187000   300.87705     -1179.0725      222.71957     -956.35291     -131.74427      15.100552      15.100552      15.100552      0              0              0            
    188000   306.54864     -1185.5833      226.91788     -958.66546     -1428.5917      15.177337      15.177337      15.177337      0              0              0            
    189000   296.48645     -1215.9974      219.4695      -996.52789      1359.1255      14.908724      14.908724      14.908724      0              0              0            
    190000   290.00133     -1185.7718      214.66899     -971.10281     -1228.5283      15.115835      15.115835      15.115835      0              0              0            
    191000   309.55705     -1172.1078      229.1448      -942.96297     -1652.9689      15.237641      15.237641      15.237641      0              0              0            
    192000   332.75845     -1223.7764      246.31928     -977.45708     -233.33781      14.966194      14.966194      14.966194      0              0              0            
    193000   307.72112     -1176.3845      227.78579     -948.59867      430.09195      15.08957       15.08957       15.08957       0              0              0            
    194000   303.2508      -1184.4         224.4767      -959.92333      561.42343      15.042723      15.042723      15.042723      0              0              0            
    195000   280.37601     -1185.4139      207.54399     -977.86992     -904.15485      15.005918      15.005918      15.005918      0              0              0            
    196000   307.42186     -1191.9077      227.56427     -964.3434      -286.34539      14.92264       14.92264       14.92264       0              0              0            
    197000   294.82078     -1189.7237      218.23651     -971.48722     -2164.7021      14.781219      14.781219      14.781219      0              0              0            
    198000   273.49535     -1180.7858      202.45069     -978.33513     -236.16571      15.158109      15.158109      15.158109      0              0              0            
    199000   299.3646      -1196.6364      221.6         -975.03639     -2570.4772      14.9828        14.9828        14.9828        0              0              0            
    200000   286.53644     -1208.5275      212.10416     -996.42332      1879.6387      14.872961      14.872961      14.872961      0              0              0            
    201000   278.29442     -1214.9288      206.00313     -1008.9256      1031.8073      14.755398      14.755398      14.755398      0              0              0            
    202000   323.50204     -1201.0448      239.46737     -961.57741      442.72574      14.790874      14.790874      14.790874      0              0              0            
    203000   272.63909     -1198.3295      201.81686     -996.51262     -2302.876       15.33087       15.33087       15.33087       0              0              0            
    204000   288.74452     -1199.296       213.73866     -985.55738     -321.06614      15.086227      15.086227      15.086227      0              0              0            
    205000   272.07377     -1226.0019      201.39839     -1024.6035     -223.34982      15.079903      15.079903      15.079903      0              0              0            
    206000   335.21504     -1190.5724      248.13773     -942.43468      1039.6309      14.86753       14.86753       14.86753       0              0              0            
    207000   310.51047     -1192.2805      229.85056     -962.42997      432.47965      14.863689      14.863689      14.863689      0              0              0            
    208000   269.30226     -1211.169       199.34682     -1011.8222     -661.78025      15.014274      15.014274      15.014274      0              0              0            
    209000   295.85814     -1200.9735      219.0044      -981.96908     -595.24633      14.928693      14.928693      14.928693      0              0              0            
    210000   308.29775     -1175.3936      228.21263     -947.181        1229.022       15.239539      15.239539      15.239539      0              0              0            
    211000   307.21283     -1230.3308      227.40953     -1002.9212     -85.541925      15.19138       15.19138       15.19138       0              0              0            
    212000   312.16513     -1176.2147      231.0754      -945.13929      185.69823      15.234857      15.234857      15.234857      0              0              0            
    213000   339.6059      -1203.1304      251.388       -951.74239     -1647.9309      14.966268      14.966268      14.966268      0              0              0            
    214000   306.74406     -1181.9986      227.06254     -954.93602     -56.769307      15.091069      15.091069      15.091069      0              0              0            
    215000   304.94074     -1208.4273      225.72766     -982.69959     -885.86155      14.968897      14.968897      14.968897      0              0              0            
    216000   310.38856     -1215.6554      229.76032     -985.89509      1551.7154      14.812011      14.812011      14.812011      0              0              0            
    217000   300.91601     -1209.4063      222.74841     -986.65793     -801.15377      15.141011      15.141011      15.141011      0              0              0            
    218000   299.14858     -1218.5492      221.4401      -997.10909     -408.90342      14.923564      14.923564      14.923564      0              0              0            
    219000   269.63927     -1191.6628      199.59629     -992.06655      361.24072      14.801346      14.801346      14.801346      0              0              0            
    220000   307.79818     -1195.5918      227.84283     -967.74892     -166.14369      14.831789      14.831789      14.831789      0              0              0            
    221000   327.67706     -1171.5278      242.55787     -928.96992      1884.1351      14.791394      14.791394      14.791394      0              0              0            
    222000   310.20217     -1209.9254      229.62235     -980.30304     -1444.8996      15.111386      15.111386      15.111386      0              0              0            
    223000   332.5358      -1171.5621      246.15447     -925.40763      292.75846      14.986279      14.986279      14.986279      0              0              0            
    224000   294.59232     -1214.7885      218.0674      -996.72114      1255.3158      14.990906      14.990906      14.990906      0              0              0            
    225000   300.54795     -1187.8139      222.47596     -965.33796     -966.19723      15.068117      15.068117      15.068117      0              0              0            
    226000   293.73074     -1192.4555      217.42963     -975.02589      772.30273      15.042153      15.042153      15.042153      0              0              0            
    227000   290.65939     -1187.9374      215.15611     -972.78129     -43.258284      15.209981      15.209981      15.209981      0              0              0            
    228000   300.38539     -1213.4191      222.35563     -991.06352     -644.90125      15.126251      15.126251      15.126251      0              0              0            
    229000   337.8055      -1203.7646      250.05529     -953.70934     -26.862326      15.011573      15.011573      15.011573      0              0              0            
    230000   298.67091     -1203.1553      221.08651     -982.06876      115.67149      15.008986      15.008986      15.008986      0              0              0            
    231000   280.19538     -1203.169       207.41028     -995.75875     -1080.8866      15.099534      15.099534      15.099534      0              0              0            
    232000   327.25532     -1235.56        242.24567     -993.31429      224.74096      14.983573      14.983573      14.983573      0              0              0            
    233000   311.07885     -1200.4859      230.27129     -970.21459      502.04125      15.128414      15.128414      15.128414      0              0              0            
    234000   293.80825     -1178.468       217.487       -960.98097      465.20122      15.345295      15.345295      15.345295      0              0              0            
    235000   311.16006     -1219.6686      230.33141     -989.33715      1847.0116      14.91838       14.91838       14.91838       0              0              0            
    236000   299.71851     -1208.4346      221.86198     -986.5726      -241.41434      15.248879      15.248879      15.248879      0              0              0            
    237000   291.62544     -1195.3746      215.87121     -979.50337      807.68807      15.266205      15.266205      15.266205      0              0              0            
    238000   324.05741     -1179.423       239.87848     -939.54451     -1266.4529      15.291471      15.291471      15.291471      0              0              0            
    239000   298.81943     -1193.8615      221.19645     -972.66503      493.5832       14.896738      14.896738      14.896738      0              0              0            
    240000   312.65655     -1211.5725      231.43916     -980.13338     -1507.3471      14.949829      14.949829      14.949829      0              0              0            
    241000   282.46792     -1195.8434      209.0925      -986.75087      589.88072      14.943052      14.943052      14.943052      0              0              0            
    242000   279.37752     -1188.369       206.80488     -981.56411      1287.6393      14.836961      14.836961      14.836961      0              0              0            
    243000   308.29671     -1207.576       228.21186     -979.36411      534.46154      14.891639      14.891639      14.891639      0              0              0            
    244000   283.56255     -1204.5841      209.90278     -994.68131     -541.92318      15.212614      15.212614      15.212614      0              0              0            
    245000   322.19334     -1218.1066      238.49863     -979.60802      3396.9241      14.861258      14.861258      14.861258      0              0              0            
    246000   313.87949     -1204.3146      232.34443     -971.97015      575.02443      15.095095      15.095095      15.095095      0              0              0            
    247000   297.16691     -1234.5575      219.9732      -1014.5843      452.09763      14.84157       14.84157       14.84157       0              0              0            
    248000   290.08175     -1233.2527      214.72852     -1018.5242     -552.05237      14.806819      14.806819      14.806819      0              0              0            
    249000   285.38151     -1166.7086      211.24923     -955.45936      335.01413      15.181164      15.181164      15.181164      0              0              0            
    250000   270.46797     -1178.7129      200.20972     -978.50317     -2908.6808      14.932785      14.932785      14.932785      0              0              0            
    251000   317.02387     -1215.1351      234.67201     -980.46308     -665.59431      14.769542      14.769542      14.769542      0              0              0            
    252000   304.49834     -1219.9115      225.40018     -994.51136      2343.2036      14.999368      14.999368      14.999368      0              0              0            
    253000   301.33855     -1227.7235      223.06119     -1004.6623      656.50125      14.908566      14.908566      14.908566      0              0              0            
    254000   306.86309     -1202.9839      227.15065     -975.83327     -836.50492      14.873563      14.873563      14.873563      0              0              0            
    255000   292.8201      -1201.2166      216.75554     -984.46103      92.529682      14.887318      14.887318      14.887318      0              0              0            
    256000   295.58209     -1197.3903      218.80006     -978.59021     -1655.2821      15.048624      15.048624      15.048624      0              0              0            
    257000   311.21119     -1195.1145      230.36926     -964.74521     -30.126743      15.082357      15.082357      15.082357      0              0              0            
    258000   289.20846     -1204.228       214.08208     -990.14596      1801.8072      14.78079       14.78079       14.78079       0              0              0            
    259000   292.63392     -1211.2383      216.61772     -994.62055      280.43971      14.877677      14.877677      14.877677      0              0              0            
    260000   278.5657      -1221.8009      206.20394     -1015.5969      168.84451      14.938802      14.938802      14.938802      0              0              0            
    261000   297.01242     -1203.6856      219.85884     -983.8268      -1161.0078      15.040502      15.040502      15.040502      0              0              0            
    262000   283.15487     -1208.3462      209.60101     -998.74516     -642.96084      15.13455       15.13455       15.13455       0              0              0            
    263000   290.55768     -1201.4482      215.08082     -986.36734     -1665.8657      15.004983      15.004983      15.004983      0              0              0            
    264000   329.17276     -1198.6164      243.66503     -954.95132      1278.0422      14.924048      14.924048      14.924048      0              0              0            
    265000   288.8932      -1212.0613      213.84871     -998.21257     -293.37026      14.91816       14.91816       14.91816       0              0              0            
    266000   283.19662     -1219.4188      209.63191     -1009.7869     -708.29752      14.75041       14.75041       14.75041       0              0              0            
    267000   292.54396     -1190.5619      216.55113     -974.01073     -961.02076      15.240375      15.240375      15.240375      0              0              0            
    268000   308.51572     -1205.2016      228.37398     -976.82763      690.01167      15.020161      15.020161      15.020161      0              0              0            
    269000   319.71809     -1238.0316      236.66636     -1001.3652     -1451.1973      14.826393      14.826393      14.826393      0              0              0            
    270000   302.94513     -1190.0231      224.25044     -965.77264     -1011.4515      14.978066      14.978066      14.978066      0              0              0            
    271000   295.55595     -1155.6582      218.78071     -936.87751     -1437.6343      15.279624      15.279624      15.279624      0              0              0            
    272000   304.73688     -1185.4211      225.57675     -959.84437     -773.61047      14.983389      14.983389      14.983389      0              0              0            
    273000   304.0502      -1213.252       225.06845     -988.18352      967.78871      14.964008      14.964008      14.964008      0              0              0            
    274000   341.02203     -1194.4357      252.43627     -941.99945     -110.64823      15.051981      15.051981      15.051981      0              0              0            
    275000   286.29686     -1206.1198      211.92681     -994.19303      719.38616      14.972583      14.972583      14.972583      0              0              0            
    276000   307.81859     -1212.8458      227.85794     -984.98785     -779.8685       15.213049      15.213049      15.213049      0              0              0            
    277000   314.16976     -1211.1595      232.55929     -978.60025      757.99401      15.050601      15.050601      15.050601      0              0              0            
    278000   287.87934     -1172.7302      213.09822     -959.63198     -1922.7839      15.10299       15.10299       15.10299       0              0              0            
    279000   283.94677     -1208.6715      210.1872      -998.48433     -1674.66        15.165812      15.165812      15.165812      0              0              0            
    280000   276.96829     -1188.7094      205.02148     -983.68791      3460.1036      14.610738      14.610738      14.610738      0              0              0            
    281000   312.87567     -1200.0253      231.60136     -968.42393     -1224.7579      15.210644      15.210644      15.210644      0              0              0            
    282000   300.56749     -1167.1028      222.49043     -944.6124      -1361.5435      15.296665      15.296665      15.296665      0              0              0            
    283000   308.94325     -1221.1542      228.69045     -992.46374     -1317.2177      15.066752      15.066752      15.066752      0              0              0            
    284000   300.10309     -1189.5854      222.14666     -967.43872      425.74895      15.218764      15.218764      15.218764      0              0              0            
    285000   322.79734     -1197.3373      238.94572     -958.39153      1599.07        14.865206      14.865206      14.865206      0              0              0            
    286000   284.16827     -1210.9976      210.35116     -1000.6464     -376.08759      14.935414      14.935414      14.935414      0              0              0            
    287000   291.70579     -1206.6898      215.93069     -990.75914     -222.10481      15.121949      15.121949      15.121949      0              0              0            
    288000   296.70763     -1180.488       219.63323     -960.85473      387.14334      14.984264      14.984264      14.984264      0              0              0            
    289000   317.63032     -1201.9194      235.12092     -966.79851      1277.623       14.934125      14.934125      14.934125      0              0              0            
    290000   309.605       -1221.08        229.1803      -991.89968     -10.813301      14.848592      14.848592      14.848592      0              0              0            
    291000   295.18791     -1207.1595      218.50828     -988.65124      832.10764      15.001855      15.001855      15.001855      0              0              0            
    292000   291.87759     -1186.5363      216.05786     -970.47843      972.6185       14.96108       14.96108       14.96108       0              0              0            
    293000   309.88025     -1199.1189      229.38405     -969.73484     -275.1575       14.856933      14.856933      14.856933      0              0              0            
    294000   319.38911     -1215.8721      236.42284     -979.44922     -1065.4298      15.012351      15.012351      15.012351      0              0              0            
    295000   318.34442     -1175.3012      235.64952     -939.65173      892.62579      15.031857      15.031857      15.031857      0              0              0            
    296000   299.6581      -1200.3271      221.81726     -978.50982      189.34478      15.157879      15.157879      15.157879      0              0              0            
    297000   308.5321      -1184.9915      228.3861      -956.60538     -1649.6703      15.415199      15.415199      15.415199      0              0              0            
    298000   304.79035     -1193.3746      225.61633     -967.75831      621.45075      15.056756      15.056756      15.056756      0              0              0            
    299000   319.2943      -1200.2502      236.35266     -963.89751     -979.64369      14.943266      14.943266      14.943266      0              0              0            
    300000   330.56494     -1185.516       244.69557     -940.82045     -822.10925      15.084095      15.084095      15.084095      0              0              0            
    301000   304.42425     -1155.9081      225.34533     -930.56277      431.50961      15.081363      15.081363      15.081363      0              0              0            
    302000   287.04129     -1187.056       212.47786     -974.57813      396.25762      15.507718      15.507718      15.507718      0              0              0            
    303000   287.56275     -1205.9889      212.86387     -993.12508      798.08585      14.638884      14.638884      14.638884      0              0              0            
    304000   288.13474     -1198.0133      213.28727     -984.72606      897.68654      14.878643      14.878643      14.878643      0              0              0            
    305000   309.61419     -1239.5855      229.18711     -1010.3984     -1335.5916      14.905716      14.905716      14.905716      0              0              0            
    306000   281.10325     -1211.484       208.08232     -1003.4016     -168.76504      15.006358      15.006358      15.006358      0              0              0            
    307000   300.28608     -1205.2995      222.28211     -983.01742      1563.7117      14.881293      14.881293      14.881293      0              0              0            
    308000   285.30628     -1183.5188      211.19355     -972.32524     -567.82909      14.900808      14.900808      14.900808      0              0              0            
    309000   334.75976     -1234.0405      247.80072     -986.23976      2336.9046      14.905502      14.905502      14.905502      0              0              0            
    310000   305.25206     -1193.3822      225.95811     -967.42405     -366.71693      14.629697      14.629697      14.629697      0              0              0            
    311000   309.55243     -1237.9767      229.14138     -1008.8353     -1941.5647      15.08115       15.08115       15.08115       0              0              0            
    312000   322.5535      -1193.9908      238.76523     -955.22561     -226.81706      15.123593      15.123593      15.123593      0              0              0            
    313000   294.17617     -1191.4416      217.75935     -973.68227      858.46619      14.923891      14.923891      14.923891      0              0              0            
    314000   314.00968     -1205.8063      232.4408      -973.36549     -1454.4128      15.058907      15.058907      15.058907      0              0              0            
    315000   308.20471     -1206.0592      228.14376     -977.91546     -2161.01        15.004241      15.004241      15.004241      0              0              0            
    316000   275.19968     -1203.2993      203.71229     -999.58697      1322.7758      14.731853      14.731853      14.731853      0              0              0            
    317000   310.78271     -1231.4662      230.05208     -1001.4141      572.96447      14.927473      14.927473      14.927473      0              0              0            
    318000   328.25583     -1211.1259      242.98629     -968.13959      1404.3108      15.08323       15.08323       15.08323       0              0              0            
    319000   302.14432     -1214.8151      223.65765     -991.15743      471.18535      15.083743      15.083743      15.083743      0              0              0            
    320000   286.37828     -1194.6554      211.98708     -982.66836     -607.3922       15.157877      15.157877      15.157877      0              0              0            
    321000   309.57032     -1187.9781      229.15463     -958.82348      119.54821      14.816681      14.816681      14.816681      0              0              0            
    322000   299.92553     -1176.7009      222.01523     -954.68571     -131.47884      15.023083      15.023083      15.023083      0              0              0            
    323000   291.14735     -1211.3436      215.51731     -995.82631      45.578492      14.851522      14.851522      14.851522      0              0              0            
    324000   299.95751     -1192.1921      222.0389      -970.15317      1490.6724      15.04349       15.04349       15.04349       0              0              0            
    325000   316.82957     -1182.5035      234.52818     -947.97532     -7.3168762      15.084732      15.084732      15.084732      0              0              0            
    326000   293.41456     -1207.9006      217.19558     -990.70506     -1384.774       15.164111      15.164111      15.164111      0              0              0            
    327000   296.45757     -1202.3495      219.44812     -982.90134     -28.24357       15.169425      15.169425      15.169425      0              0              0            
    328000   322.14186     -1194.575       238.46051     -956.11446     -31.710912      15.082152      15.082152      15.082152      0              0              0            
    329000   289.68989     -1206.7841      214.43845     -992.34567      968.09485      14.851915      14.851915      14.851915      0              0              0            
    330000   327.06562     -1224.0328      242.10526     -981.9275       2844.1811      15.004229      15.004229      15.004229      0              0              0            
    331000   321.57331     -1231.0821      238.03966     -993.04242     -275.05155      14.830332      14.830332      14.830332      0              0              0            
    332000   333.65477     -1205.2086      246.98277     -958.22579      536.63076      14.829975      14.829975      14.829975      0              0              0            
    333000   282.95901     -1217.3522      209.45602     -1007.8962      680.60386      14.825089      14.825089      14.825089      0              0              0            
    334000   295.44476     -1216.8218      218.6984      -998.12339     -1520.4544      14.932651      14.932651      14.932651      0              0              0            
    335000   276.94833     -1206.3777      205.00671     -1001.371      -1734.1633      14.842776      14.842776      14.842776      0              0              0            
    336000   313.77474     -1207.7185      232.26688     -975.45163      515.54682      14.837493      14.837493      14.837493      0              0              0            
    337000   309.80732     -1174.7322      229.33007     -945.40218     -1205.2176      15.143871      15.143871      15.143871      0              0              0            
    338000   289.83779     -1215.1877      214.54793     -1000.6397     -224.09456      15.097258      15.097258      15.097258      0              0              0            
    339000   337.82433     -1195.3469      250.06922     -945.27771      2354.645       14.906932      14.906932      14.906932      0              0              0            
    340000   287.78223     -1208.6827      213.02633     -995.6564      -493.80954      15.071033      15.071033      15.071033      0              0              0            
    341000   295.89989     -1223.2283      219.03531     -1004.193       2184.5504      14.980532      14.980532      14.980532      0              0              0            
    342000   308.5457      -1208.1642      228.39617     -979.76807      606.01756      14.998554      14.998554      14.998554      0              0              0            
    343000   298.91546     -1184.2181      221.26753     -962.9506       178.08363      15.02066       15.02066       15.02066       0              0              0            
    344000   308.67464     -1213.5698      228.49161     -985.07816     -2501.9084      14.924666      14.924666      14.924666      0              0              0            
    345000   298.81927     -1189.4593      221.19633     -968.26296     -660.85986      15.000783      15.000783      15.000783      0              0              0            
    346000   278.77322     -1210.3374      206.35755     -1003.9798      1355.9597      15.055488      15.055488      15.055488      0              0              0            
    347000   307.56277     -1176.3778      227.66857     -948.70925      1197.7272      15.027056      15.027056      15.027056      0              0              0            
    348000   291.45714     -1214.362       215.74663     -998.61536     -441.5208       14.974929      14.974929      14.974929      0              0              0            
    349000   318.09276     -1210.4828      235.46323     -975.0196       262.14626      14.938415      14.938415      14.938415      0              0              0            
    350000   295.91344     -1216.8962      219.04533     -997.85083      774.62817      14.999228      14.999228      14.999228      0              0              0            
    351000   298.6473      -1203.058       221.06903     -981.98898      152.91834      14.947817      14.947817      14.947817      0              0              0            
    352000   295.77843     -1223.8668      218.9454      -1004.9214      1791.2035      14.894205      14.894205      14.894205      0              0              0            
    353000   305.79548     -1178.1427      226.36036     -951.78235     -1063.9462      15.039281      15.039281      15.039281      0              0              0            
    354000   303.42281     -1188.9487      224.60403     -964.34465      1116.3818      14.788596      14.788596      14.788596      0              0              0            
    355000   312.73449     -1160.0851      231.49685     -928.58821     -2319.794       15.243794      15.243794      15.243794      0              0              0            
    356000   308.16596     -1199.9758      228.11507     -971.8607       197.15754      15.174702      15.174702      15.174702      0              0              0            
    357000   321.00092     -1173.3958      237.61595     -935.77984      1424.9159      15.085166      15.085166      15.085166      0              0              0            
    358000   316.3971      -1213.03        234.20805     -978.822       -1397.2006      15.322495      15.322495      15.322495      0              0              0            
    359000   302.31471     -1194.4915      223.78378     -970.70769      88.390596      15.219488      15.219488      15.219488      0              0              0            
    360000   282.87677     -1209.3472      209.39514     -999.95206      277.30448      15.072188      15.072188      15.072188      0              0              0            
    361000   308.80783     -1197.0265      228.59021     -968.43628     -750.01986      14.911671      14.911671      14.911671      0              0              0            
    362000   303.51833     -1203.0223      224.67474     -978.34753     -1080.4569      15.139995      15.139995      15.139995      0              0              0            
    363000   312.6886      -1215.7769      231.46289     -984.31399     -937.67114      15.054156      15.054156      15.054156      0              0              0            
    364000   286.93195     -1225.0707      212.39693     -1012.6737      1125.5806      14.67672       14.67672       14.67672       0              0              0            
    365000   289.53992     -1206.4697      214.32743     -992.14223      138.34505      15.091944      15.091944      15.091944      0              0              0            
    366000   311.39239     -1190.2145      230.50339     -959.71111      419.21431      14.997141      14.997141      14.997141      0              0              0            
    367000   317.55793     -1186.7201      235.06733     -951.65282      178.64858      15.032897      15.032897      15.032897      0              0              0            
    368000   281.43636     -1214.4036      208.3289      -1006.0747      259.07196      14.91287       14.91287       14.91287       0              0              0            
    369000   271.79707     -1208.5864      201.19356     -1007.3928      424.82259      14.832565      14.832565      14.832565      0              0              0            
    370000   315.20459     -1186.5558      233.32531     -953.23054     -817.35476      14.948888      14.948888      14.948888      0              0              0            
    371000   294.46741     -1174.1509      217.97493     -956.17593     -995.11251      15.029749      15.029749      15.029749      0              0              0            
    372000   304.27249     -1204.7807      225.23299     -979.54767      1025.8091      14.896206      14.896206      14.896206      0              0              0            
    373000   283.5409      -1191.5344      209.88675     -981.64767      386.90363      14.838297      14.838297      14.838297      0              0              0            
    374000   320.41324     -1208.0579      237.18094     -970.87692      369.27927      14.75169       14.75169       14.75169       0              0              0            
    375000   304.55063     -1191.1595      225.43888     -965.72058      14.88996       15.200991      15.200991      15.200991      0              0              0            
    376000   295.05099     -1203.8082      218.40692     -985.40133      1.9311505      15.223928      15.223928      15.223928      0              0              0            
    377000   295.19347     -1207.7536      218.51239     -989.24118      859.0847       15.172675      15.172675      15.172675      0              0              0            
    378000   295.9672      -1167.7006      219.08513     -948.61547     -501.73512      15.242659      15.242659      15.242659      0              0              0            
    379000   326.48926     -1193.7389      241.67861     -952.06033     -1029.8922      15.061738      15.061738      15.061738      0              0              0            
    380000   251.52685     -1216.5287      186.18885     -1030.3399     -1409.2544      15.05707       15.05707       15.05707       0              0              0            
    381000   281.15848     -1226.2343      208.1232      -1018.1111      2099.7595      14.840282      14.840282      14.840282      0              0              0            
    382000   303.34194     -1194.701       224.54417     -970.15682     -1556.2495      14.983412      14.983412      14.983412      0              0              0            
    383000   302.58789     -1183.8605      223.986       -959.87453     -381.37425      15.154258      15.154258      15.154258      0              0              0            
    384000   299.8958      -1190.9972      221.99321     -969.00398     -152.39715      14.977908      14.977908      14.977908      0              0              0            
    385000   331.51474     -1205.6391      245.39865     -960.24043      2146.4628      14.830126      14.830126      14.830126      0              0              0            
    386000   328.51389     -1184.2836      243.17731     -941.10629      550.25718      14.889119      14.889119      14.889119      0              0              0            
    387000   297.6462      -1208.884       220.32799     -988.55606      1006.0133      14.97406       14.97406       14.97406       0              0              0            
    388000   308.64501     -1193.5616      228.46968     -965.09196     -559.6801       15.014625      15.014625      15.014625      0              0              0            
    389000   277.14791     -1254.2726      205.15445     -1049.1182      3089.7458      14.659253      14.659253      14.659253      0              0              0            
    390000   293.34564     -1172.5783      217.14456     -955.43372      685.25214      14.939785      14.939785      14.939785      0              0              0            
    391000   277.27061     -1218.2695      205.24527     -1013.0242     -852.15521      15.107445      15.107445      15.107445      0              0              0            
    392000   304.16994     -1207.2187      225.15708     -982.06167      1103.6312      15.153705      15.153705      15.153705      0              0              0            
    393000   316.77027     -1214.9575      234.48428     -980.47317     -2089.151       15.26834       15.26834       15.26834       0              0              0            
    394000   304.86857     -1222.9596      225.67423     -997.28539     -1768.3688      14.97885       14.97885       14.97885       0              0              0            
    395000   278.68676     -1242.4731      206.29356     -1036.1795      557.42897      14.816528      14.816528      14.816528      0              0              0            
    396000   278.01175     -1192.3103      205.79389     -986.51644      626.9219       14.918599      14.918599      14.918599      0              0              0            
    397000   292.99881     -1155.8423      216.88782     -938.95451      773.79385      14.985491      14.985491      14.985491      0              0              0            
    398000   293.89743     -1217.8625      217.55302     -1000.3095     -105.30443      14.883311      14.883311      14.883311      0              0              0            
    399000   291.77768     -1202.5008      215.98391     -986.51689     -1116.7169      15.159588      15.159588      15.159588      0              0              0            
    400000   294.48791     -1220.0865      217.99011     -1002.0963     -638.66563      14.943716      14.943716      14.943716      0              0              0            
    401000   319.2968      -1200.1218      236.35451     -963.76727     -1498.5516      15.004183      15.004183      15.004183      0              0              0            
    402000   317.4828      -1208.7852      235.01172     -973.77346     -115.59677      14.961086      14.961086      14.961086      0              0              0            
    403000   300.44404     -1181.197       222.39904     -958.79797     -250.69854      14.870516      14.870516      14.870516      0              0              0            
    404000   310.03618     -1202.3926      229.49947     -972.89309      462.66913      14.984441      14.984441      14.984441      0              0              0            
    405000   289.70429     -1180.2595      214.44911     -965.81034      2986.4573      14.789654      14.789654      14.789654      0              0              0            
    406000   303.08119     -1221.0006      224.35115     -996.64942     -275.24798      15.060409      15.060409      15.060409      0              0              0            
    407000   281.96349     -1223.6764      208.7191      -1014.9573      1485.6561      14.716297      14.716297      14.716297      0              0              0            
    408000   292.66429     -1197.9146      216.6402      -981.27443      377.01151      14.820031      14.820031      14.820031      0              0              0            
    409000   301.80586     -1194.4674      223.40711     -971.06029      2185.0119      14.824128      14.824128      14.824128      0              0              0            
    410000   275.76749     -1182.1891      204.13261     -978.05647     -509.3371       15.224377      15.224377      15.224377      0              0              0            
    411000   276.57046     -1215.2548      204.72699     -1010.5278      1817.0808      14.692682      14.692682      14.692682      0              0              0            
    412000   286.56893     -1189.7442      212.12821     -977.61601     -1507.7103      15.070019      15.070019      15.070019      0              0              0            
    413000   323.16274     -1207.3281      239.21621     -968.11191      682.77298      14.731155      14.731155      14.731155      0              0              0            
    414000   287.93461     -1191.0251      213.13913     -977.88594     -1361.6598      15.055766      15.055766      15.055766      0              0              0            
    415000   326.37529     -1231.9168      241.59425     -990.32256      1721.4987      14.897417      14.897417      14.897417      0              0              0            
    416000   301.50533     -1237.9955      223.18465     -1014.8108     -1789.4685      14.996171      14.996171      14.996171      0              0              0            
    417000   307.26584     -1210.6398      227.44877     -983.19104      92.123815      14.737504      14.737504      14.737504      0              0              0            
    418000   289.96716     -1204.8247      214.6437      -990.18096      31.817317      14.787209      14.787209      14.787209      0              0              0            
    419000   317.40308     -1203.0261      234.95271     -968.07339      539.74425      14.830261      14.830261      14.830261      0              0              0            
    420000   316.98332     -1189.9734      234.64199     -955.33142     -486.64501      15.107673      15.107673      15.107673      0              0              0            
    421000   316.9639      -1183.503       234.62761     -948.87543      2025.1589      15.090036      15.090036      15.090036      0              0              0            
    422000   296.6381      -1197.2412      219.58175     -977.65946      965.45508      14.960155      14.960155      14.960155      0              0              0            
    423000   296.08121     -1239.2862      219.16952     -1020.1166     -141.27102      14.811492      14.811492      14.811492      0              0              0            
    424000   319.15315     -1209.137       236.24817     -972.88883     -1421.4622      15.090611      15.090611      15.090611      0              0              0            
    425000   281.70156     -1197.1796      208.52521     -988.65439      848.14238      14.829017      14.829017      14.829017      0              0              0            
    426000   294.12789     -1196.1839      217.72361     -978.46031      1401.6832      15.00714       15.00714       15.00714       0              0              0            
    427000   325.69146     -1203.5976      241.08805     -962.50952     -1673.423       15.042497      15.042497      15.042497      0              0              0            
    428000   328.01787     -1167.228       242.81015     -924.41788      652.97877      15.223107      15.223107      15.223107      0              0              0            
    429000   300.29318     -1213.6236      222.28737     -991.33625     -270.77908      14.970251      14.970251      14.970251      0              0              0            
    430000   301.28228     -1189.8625      223.01954     -966.84295     -543.05986      15.027569      15.027569      15.027569      0              0              0            
    431000   298.33416     -1212.5875      220.83723     -991.75024     -861.27984      14.896779      14.896779      14.896779      0              0              0            
    432000   301.09984     -1197.0343      222.88449     -974.14977     -871.082        14.956346      14.956346      14.956346      0              0              0            
    433000   303.2593      -1194.8961      224.48299     -970.41311      1048.7234      14.848688      14.848688      14.848688      0              0              0            
    434000   308.51479     -1201.9065      228.37329     -973.5332       3414.1826      14.597461      14.597461      14.597461      0              0              0            
    435000   280.27964     -1190.5974      207.47266     -983.12479      973.57808      14.895738      14.895738      14.895738      0              0              0            
    436000   282.1063      -1163.4761      208.82482     -954.65126      1688.7358      15.244312      15.244312      15.244312      0              0              0            
    437000   323.64579     -1184.1943      239.57378     -944.6205      -642.72829      15.19052       15.19052       15.19052       0              0              0            
    438000   319.55107     -1215.7453      236.54273     -979.2026       1814.1374      14.967093      14.967093      14.967093      0              0              0            
    439000   306.08346     -1219.8714      226.57353     -993.29785     -503.99597      14.77637       14.77637       14.77637       0              0              0            
    440000   290.08855     -1206.5342      214.73355     -991.80069      1166.9522      14.714198      14.714198      14.714198      0              0              0            
    441000   305.70542     -1209.9182      226.2937      -983.62452     -378.757        15.108829      15.108829      15.108829      0              0              0            
    442000   294.56114     -1200.349       218.04432     -982.30471      3040.6249      14.861784      14.861784      14.861784      0              0              0            
    443000   303.5594      -1201.0139      224.70514     -976.30871     -2668.879       15.166197      15.166197      15.166197      0              0              0            
    444000   296.68698     -1183.1549      219.61794     -963.53696     -1401.5841      15.264672      15.264672      15.264672      0              0              0            
    445000   288.53357     -1197.178       213.5825      -983.59547      1572.5867      15.017379      15.017379      15.017379      0              0              0            
    446000   344.50577     -1201.3083      255.01506     -946.29325     -617.95737      14.934444      14.934444      14.934444      0              0              0            
    447000   301.19678     -1186.5017      222.95625     -963.5455       2568.9877      14.83735       14.83735       14.83735       0              0              0            
    448000   290.97303     -1193.4373      215.38827     -978.04901     -1968.8327      15.468802      15.468802      15.468802      0              0              0            
    449000   318.32582     -1189.5412      235.63576     -953.90548     -484.4492       15.086913      15.086913      15.086913      0              0              0            
    450000   299.98702     -1180.2456      222.06074     -958.18485     -1373.0039      14.923354      14.923354      14.923354      0              0              0            
    451000   309.57325     -1215.4442      229.1568      -986.28742     -1139.5881      14.826301      14.826301      14.826301      0              0              0            
    452000   286.24456     -1227.5889      211.88809     -1015.7008     -607.10433      14.727189      14.727189      14.727189      0              0              0            
    453000   304.82115     -1228.903       225.63913     -1003.2638     -1282.5301      15.083449      15.083449      15.083449      0              0              0            
    454000   314.21664     -1197.6782      232.59399     -965.0842      -155.79648      15.184419      15.184419      15.184419      0              0              0            
    455000   289.11784     -1196.1502      214.015       -982.13524      479.8045       15.133552      15.133552      15.133552      0              0              0            
    456000   290.15437     -1216.987       214.78228     -1002.2047      1152.6271      14.646395      14.646395      14.646395      0              0              0            
    457000   286.49532     -1200.277       212.07372     -988.20332     -485.53237      15.24317       15.24317       15.24317       0              0              0            
    458000   305.07095     -1220.1092      225.82404     -994.28512      820.63766      14.972809      14.972809      14.972809      0              0              0            
    459000   307.35765     -1205.4197      227.51674     -977.90295     -2441.7483      15.338514      15.338514      15.338514      0              0              0            
    460000   321.90436     -1202.5724      238.28471     -964.28772      2200.1197      15.117121      15.117121      15.117121      0              0              0            
    461000   320.84157     -1174.9707      237.498       -937.47268     -218.66224      15.179355      15.179355      15.179355      0              0              0            
    462000   281.53782     -1173.5132      208.40401     -965.10921     -1890.3241      15.294346      15.294346      15.294346      0              0              0            
    463000   312.87941     -1223.0802      231.60413     -991.47605      29.889536      14.884949      14.884949      14.884949      0              0              0            
    464000   329.96121     -1211.1614      244.24867     -966.91273      926.81036      14.974218      14.974218      14.974218      0              0              0            
    465000   315.92576     -1205.9784      233.85914     -972.11926      114.69496      14.94474       14.94474       14.94474       0              0              0            
    466000   297.66609     -1213.0863      220.34271     -992.74364      1236.3832      15.165444      15.165444      15.165444      0              0              0            
    467000   287.91702     -1223.3615      213.12611     -1010.2354     -791.27381      15.296442      15.296442      15.296442      0              0              0            
    468000   289.39629     -1204.7237      214.22112     -990.50262      2340.8825      14.871816      14.871816      14.871816      0              0              0            
    469000   300.20342     -1161.8689      222.22092     -939.64799     -1283.9347      15.114333      15.114333      15.114333      0              0              0            
    470000   305.90288     -1227.1036      226.43986     -1000.6637      193.75406      14.822217      14.822217      14.822217      0              0              0            
    471000   275.32814     -1190.423       203.80739     -986.6156      -791.83581      15.090344      15.090344      15.090344      0              0              0            
    472000   299.04954     -1162.1917      221.36678     -940.82495      528.66642      14.983065      14.983065      14.983065      0              0              0            
    473000   295.03312     -1221.06        218.39369     -1002.6663     -2474.0843      15.149368      15.149368      15.149368      0              0              0            
    474000   296.82944     -1257.508       219.72339     -1037.7846      465.82348      14.879531      14.879531      14.879531      0              0              0            
    475000   289.17457     -1176.5813      214.05699     -962.52431      600.00437      14.988823      14.988823      14.988823      0              0              0            
    476000   304.95217     -1209.965       225.73612     -984.22887      1021.9767      14.943784      14.943784      14.943784      0              0              0            
    477000   306.37949     -1199.6925      226.79267     -972.89983     -0.13456898     14.995003      14.995003      14.995003      0              0              0            
    478000   292.29046     -1206.1067      216.36348     -989.74318      1377.7883      15.187464      15.187464      15.187464      0              0              0            
    479000   283.07194     -1226.1473      209.53962     -1016.6077      1651.7157      14.862248      14.862248      14.862248      0              0              0            
    480000   313.1942      -1231.8718      231.83715     -1000.0347      855.17928      14.824512      14.824512      14.824512      0              0              0            
    481000   283.09522     -1223.0513      209.55684     -1013.4944      201.91157      14.864281      14.864281      14.864281      0              0              0            
    482000   278.51887     -1251.8293      206.16928     -1045.66       -1017.9697      14.819423      14.819423      14.819423      0              0              0            
    483000   285.62068     -1203.2011      211.42628     -991.77482      805.6547       14.954775      14.954775      14.954775      0              0              0            
    484000   284.73291     -1185.0607      210.76912     -974.29157      2645.6205      15.03129       15.03129       15.03129       0              0              0            
    485000   309.21319     -1191.9513      228.89027     -963.06106      207.7727       15.160306      15.160306      15.160306      0              0              0            
    486000   309.85709     -1219.3013      229.36691     -989.93443      1205.9867      14.778066      14.778066      14.778066      0              0              0            
    487000   322.285       -1221.6909      238.56648     -983.12442     -628.98855      15.189594      15.189594      15.189594      0              0              0            
    488000   304.88706     -1206.9082      225.68792     -981.22023     -1759.1602      15.308489      15.308489      15.308489      0              0              0            
    489000   312.22977     -1214.031       231.12325     -982.90776     -2548.7963      15.233904      15.233904      15.233904      0              0              0            
    490000   318.52354     -1193.1604      235.78211     -957.37826     -251.49511      14.996433      14.996433      14.996433      0              0              0            
    491000   310.70205     -1173.5651      229.99238     -943.57272     -547.20359      15.138324      15.138324      15.138324      0              0              0            
    492000   292.63514     -1205.9309      216.61862     -989.31232      322.62978      15.044355      15.044355      15.044355      0              0              0            
    493000   288.39718     -1198.8137      213.48154     -985.33216     -814.30902      15.243344      15.243344      15.243344      0              0              0            
    494000   299.31755     -1234.1978      221.56517     -1012.6326      925.94525      14.898994      14.898994      14.898994      0              0              0            
    495000   293.26083     -1245.0096      217.08179     -1027.9278      289.10494      14.891082      14.891082      14.891082      0              0              0            
    496000   289.3332      -1221.828       214.17442     -1007.6536      2950.4413      14.7756        14.7756        14.7756        0              0              0            
    497000   314.38785     -1204.6877      232.72073     -971.96697     -1349.2784      15.15225       15.15225       15.15225       0              0              0            
    498000   301.86955     -1172.9033      223.45426     -949.44902      284.22235      14.935027      14.935027      14.935027      0              0              0            
    499000   313.03749     -1209.5287      231.72115     -977.80754     -1449.4297      15.268456      15.268456      15.268456      0              0              0            
    500000   304.1519      -1208.8393      225.14373     -983.6956      -465.70112      14.987837      14.987837      14.987837      0              0              0            
    501000   311.50918     -1194.4422      230.58984     -963.85238      1864.9887      14.939676      14.939676      14.939676      0              0              0            
    502000   268.2562      -1226.2097      198.57249     -1027.6372      1120.3409      14.860957      14.860957      14.860957      0              0              0            
    503000   283.68872     -1195.9182      209.99617     -985.92199      641.10948      15.094504      15.094504      15.094504      0              0              0            
    504000   294.93841     -1195.2294      218.32358     -976.90578      165.58004      14.839602      14.839602      14.839602      0              0              0            
    505000   277.46448     -1190.2836      205.38878     -984.89483      423.4072       15.154258      15.154258      15.154258      0              0              0            
    506000   282.79127     -1205.3804      209.33185     -996.04851      213.98334      14.868414      14.868414      14.868414      0              0              0            
    507000   314.63751     -1184.8481      232.90553     -951.94258     -342.88762      15.159355      15.159355      15.159355      0              0              0            
    508000   292.38694     -1154.9025      216.4349      -938.46757     -6.0769266      15.054054      15.054054      15.054054      0              0              0            
    509000   301.87148     -1214.8312      223.45568     -991.37554     -235.73951      15.009323      15.009323      15.009323      0              0              0            
    510000   297.55828     -1192.4393      220.26291     -972.17641      0.15364932     14.926502      14.926502      14.926502      0              0              0            
    511000   310.90468     -1197.062       230.14237     -966.91962      802.80585      14.9908        14.9908        14.9908        0              0              0            
    512000   316.36128     -1173.8289      234.18153     -939.64737     -1579.6172      15.309582      15.309582      15.309582      0              0              0            
    513000   262.87248     -1176.5772      194.58728     -981.9899      -646.84422      15.167492      15.167492      15.167492      0              0              0            
    514000   306.88199     -1201.4935      227.16464     -974.32887      553.22553      14.980722      14.980722      14.980722      0              0              0            
    515000   285.50693     -1175.8218      211.34208     -964.47967     -2055.9539      15.066377      15.066377      15.066377      0              0              0            
    516000   295.55654     -1223.9816      218.78114     -1005.2005     -1486.8962      15.1199        15.1199        15.1199        0              0              0            
    517000   310.85467     -1182.9009      230.10535     -952.79554      1116.2882      14.929539      14.929539      14.929539      0              0              0            
    518000   287.8861      -1193.2873      213.10322     -980.18407     -2575.755       14.936881      14.936881      14.936881      0              0              0            
    519000   301.09864     -1207.8251      222.8836      -984.94147     -15.159806      14.994304      14.994304      14.994304      0              0              0            
    520000   322.9358      -1224.0524      239.04822     -985.00422      163.26242      15.013043      15.013043      15.013043      0              0              0            
    521000   338.34362     -1181.8715      250.45362     -931.41792     -23.390075      15.162673      15.162673      15.162673      0              0              0            
    522000   304.64705     -1200.5942      225.51026     -975.08396      1275.9638      14.768383      14.768383      14.768383      0              0              0            
    523000   293.6138      -1209.5622      217.34306     -992.21912     -290.0859       15.088533      15.088533      15.088533      0              0              0            
    524000   280.26859     -1194.0387      207.46448     -986.57424      55.196501      14.730091      14.730091      14.730091      0              0              0            
    525000   310.0827      -1211.3621      229.53391     -981.82821      382.46908      14.876331      14.876331      14.876331      0              0              0            
    526000   286.80924     -1187.0118      212.30609     -974.70569      539.84194      15.087702      15.087702      15.087702      0              0              0            
    527000   294.86065     -1225.5222      218.26603     -1007.2562      763.65921      14.942649      14.942649      14.942649      0              0              0            
    528000   306.21891     -1219.8311      226.6738      -993.15732      512.86718      15.089968      15.089968      15.089968      0              0              0            
    529000   314.40001     -1213.401       232.72973     -980.67126     -1195.5963      15.010945      15.010945      15.010945      0              0              0            
    530000   297.23595     -1190.0925      220.0243      -970.06818      2468.9424      14.952466      14.952466      14.952466      0              0              0            
    531000   306.73188     -1200.2727      227.05352     -973.21923      1027.0185      15.052945      15.052945      15.052945      0              0              0            
    532000   290.02942     -1192.3496      214.68978     -977.65985     -1701.632       15.102217      15.102217      15.102217      0              0              0            
    533000   320.79347     -1176.8042      237.46239     -939.34176      1178.1989      14.86617       14.86617       14.86617       0              0              0            
    534000   274.4813      -1175.5423      203.18053     -972.36174     -1374.9448      15.080452      15.080452      15.080452      0              0              0            
    535000   313.06966     -1185.3879      231.74496     -953.64295      231.01774      15.066381      15.066381      15.066381      0              0              0            
    536000   303.04339     -1207.8862      224.32317     -983.56307      1244.8697      14.843856      14.843856      14.843856      0              0              0            
    537000   344.88492     -1164.2365      255.29571     -908.94082      690.78939      15.379946      15.379946      15.379946      0              0              0            
    538000   318.28144     -1184.9598      235.6029      -949.35695     -1390.9808      15.182565      15.182565      15.182565      0              0              0            
    539000   313.66077     -1183.823       232.18252     -951.64049      3300.6647      14.949005      14.949005      14.949005      0              0              0            
    540000   296.31718     -1184.2396      219.3442      -964.89536     -1264.7717      15.225945      15.225945      15.225945      0              0              0            
    541000   314.9506      -1180.0868      233.1373      -946.94945      124.89603      14.894286      14.894286      14.894286      0              0              0            
    542000   292.26265     -1190.619       216.34289     -974.2761       215.90678      15.272316      15.272316      15.272316      0              0              0            
    543000   305.445       -1163.4434      226.10092     -937.34252     -1171.5133      15.078439      15.078439      15.078439      0              0              0            
    544000   298.81757     -1169.973       221.19508     -948.77792     -1765.7969      15.108528      15.108528      15.108528      0              0              0            
    545000   315.22208     -1192.4937      233.33826     -959.1554      -511.56791      15.045012      15.045012      15.045012      0              0              0            
    546000   249.75456     -1198.2425      184.87694     -1013.3656     -1510.9075      15.087442      15.087442      15.087442      0              0              0            
    547000   302.49235     -1171.7053      223.91527     -947.79007     -846.14044      15.148322      15.148322      15.148322      0              0              0            
    548000   297.15818     -1216.8711      219.96674     -996.90439     -691.23468      14.967574      14.967574      14.967574      0              0              0            
    549000   280.71773     -1203.4074      207.79695     -995.61042      331.05219      14.935093      14.935093      14.935093      0              0              0            
    550000   307.52193     -1186.6074      227.63834     -958.96903      1545.6348      14.986665      14.986665      14.986665      0              0              0            
    551000   306.72147     -1200.5756      227.04581     -973.52977     -239.23989      15.066058      15.066058      15.066058      0              0              0            
    552000   309.92896     -1160.2149      229.42011     -930.79475      355.30194      15.070211      15.070211      15.070211      0              0              0            
    553000   296.82265     -1199.4542      219.71836     -979.73582     -89.344492      14.775604      14.775604      14.775604      0              0              0            
    554000   324.28025     -1206.3         240.04343     -966.25653      850.55576      15.138933      15.138933      15.138933      0              0              0            
    555000   318.65383     -1189.0765      235.87856     -953.19792     -646.84028      15.216635      15.216635      15.216635      0              0              0            
    556000   306.88509     -1238.0086      227.16693     -1010.8416     -1383.4258      15.046827      15.046827      15.046827      0              0              0            
    557000   282.14869     -1167.0614      208.85619     -958.20519      1981.939       14.882598      14.882598      14.882598      0              0              0            
    558000   302.91968     -1184.047       224.2316      -959.81541     -983.983        15.122947      15.122947      15.122947      0              0              0            
    559000   291.89907     -1219.8859      216.07376     -1003.8121     -737.71516      15.136532      15.136532      15.136532      0              0              0            
    560000   296.1795      -1210.1781      219.24228     -990.93582     -933.16273      15.148731      15.148731      15.148731      0              0              0            
    561000   324.67265     -1193.8874      240.3339      -953.55348      84.462395      14.915555      14.915555      14.915555      0              0              0            
    562000   283.60906     -1204.408       209.93721     -994.47078      305.54581      14.960529      14.960529      14.960529      0              0              0            
    563000   317.46325     -1157.7056      234.99725     -922.70836      641.19094      14.899159      14.899159      14.899159      0              0              0            
    564000   294.45346     -1182.4333      217.96461     -964.46873     -476.28301      15.1486        15.1486        15.1486        0              0              0            
    565000   289.52794     -1208.3056      214.31857     -993.98699     -841.83074      14.867616      14.867616      14.867616      0              0              0            
    566000   294.40887     -1199.9416      217.9316      -982.00999      1011.0821      14.862896      14.862896      14.862896      0              0              0            
    567000   302.42339     -1225.8828      223.86423     -1002.0186     -616.19904      14.864157      14.864157      14.864157      0              0              0            
    568000   313.63201     -1218.0865      232.16123     -985.92529     -1871.5196      15.345124      15.345124      15.345124      0              0              0            
    569000   270.33942     -1160.7839      200.11457     -960.66932     -817.98507      15.476067      15.476067      15.476067      0              0              0            
    570000   303.09016     -1211.9537      224.35779     -987.59595     -1080.8541      15.098597      15.098597      15.098597      0              0              0            
    571000   305.9708      -1207.297       226.49014     -980.80688      1383.9631      14.990403      14.990403      14.990403      0              0              0            
    572000   309.59487     -1215.8848      229.1728      -986.71197     -63.224621      14.985029      14.985029      14.985029      0              0              0            
    573000   276.97322     -1182.9312      205.02513     -977.90611      1285.512       15.141486      15.141486      15.141486      0              0              0            
    574000   278.51974     -1188.2292      206.16992     -982.05931      1245.6463      15.014827      15.014827      15.014827      0              0              0            
    575000   274.81608     -1187.8805      203.42834     -984.45221      441.65379      14.969924      14.969924      14.969924      0              0              0            
    576000   277.68771     -1153.8816      205.55402     -948.32761     -265.42074      15.262934      15.262934      15.262934      0              0              0            
    577000   316.66907     -1247.7206      234.40937     -1013.3112      657.67123      14.785466      14.785466      14.785466      0              0              0            
    578000   280.9045      -1184.7189      207.9352      -976.78367     -1159.7909      15.174278      15.174278      15.174278      0              0              0            
    579000   291.29677     -1226.5358      215.62792     -1010.9079     -716.85535      14.764034      14.764034      14.764034      0              0              0            
    580000   315.75463     -1211.4625      233.73247     -977.73008      364.82559      14.944735      14.944735      14.944735      0              0              0            
    581000   306.12944     -1221.7872      226.60757     -995.17962      2744.2627      14.975984      14.975984      14.975984      0              0              0            
    582000   332.91433     -1205.276       246.43467     -958.84132      71.009871      15.027279      15.027279      15.027279      0              0              0            
    583000   306.21421     -1168.1228      226.67032     -941.45251     -1050.5209      15.206841      15.206841      15.206841      0              0              0            
    584000   307.52937     -1184.8892      227.64384     -957.24532     -310.36104      15.087335      15.087335      15.087335      0              0              0            
    585000   297.49109     -1154.9716      220.21317     -934.75842      2807.1107      15.060627      15.060627      15.060627      0              0              0            
    586000   281.40743     -1162.673       208.30749     -954.36551      334.01353      15.497597      15.497597      15.497597      0              0              0            
    587000   317.4065      -1181.9803      234.95524     -947.02505      370.33338      15.016717      15.016717      15.016717      0              0              0            
    588000   304.77215     -1184.8647      225.60286     -959.26182      2930.101       14.805833      14.805833      14.805833      0              0              0            
    589000   307.17986     -1198.5525      227.38513     -971.16732     -82.290752      15.107593      15.107593      15.107593      0              0              0            
    590000   310.27766     -1200.4121      229.67823     -970.73387     -198.79251      14.969384      14.969384      14.969384      0              0              0            
    591000   292.71784     -1210.0124      216.67984     -993.3326       288.03678      14.851877      14.851877      14.851877      0              0              0            
    592000   293.81227     -1191.0475      217.48998     -973.55754      419.7475       15.091255      15.091255      15.091255      0              0              0            
    593000   306.67045     -1201.647       227.00804     -974.639       -1627.5674      14.836645      14.836645      14.836645      0              0              0            
    594000   271.94043     -1206.9183      201.29969     -1005.6187      832.08508      14.938588      14.938588      14.938588      0              0              0            
    595000   304.07083     -1190.4624      225.08372     -965.37865      656.34607      15.1314        15.1314        15.1314        0              0              0            
    596000   299.08534     -1172.6738      221.39329     -951.28049     -372.16264      15.426487      15.426487      15.426487      0              0              0            
    597000   290.77954     -1211.9475      215.24505     -996.70241     -603.62858      14.988364      14.988364      14.988364      0              0              0            
    598000   326.25276     -1195.8355      241.50355     -954.33192     -708.48907      14.816867      14.816867      14.816867      0              0              0            
    599000   299.15568     -1206.414       221.44535     -984.96866      700.335        14.790336      14.790336      14.790336      0              0              0            
    600000   316.58475     -1214.7619      234.34695     -980.41493      1721.1413      14.765654      14.765654      14.765654      0              0              0            
    601000   297.41927     -1231.2767      220.16001     -1011.1167      24.197921      14.850263      14.850263      14.850263      0              0              0            
    602000   300.09507     -1226.2097      222.14072     -1004.069      -1223.1468      14.77729       14.77729       14.77729       0              0              0            
    603000   299.46872     -1191.2139      221.67707     -969.53684     -2522.0475      15.377064      15.377064      15.377064      0              0              0            
    604000   299.00662     -1213.8986      221.33502     -992.56361     -456.09296      15.051084      15.051084      15.051084      0              0              0            
    605000   277.1083      -1198.4667      205.12513     -993.34157     -744.60729      15.168579      15.168579      15.168579      0              0              0            
    606000   308.836       -1192.7269      228.61106     -964.11586      296.49675      14.96463       14.96463       14.96463       0              0              0            
    607000   317.74282     -1211.854       235.2042      -976.64981      1051.9984      14.800582      14.800582      14.800582      0              0              0            
    608000   316.73982     -1203.9102      234.46174     -969.44849     -2267.1367      15.204601      15.204601      15.204601      0              0              0            
    609000   287.43262     -1181.7422      212.76754     -968.97471     -1665.5027      15.17248       15.17248       15.17248       0              0              0            
    610000   267.18235     -1204.3069      197.77759     -1006.5293      1109.2019      14.876399      14.876399      14.876399      0              0              0            
    611000   284.99499     -1189.9944      210.96313     -979.0313      -1161.8494      15.450802      15.450802      15.450802      0              0              0            
    612000   292.82184     -1205.6945      216.75683     -988.93764     -951.37886      15.077754      15.077754      15.077754      0              0              0            
    613000   311.32701     -1207.429       230.45499     -976.97402     -990.40813      15.032211      15.032211      15.032211      0              0              0            
    614000   297.74476     -1194.0787      220.40094     -973.6778      -1696.6739      15.024212      15.024212      15.024212      0              0              0            
    615000   293.80395     -1177.8856      217.48382     -960.40178     -24.066635      15.059163      15.059163      15.059163      0              0              0            
    616000   291.91608     -1180.69        216.08635     -964.60365     -141.79315      15.010707      15.010707      15.010707      0              0              0            
    617000   284.53451     -1162.6854      210.62226     -952.06316      438.89075      15.290035      15.290035      15.290035      0              0              0            
    618000   287.02662     -1190.3504      212.46701     -977.88338     -1656.2273      15.470372      15.470372      15.470372      0              0              0            
    619000   343.65766     -1200.1817      254.38726     -945.79444     -785.41718      14.950715      14.950715      14.950715      0              0              0            
    620000   309.49519     -1185.7143      229.09902     -956.61531      1006.1783      14.668068      14.668068      14.668068      0              0              0            
    621000   331.69308     -1226.1998      245.53066     -980.66918      890.31498      14.922341      14.922341      14.922341      0              0              0            
    622000   331.19217     -1171.9873      245.15987     -926.82741     -982.37793      15.262411      15.262411      15.262411      0              0              0            
    623000   299.47262     -1190.7009      221.67997     -969.02091     -3029.8441      15.184851      15.184851      15.184851      0              0              0            
    624000   312.63252     -1223.9672      231.42138     -992.54583     -685.41635      14.886642      14.886642      14.886642      0              0              0            
    625000   312.38339     -1186.7181      231.23696     -955.48115     -234.99348      15.014712      15.014712      15.014712      0              0              0            
    626000   287.05115     -1198.4259      212.48516     -985.9407       194.51233      15.090174      15.090174      15.090174      0              0              0            
    627000   295.53214     -1226.3185      218.76309     -1007.5554     -1126.6721      14.945015      14.945015      14.945015      0              0              0            
    628000   284.67934     -1214.628       210.72946     -1003.8986      5801.3883      14.589101      14.589101      14.589101      0              0              0            
    629000   307.63566     -1229.8809      227.72253     -1002.1583     -705.46817      14.671778      14.671778      14.671778      0              0              0            
    630000   311.04417     -1205.3994      230.24562     -975.15379     -361.30618      14.957582      14.957582      14.957582      0              0              0            
    631000   317.16724     -1203.1408      234.77813     -968.36266     -1187.1785      15.300278      15.300278      15.300278      0              0              0            
    632000   286.52089     -1222.1453      212.09265     -1010.0527      2159.3815      14.884175      14.884175      14.884175      0              0              0            
    633000   289.44188     -1226.9132      214.25486     -1012.6584     -902.21742      14.771195      14.771195      14.771195      0              0              0            
    634000   319.6701      -1189.5884      236.63084     -952.95753     -1623.9764      14.933605      14.933605      14.933605      0              0              0            
    635000   277.19765     -1191.4214      205.19126     -986.2301       1199.0845      15.054103      15.054103      15.054103      0              0              0            
    636000   302.73006     -1205.211       224.09123     -981.11976      1306.8817      14.73552       14.73552       14.73552       0              0              0            
    637000   294.83742     -1195.5202      218.24883     -977.27134      374.09457      15.055045      15.055045      15.055045      0              0              0            
    638000   288.44851     -1210.3839      213.51954     -996.86432     -959.36662      15.102979      15.102979      15.102979      0              0              0            
    639000   301.79195     -1224.8756      223.39681     -1001.4788     -796.80073      15.075182      15.075182      15.075182      0              0              0            
    640000   296.06869     -1208.3242      219.16026     -989.16389     -208.73142      14.765663      14.765663      14.765663      0              0              0            
    641000   324.3921      -1214.0239      240.12623     -973.89771      552.33418      15.006547      15.006547      15.006547      0              0              0            
    642000   270.88505     -1191.3826      200.51846     -990.86412     -1732.8771      15.092573      15.092573      15.092573      0              0              0            
    643000   320.81131     -1203.9056      237.4756      -966.42997      1884.9418      14.825253      14.825253      14.825253      0              0              0            
    644000   307.24373     -1186.0457      227.43241     -958.6133      -359.32598      15.114727      15.114727      15.114727      0              0              0            
    645000   302.72062     -1210.5271      224.08425     -986.44289      1380.9045      14.984158      14.984158      14.984158      0              0              0            
    646000   284.95647     -1191.6651      210.93461     -980.73046      1728.6697      14.940061      14.940061      14.940061      0              0              0            
    647000   306.67609     -1203.3001      227.01222     -976.28784      1533.0661      14.709223      14.709223      14.709223      0              0              0            
    648000   307.45309     -1203.423       227.58738     -975.83567     -763.63923      14.852214      14.852214      14.852214      0              0              0            
    649000   315.15013     -1176.3446      233.285       -943.05961      573.68131      15.240774      15.240774      15.240774      0              0              0            
    650000   309.23996     -1185.9158      228.91009     -957.00567     -10.603976      14.919102      14.919102      14.919102      0              0              0            
    651000   292.7797      -1196.7125      216.72563     -979.98689     -1578.5771      14.953609      14.953609      14.953609      0              0              0            
    652000   323.73869     -1186.6033      239.64255     -946.96073      1235.9591      14.853688      14.853688      14.853688      0              0              0            
    653000   306.85414     -1180.269       227.14402     -953.12501     -1858.2158      15.100751      15.100751      15.100751      0              0              0            
    654000   288.85452     -1211.0112      213.82008     -997.19114      992.59115      14.882122      14.882122      14.882122      0              0              0            
    655000   302.66758     -1200.2184      224.04498     -976.17339     -1213.3046      15.008191      15.008191      15.008191      0              0              0            
    656000   289.31615     -1172.9229      214.16179     -958.76115      460.94739      15.061208      15.061208      15.061208      0              0              0            
    657000   298.40218     -1217.9463      220.88759     -997.05869     -2050.8699      14.846731      14.846731      14.846731      0              0              0            
    658000   279.25981     -1202.5749      206.71775     -995.85712      1423.5006      14.679624      14.679624      14.679624      0              0              0            
    659000   320.9917      -1207.2371      237.60913     -969.62795     -545.62224      14.971315      14.971315      14.971315      0              0              0            
    660000   292.67625     -1200.4425      216.64905     -983.79341     -82.647322      14.743762      14.743762      14.743762      0              0              0            
    661000   301.53453     -1186.0411      223.20626     -962.83488      2586.5315      14.885586      14.885586      14.885586      0              0              0            
    662000   318.38263     -1209.4605      235.6778      -973.78267      1906.4969      14.752376      14.752376      14.752376      0              0              0            
    663000   309.03789     -1179.9228      228.7605      -951.16225     -1393.8618      15.142769      15.142769      15.142769      0              0              0            
    664000   291.34448     -1217.5557      215.66323     -1001.8925      1280.7624      14.994041      14.994041      14.994041      0              0              0            
    665000   282.03034     -1201.42        208.76859     -992.65138     -1080.1067      15.073009      15.073009      15.073009      0              0              0            
    666000   291.24396     -1183.42        215.58883     -967.83122      169.7794       15.19009       15.19009       15.19009       0              0              0            
    667000   311.30111     -1201.8144      230.43582     -971.37854      1464.8955      15.033592      15.033592      15.033592      0              0              0            
    668000   305.8889      -1226.7529      226.42952     -1000.3234      933.75551      15.021363      15.021363      15.021363      0              0              0            
    669000   270.62853     -1191.5196      200.32857     -991.19106     -71.232095      14.795319      14.795319      14.795319      0              0              0            
    670000   306.80263     -1192.6007      227.10589     -965.49486      1750.5502      14.840981      14.840981      14.840981      0              0              0            
    671000   267.38097     -1158.7233      197.92462     -960.7987      -801.36737      15.252926      15.252926      15.252926      0              0              0            
    672000   303.9227      -1202.9525      224.97407     -977.97843     -480.43603      15.038329      15.038329      15.038329      0              0              0            
    673000   321.43229     -1190.9863      237.93527     -953.05105     -1912.0428      15.00821       15.00821       15.00821       0              0              0            
    674000   275.92141     -1185.0541      204.24654     -980.80751     -1225.5361      15.236714      15.236714      15.236714      0              0              0            
    675000   299.41775     -1192.3269      221.63935     -970.68755      172.72555      14.972045      14.972045      14.972045      0              0              0            
    676000   278.38855     -1227.9315      206.07281     -1021.8587      841.77408      14.943324      14.943324      14.943324      0              0              0            
    677000   314.19788     -1201.049       232.58011     -968.46891      2365.7693      14.98594       14.98594       14.98594       0              0              0            
    678000   291.02695     -1211.401       215.42819     -995.97279      364.27159      15.020474      15.020474      15.020474      0              0              0            
    679000   320.91555     -1229.0706      237.55276     -991.51785     -2140.705       15.032977      15.032977      15.032977      0              0              0            
    680000   336.94398     -1198.7721      249.41755     -949.35457      1680.0515      14.871666      14.871666      14.871666      0              0              0            
    681000   302.31966     -1202.7172      223.78744     -978.92978     -504.68379      15.0021        15.0021        15.0021        0              0              0            
    682000   318.48933     -1206.4097      235.75679     -970.65294     -698.22818      15.045679      15.045679      15.045679      0              0              0            
    683000   300.15729     -1198.0901      222.18678     -975.90337     -24.091944      15.001833      15.001833      15.001833      0              0              0            
    684000   307.72759     -1208.2931      227.79058     -980.50248      798.31033      14.883991      14.883991      14.883991      0              0              0            
    685000   306.0248      -1179.3221      226.53011     -952.79203     -1637.8797      15.209187      15.209187      15.209187      0              0              0            
    686000   309.33059     -1200.0998      228.97717     -971.12262     -1144.9129      14.936293      14.936293      14.936293      0              0              0            
    687000   315.35358     -1198.2326      233.4356      -964.797       -1581.244       15.166574      15.166574      15.166574      0              0              0            
    688000   308.08357     -1230.8395      228.05408     -1002.7854      142.77962      15.074385      15.074385      15.074385      0              0              0            
    689000   271.18893     -1210.8609      200.7434      -1010.1175      1375.8158      14.996118      14.996118      14.996118      0              0              0            
    690000   292.7464      -1227.8953      216.70098     -1011.1943     -489.86906      14.835643      14.835643      14.835643      0              0              0            
    691000   284.48355     -1192.699       210.58454     -982.11443      1150.4558      15.079967      15.079967      15.079967      0              0              0            
    692000   278.84228     -1197.4743      206.40867     -991.06563     -854.36041      14.966146      14.966146      14.966146      0              0              0            
    693000   306.80599     -1249.9698      227.10838     -1022.8614     -925.5276       15.013821      15.013821      15.013821      0              0              0            
    694000   281.26597     -1236.2733      208.20277     -1028.0705     -1596.2621      14.957073      14.957073      14.957073      0              0              0            
    695000   305.42838     -1207.9772      226.08862     -981.88862      170.28748      15.091059      15.091059      15.091059      0              0              0            
    696000   279.90625     -1191.9403      207.19626     -984.74405     -1673.8871      15.12455       15.12455       15.12455       0              0              0            
    697000   314.21961     -1213.2936      232.59619     -980.69737     -2061.2469      14.97334       14.97334       14.97334       0              0              0            
    698000   296.82362     -1183.6959      219.71908     -963.97679     -1222.5366      14.983631      14.983631      14.983631      0              0              0            
    699000   285.81687     -1188.6398      211.5715      -977.06827     -760.61065      14.751387      14.751387      14.751387      0              0              0            
    700000   287.43525     -1196.9074      212.76949     -984.13789     -1328.1754      15.088013      15.088013      15.088013      0              0              0            
    701000   303.88961     -1199.8099      224.94958     -974.86032      494.90726      14.955733      14.955733      14.955733      0              0              0            
    702000   313.45508     -1193.4435      232.03027     -961.41325      151.05939      14.971362      14.971362      14.971362      0              0              0            
    703000   316.24894     -1195.3794      234.09838     -961.281        1294.62        15.04359       15.04359       15.04359       0              0              0            
    704000   306.98578     -1217.6038      227.24146     -990.36233      999.73063      14.917502      14.917502      14.917502      0              0              0            
    705000   300.86177     -1193.2942      222.70826     -970.58597     -625.85771      14.872855      14.872855      14.872855      0              0              0            
    706000   315.3952      -1209.0508      233.4664      -975.58444     -1331.2455      15.146608      15.146608      15.146608      0              0              0            
    707000   294.18695     -1209.5247      217.76733     -991.75733     -145.48894      14.984876      14.984876      14.984876      0              0              0            
    708000   318.81421     -1189.009       235.99728     -953.01177      2311.4949      15.080497      15.080497      15.080497      0              0              0            
    709000   282.71409     -1205.5939      209.27472     -996.31921     -410.78275      15.263933      15.263933      15.263933      0              0              0            
    710000   310.35052     -1183.5495      229.73216     -953.81733     -716.02548      15.145624      15.145624      15.145624      0              0              0            
    711000   306.74385     -1206.3698      227.06238     -979.30743     -573.82133      14.966002      14.966002      14.966002      0              0              0            
    712000   278.98541     -1193.916       206.51462     -987.40141     -2343.3251      15.043617      15.043617      15.043617      0              0              0            
    713000   304.64247     -1202.9957      225.50687     -977.48886     -917.12337      15.123472      15.123472      15.123472      0              0              0            
    714000   305.56843     -1212.2354      226.1923      -986.04315     -717.36615      14.843974      14.843974      14.843974      0              0              0            
    715000   305.98677     -1210.3909      226.50197     -983.88892      58.892201      15.014007      15.014007      15.014007      0              0              0            
    716000   297.27289     -1216.9323      220.05165     -996.8807      -1109.8795      14.907803      14.907803      14.907803      0              0              0            
    717000   302.16481     -1187.7585      223.67281     -964.08564      1051.0157      14.855492      14.855492      14.855492      0              0              0            
    718000   306.19497     -1201.8007      226.65608     -975.1446       1476.932       14.85023       14.85023       14.85023       0              0              0            
    719000   297.95509     -1193.9382      220.55663     -973.38157      579.22298      15.186131      15.186131      15.186131      0              0              0            
    720000   311.2335      -1212.7479      230.38577     -982.36217      2423.2002      14.751729      14.751729      14.751729      0              0              0            
    721000   321.18571     -1192.6831      237.75274     -954.93032     -1993.7446      15.092711      15.092711      15.092711      0              0              0            
    722000   273.10124     -1195.5147      202.15896     -993.35574     -732.08231      14.880126      14.880126      14.880126      0              0              0            
    723000   274.02928     -1203.3445      202.84593     -1000.4985      1562.7611      14.959382      14.959382      14.959382      0              0              0            
    724000   298.52002     -1218.1133      220.97481     -997.13849      148.73069      15.02513       15.02513       15.02513       0              0              0            
    725000   296.99465     -1196.1612      219.84569     -976.31554     -364.4378       15.01982       15.01982       15.01982       0              0              0            
    726000   318.10981     -1233.6945      235.47585     -998.21863      1245.7437      14.923689      14.923689      14.923689      0              0              0            
    727000   284.49612     -1218.6246      210.59384     -1008.0308      1586.9918      14.839258      14.839258      14.839258      0              0              0            
    728000   316.2877      -1211.509       234.12706     -977.38191      217.21238      15.089583      15.089583      15.089583      0              0              0            
    729000   313.07514     -1215.0988      231.74902     -983.34983      660.98061      14.952757      14.952757      14.952757      0              0              0            
    730000   279.14673     -1160.9399      206.63404     -954.30584     -1093.1471      15.241296      15.241296      15.241296      0              0              0            
    731000   289.51009     -1198.9445      214.30536     -984.63919      351.80992      14.976123      14.976123      14.976123      0              0              0            
    732000   280.1145      -1193.4879      207.35042     -986.1375       1528.7184      15.365275      15.365275      15.365275      0              0              0            
    733000   312.01892     -1201.2452      230.96717     -970.27801     -233.18237      14.973849      14.973849      14.973849      0              0              0            
    734000   320.72572     -1206.5695      237.41224     -969.15724     -1247.6436      15.14509       15.14509       15.14509       0              0              0            
    735000   312.04445     -1190.6921      230.98606     -959.70604     -620.64949      15.203179      15.203179      15.203179      0              0              0            
    736000   300.45132     -1209.563       222.40443     -987.15862     -1150.2088      14.857863      14.857863      14.857863      0              0              0            
    737000   295.21221     -1224.207       218.52626     -1005.6808      1294.862       14.945155      14.945155      14.945155      0              0              0            
    738000   292.28247     -1206.7469      216.35756     -990.38931      1141.7446      14.918528      14.918528      14.918528      0              0              0            
    739000   298.30194     -1204.6477      220.81339     -983.83432      818.306        14.902466      14.902466      14.902466      0              0              0            
    740000   323.09707     -1171.9006      239.16759     -932.73301     -1126.4699      15.18194       15.18194       15.18194       0              0              0            
    741000   325.88047     -1163.6537      241.22797     -922.42574      75.628731      15.088574      15.088574      15.088574      0              0              0            
    742000   315.7486      -1232.4328      233.72801     -998.70478      347.79824      14.952472      14.952472      14.952472      0              0              0            
    743000   297.40686     -1212.8037      220.15082     -992.6529      -438.30564      14.758725      14.758725      14.758725      0              0              0            
    744000   307.27562     -1198.0196      227.45601     -970.56358     -552.09644      15.087811      15.087811      15.087811      0              0              0            
    745000   288.36301     -1202.4754      213.45625     -989.01912     -2537.8662      14.92364       14.92364       14.92364       0              0              0            
    746000   272.98093     -1163.1234      202.0699      -961.05353      1527.3838      15.159322      15.159322      15.159322      0              0              0            
    747000   333.33831     -1192.6097      246.74851     -945.86118     -556.85548      15.239805      15.239805      15.239805      0              0              0            
    748000   309.40944     -1204.9364      229.03554     -975.90086      275.09321      14.98337       14.98337       14.98337       0              0              0            
    749000   300.83741     -1220.1504      222.69023     -997.4602      -24.368824      14.891939      14.891939      14.891939      0              0              0            
    750000   275.97842     -1232.0076      204.28875     -1027.7189      224.50878      14.823993      14.823993      14.823993      0              0              0            
    751000   279.68869     -1211.6922      207.03522     -1004.657      -2562.778       15.112295      15.112295      15.112295      0              0              0            
    752000   258.93105     -1196.727       191.6697      -1005.0573      589.94819      14.906284      14.906284      14.906284      0              0              0            
    753000   271.32465     -1202.898       200.84387     -1002.0542      675.11808      15.061495      15.061495      15.061495      0              0              0            
    754000   309.91954     -1192.8826      229.41314     -963.4695      -1712.8246      15.239658      15.239658      15.239658      0              0              0            
    755000   337.28678     -1195.9089      249.67131     -946.23763      1969.7426      14.880365      14.880365      14.880365      0              0              0            
    756000   311.78626     -1199.7174      230.79494     -968.92247      2035.0869      14.92558       14.92558       14.92558       0              0              0            
    757000   273.47235     -1198.9089      202.43367     -996.47519     -319.81041      15.027818      15.027818      15.027818      0              0              0            
    758000   316.17064     -1211.1881      234.04042     -977.14766      371.20748      14.926753      14.926753      14.926753      0              0              0            
    759000   271.06468     -1218.6314      200.65143     -1017.98        1132.9243      14.831401      14.831401      14.831401      0              0              0            
    760000   294.90949     -1204.7916      218.30218     -986.48943      2134.961       14.713853      14.713853      14.713853      0              0              0            
    761000   305.78912     -1184.0756      226.35565     -957.71999     -1730.3703      14.83439       14.83439       14.83439       0              0              0            
    762000   289.59548     -1217.7161      214.36857     -1003.3475     -120.49176      14.852688      14.852688      14.852688      0              0              0            
    763000   285.54525     -1203.9418      211.37045     -992.57134      1614.3683      14.909726      14.909726      14.909726      0              0              0            
    764000   284.09928     -1218.6877      210.30009     -1008.3876      805.90414      14.870884      14.870884      14.870884      0              0              0            
    765000   285.57256     -1199.9934      211.39066     -988.60274     -194.46179      14.983415      14.983415      14.983415      0              0              0            
    766000   314.16461     -1199.938       232.55548     -967.3825       589.64178      14.7859        14.7859        14.7859        0              0              0            
    767000   321.68239     -1182.8077      238.1204      -944.68726      1247.5864      14.841324      14.841324      14.841324      0              0              0            
    768000   321.22851     -1191.2086      237.78442     -953.42418      129.1705       14.893623      14.893623      14.893623      0              0              0            
    769000   284.78506     -1227.2228      210.80772     -1016.4151      1455.6766      14.867203      14.867203      14.867203      0              0              0            
    770000   299.2466      -1222.753       221.51265     -1001.2404     -529.52195      15.034         15.034         15.034         0              0              0            
    771000   267.8393      -1211.5855      198.26389     -1013.3216     -1599.6228      15.141362      15.141362      15.141362      0              0              0            
    772000   305.8706      -1183.9122      226.41597     -957.49619     -264.22533      14.938127      14.938127      14.938127      0              0              0            
    773000   306.99265     -1207.6172      227.24655     -980.37066     -40.582032      14.938296      14.938296      14.938296      0              0              0            
    774000   312.50217     -1197.0068      231.32488     -965.68192     -794.57692      15.392932      15.392932      15.392932      0              0              0            
    775000   305.10367     -1158.2895      225.84826     -932.44121     -1190.9973      15.462099      15.462099      15.462099      0              0              0            
    776000   288.62021     -1196.1138      213.64664     -982.46713      565.12183      14.997879      14.997879      14.997879      0              0              0            
    777000   296.50659     -1223.3343      219.4844      -1003.8499     -828.66185      14.779931      14.779931      14.779931      0              0              0            
    778000   305.85755     -1208.4472      226.40631     -982.04088     -796.17352      15.272548      15.272548      15.272548      0              0              0            
    779000   314.53575     -1180.5184      232.83021     -947.68822      2739.8636      15.010372      15.010372      15.010372      0              0              0            
    780000   282.25723     -1204.3884      208.93654     -995.45186     -1603.3656      15.086563      15.086563      15.086563      0              0              0            
    781000   301.02232     -1209.626       222.8271      -986.7989       1975.5728      14.981035      14.981035      14.981035      0              0              0            
    782000   285.91995     -1206.3792      211.64781     -994.73137      397.37269      14.814083      14.814083      14.814083      0              0              0            
    783000   331.55881     -1223.9414      245.43127     -978.5101      -591.7116       14.817854      14.817854      14.817854      0              0              0            
    784000   312.92954     -1188.6784      231.64124     -957.03716      934.25095      15.040544      15.040544      15.040544      0              0              0            
    785000   304.49619     -1196.1135      225.39858     -970.71489     -876.92777      15.092114      15.092114      15.092114      0              0              0            
    786000   300.55368     -1191.7935      222.4802      -969.31333      1656.3065      14.89399       14.89399       14.89399       0              0              0            
    787000   279.91344     -1195.5319      207.20159     -988.33029      409.04699      15.035168      15.035168      15.035168      0              0              0            
    788000   284.88793     -1203.9486      210.88387     -993.06477      67.416494      15.017894      15.017894      15.017894      0              0              0            
    789000   320.41194     -1218.3553      237.17997     -981.17533     -520.29026      15.009932      15.009932      15.009932      0              0              0            
    790000   308.5677      -1209.7641      228.41246     -981.35168      1288.8369      14.906199      14.906199      14.906199      0              0              0            
    791000   303.96935     -1191.8125      225.0086      -966.8039       593.87052      14.816982      14.816982      14.816982      0              0              0            
    792000   309.74989     -1197.9461      229.28755     -968.65854      1051.4867      15.082453      15.082453      15.082453      0              0              0            
    793000   305.31947     -1184.2549      226.008       -958.24688     -614.01658      15.049535      15.049535      15.049535      0              0              0            
    794000   300.72959     -1192.6062      222.61042     -969.99575      1534.5152      14.875352      14.875352      14.875352      0              0              0            
    795000   282.0929      -1213.128       208.8149      -1004.3131      526.81339      14.964557      14.964557      14.964557      0              0              0            
    796000   279.80861     -1196.421       207.12398     -989.29701     -1975.2931      15.330458      15.330458      15.330458      0              0              0            
    797000   301.21023     -1202.8134      222.9662      -979.84716      577.36737      15.004958      15.004958      15.004958      0              0              0            
    798000   296.69688     -1176.0074      219.62526     -956.38212     -1249.7157      15.443282      15.443282      15.443282      0              0              0            
    799000   292.456       -1203.5169      216.48602     -987.03093     -531.27685      15.2244        15.2244        15.2244        0              0              0            
    800000   309.68703     -1210.4985      229.24102     -981.25744      883.35787      14.920628      14.920628      14.920628      0              0              0            
    801000   271.27746     -1189.3715      200.80893     -988.56261      701.66871      15.109704      15.109704      15.109704      0              0              0            
    802000   309.82002     -1249.055       229.33947     -1019.7156     -1483.5468      14.702598      14.702598      14.702598      0              0              0            
    803000   292.40491     -1212.4733      216.4482      -996.02506      848.55415      14.961411      14.961411      14.961411      0              0              0            
    804000   311.59858     -1203.5695      230.65602     -972.91345     -1196.2568      15.024535      15.024535      15.024535      0              0              0            
    805000   285.6924      -1229.8687      211.47937     -1018.3894      1092.3321      14.920228      14.920228      14.920228      0              0              0            
    806000   292.13504     -1185.8374      216.24844     -969.58895      406.7319       14.921488      14.921488      14.921488      0              0              0            
    807000   305.92529     -1232.5143      226.45645     -1006.0579     -586.70374      14.85449       14.85449       14.85449       0              0              0            
    808000   294.83429     -1187.4815      218.24651     -969.235        516.62712      14.739483      14.739483      14.739483      0              0              0            
    809000   296.46376     -1207.236       219.4527      -987.78325      416.40976      14.982336      14.982336      14.982336      0              0              0            
    810000   270.68943     -1190.176       200.37365     -989.80236      9.9704385      14.91055       14.91055       14.91055       0              0              0            
    811000   294.81799     -1220.0465      218.23444     -1001.812       1514.4587      14.880125      14.880125      14.880125      0              0              0            
    812000   307.18072     -1219.0316      227.38576     -991.64585     -1571.5033      15.118254      15.118254      15.118254      0              0              0            
    813000   315.69676     -1211.2302      233.68963     -977.54054     -396.32984      15.027219      15.027219      15.027219      0              0              0            
    814000   284.80327     -1214.8146      210.82121     -1003.9933      148.19773      14.872865      14.872865      14.872865      0              0              0            
    815000   281.19034     -1189.4504      208.14679     -981.30362     -634.05613      15.054528      15.054528      15.054528      0              0              0            
    816000   286.55469     -1194.7485      212.11767     -982.63084     -1422.0475      14.925912      14.925912      14.925912      0              0              0            
    817000   300.68908     -1184.4166      222.58043     -961.83622      136.86819      15.083886      15.083886      15.083886      0              0              0            
    818000   285.32053     -1204.5518      211.2041      -993.34767      2304.4054      15.022136      15.022136      15.022136      0              0              0            
    819000   288.14488     -1207.1569      213.29478     -993.86209      2495.1356      14.82363       14.82363       14.82363       0              0              0            
    820000   309.77472     -1208.4204      229.30593     -979.11447      1063.87        14.972544      14.972544      14.972544      0              0              0            
    821000   307.66998     -1181.6682      227.74793     -953.92025     -712.3223       14.954159      14.954159      14.954159      0              0              0            
    822000   298.68938     -1192.761       221.10018     -971.66078      1260.319       14.919519      14.919519      14.919519      0              0              0            
    823000   298.95527     -1219.6347      221.297       -998.3377       126.42078      14.944419      14.944419      14.944419      0              0              0            
    824000   279.83037     -1189.875       207.14009     -982.73491     -839.6753       15.172031      15.172031      15.172031      0              0              0            
    825000   286.01591     -1212.5769      211.71885     -1000.8581      172.71021      15.10536       15.10536       15.10536       0              0              0            
    826000   293.32518     -1206.2824      217.12942     -989.153        392.59737      15.08843       15.08843       15.08843       0              0              0            
    827000   270.45905     -1197.624       200.20312     -997.42087     -3047.5145      15.180576      15.180576      15.180576      0              0              0            
    828000   285.2575      -1202.2074      211.15744     -991.04996      145.8722       14.875865      14.875865      14.875865      0              0              0            
    829000   272.78762     -1196.9577      201.9268      -995.03094      1654.3956      15.001492      15.001492      15.001492      0              0              0            
    830000   287.66629     -1219.7626      212.94051     -1006.8221      106.79937      15.008446      15.008446      15.008446      0              0              0            
    831000   270.92887     -1197.225       200.5509      -996.67413     -901.22324      15.069361      15.069361      15.069361      0              0              0            
    832000   312.70786     -1175.6001      231.47715     -944.12294     -1005.6601      15.008269      15.008269      15.008269      0              0              0            
    833000   342.23991     -1242.135       253.33778     -988.79719      1107.6321      14.872032      14.872032      14.872032      0              0              0            
    834000   316.66838     -1228.8688      234.40886     -994.45994     -2239.3366      14.773677      14.773677      14.773677      0              0              0            
    835000   303.62694     -1223.4263      224.75514     -998.67112      870.68177      14.61665       14.61665       14.61665       0              0              0            
    836000   280.30347     -1219.8908      207.4903      -1012.4005      2820.1982      14.771802      14.771802      14.771802      0              0              0            
    837000   282.62393     -1156.1406      209.20798     -946.93257      532.38283      15.217164      15.217164      15.217164      0              0              0            
    838000   303.54124     -1193.042       224.6917      -968.35033     -685.25767      15.369807      15.369807      15.369807      0              0              0            
    839000   327.41849     -1224.9109      242.36646     -982.54449      674.76431      14.973034      14.973034      14.973034      0              0              0            
    840000   273.38859     -1206.6457      202.37166     -1004.2741      420.51134      15.015892      15.015892      15.015892      0              0              0            
    841000   299.75756     -1180.1943      221.89088     -958.30342      2727.7679      14.688125      14.688125      14.688125      0              0              0            
    842000   297.23484     -1219.9946      220.02348     -999.97112      1854.3422      14.767491      14.767491      14.767491      0              0              0            
    843000   280.79938     -1202.876       207.85739     -995.0186      -1287.9598      14.982427      14.982427      14.982427      0              0              0            
    844000   279.85728     -1185.8209      207.16001     -978.6609      -1166.2867      15.01506       15.01506       15.01506       0              0              0            
    845000   311.29738     -1207.3251      230.43306     -976.89201     -679.37279      14.932874      14.932874      14.932874      0              0              0            
    846000   319.62068     -1202.0256      236.59425     -965.43133     -623.5266       15.072759      15.072759      15.072759      0              0              0            
    847000   318.17649     -1220.6749      235.52521     -985.14969      598.65338      14.77136       14.77136       14.77136       0              0              0            
    848000   303.62585     -1209.6897      224.75433     -984.9354      -1158.9251      14.882507      14.882507      14.882507      0              0              0            
    849000   328.34632     -1216.2618      243.05327     -973.20854      372.05956      14.917185      14.917185      14.917185      0              0              0            
    850000   306.66508     -1194.07        227.00407     -967.06595      281.6004       14.901102      14.901102      14.901102      0              0              0            
    851000   299.73718     -1190.8275      221.8758      -968.95167      557.76211      14.747055      14.747055      14.747055      0              0              0            
    852000   330.04358     -1214.437       244.30964     -970.1274      -234.01925      14.963727      14.963727      14.963727      0              0              0            
    853000   293.45615     -1202.1768      217.22637     -984.95041     -1982.3573      14.990809      14.990809      14.990809      0              0              0            
    854000   304.44529     -1224.7769      225.3609      -999.41599      1993.9495      14.648477      14.648477      14.648477      0              0              0            
    855000   332.29086     -1218.1097      245.97316     -972.13656      1762.3069      14.792904      14.792904      14.792904      0              0              0            
    856000   287.01017     -1181.2502      212.45483     -968.79533     -1953.1006      15.071713      15.071713      15.071713      0              0              0            
    857000   309.16507     -1185.3637      228.85465     -956.50903      874.28374      15.028444      15.028444      15.028444      0              0              0            
    858000   301.69563     -1197.3221      223.32551     -973.99658     -428.95011      14.994666      14.994666      14.994666      0              0              0            
    859000   302.2392      -1199.9464      223.72788     -976.21848      393.22625      14.830645      14.830645      14.830645      0              0              0            
    860000   326.38466     -1207.7217      241.60119     -966.12048     -319.83976      14.934001      14.934001      14.934001      0              0              0            
    861000   294.64238     -1178.7415      218.10445     -960.637        752.64349      15.262078      15.262078      15.262078      0              0              0            
    862000   309.99271     -1202.572       229.4673      -973.10474     -53.671232      14.97947       14.97947       14.97947       0              0              0            
    863000   313.26441     -1179.1487      231.88912     -947.2596      -1149.8768      15.072057      15.072057      15.072057      0              0              0            
    864000   283.00192     -1210.7306      209.48778     -1001.2429     -366.57032      14.820821      14.820821      14.820821      0              0              0            
    865000   331.32343     -1188.1308      245.25703     -942.87372      2688.7088      14.767078      14.767078      14.767078      0              0              0            
    866000   345.84612     -1176.0547      256.00723     -920.04749      724.98783      15.208745      15.208745      15.208745      0              0              0            
    867000   292.56454     -1198.04        216.56637     -981.47362     -216.69031      15.512344      15.512344      15.512344      0              0              0            
    868000   293.42506     -1154.8131      217.20335     -937.60974      70.980877      15.332821      15.332821      15.332821      0              0              0            
    869000   302.56231     -1191.3444      223.96706     -967.37733     -15.673112      15.060178      15.060178      15.060178      0              0              0            
    870000   304.85851     -1175.8598      225.66679     -950.19297     -265.51559      15.073398      15.073398      15.073398      0              0              0            
    871000   275.86543     -1169.2242      204.20511     -965.01907     -910.14424      15.245922      15.245922      15.245922      0              0              0            
    872000   312.00929     -1182.031       230.96004     -951.07091      256.16964      15.211121      15.211121      15.211121      0              0              0            
    873000   303.6817      -1194.661       224.79567     -969.86534      1502.2082      15.233659      15.233659      15.233659      0              0              0            
    874000   286.497       -1196.3482      212.07496     -984.27326     -285.58548      15.181956      15.181956      15.181956      0              0              0            
    875000   287.82758     -1169.9275      213.0599      -956.86763     -696.43812      15.491969      15.491969      15.491969      0              0              0            
    876000   274.05996     -1169.2298      202.86864     -966.36118      679.73003      15.115446      15.115446      15.115446      0              0              0            
    877000   296.26533     -1225.3587      219.30582     -1006.0529     -328.26508      15.053268      15.053268      15.053268      0              0              0            
    878000   289.95802     -1188.8068      214.63693     -974.16992     -1376.7104      14.967842      14.967842      14.967842      0              0              0            
    879000   303.51582     -1195.3647      224.67288     -970.69182      1292.4109      14.794818      14.794818      14.794818      0              0              0            
    880000   299.58157     -1186.3539      221.76061     -964.59331      602.21141      15.395837      15.395837      15.395837      0              0              0            
    881000   306.5677      -1231.6114      226.93199     -1004.6794     -781.87657      14.984252      14.984252      14.984252      0              0              0            
    882000   292.77698     -1205.4461      216.72362     -988.72247     -910.26194      14.737657      14.737657      14.737657      0              0              0            
    883000   322.08748     -1189.1037      238.42026     -950.68344      257.33451      15.018255      15.018255      15.018255      0              0              0            
    884000   321.02579     -1220.4272      237.63436     -982.79281      547.0368       14.799674      14.799674      14.799674      0              0              0            
    885000   283.16252     -1215.4533      209.60666     -1005.8466      184.16162      14.84531       14.84531       14.84531       0              0              0            
    886000   305.62994     -1196.7795      226.23783     -970.54164      501.04804      15.020917      15.020917      15.020917      0              0              0            
    887000   305.49611     -1217.1467      226.13876     -991.00792      5.1185044      15.001718      15.001718      15.001718      0              0              0            
    888000   312.74305     -1213.2195      231.50319     -981.71629     -1300.2926      15.080862      15.080862      15.080862      0              0              0            
    889000   285.57384     -1195.8289      211.39161     -984.43731      310.5579       15.194882      15.194882      15.194882      0              0              0            
    890000   282.24751     -1211.115       208.92934     -1002.1857      793.1072       15.061858      15.061858      15.061858      0              0              0            
    891000   316.3585      -1188.9849      234.17948     -954.80543     -900.98521      15.079538      15.079538      15.079538      0              0              0            
    892000   294.83218     -1216.8355      218.24495     -998.59057      1239.683       14.811094      14.811094      14.811094      0              0              0            
    893000   298.30242     -1190.6441      220.81374     -969.8304      -132.09176      14.984248      14.984248      14.984248      0              0              0            
    894000   282.67451     -1177.843       209.24543     -968.59761      902.42211      15.214661      15.214661      15.214661      0              0              0            
    895000   313.00715     -1188.9147      231.69869     -957.21598     -828.67125      15.01111       15.01111       15.01111       0              0              0            
    896000   312.79478     -1233.1606      231.54149     -1001.6191      1524.2863      14.945423      14.945423      14.945423      0              0              0            
    897000   324.87689     -1219.3283      240.48508     -978.84322     -1467.5312      14.998898      14.998898      14.998898      0              0              0            
    898000   278.82175     -1251.0516      206.39348     -1044.6582      3295.1077      14.631445      14.631445      14.631445      0              0              0            
    899000   284.36199     -1207.0076      210.49455     -996.51309     -647.40346      15.061456      15.061456      15.061456      0              0              0            
    900000   290.83283     -1182.0774      215.28449     -966.79288     -1073.8494      14.992577      14.992577      14.992577      0              0              0            
    901000   289.68357     -1198.4195      214.43377     -983.9857       56.944379      15.067111      15.067111      15.067111      0              0              0            
    902000   302.30331     -1178.0874      223.77534     -954.3121       210.02619      14.898045      14.898045      14.898045      0              0              0            
    903000   284.85668     -1235.1684      210.86074     -1024.3077      2498.9222      14.705445      14.705445      14.705445      0              0              0            
    904000   287.56417     -1215.9451      212.86492     -1003.0801      357.18436      14.915458      14.915458      14.915458      0              0              0            
    905000   323.24037     -1209.4855      239.27367     -970.21181      923.23206      14.934875      14.934875      14.934875      0              0              0            
    906000   300.65467     -1173.4193      222.55496     -950.86434     -771.30313      14.918572      14.918572      14.918572      0              0              0            
    907000   300.64224     -1191.979       222.54575     -969.43323     -362.01485      15.113568      15.113568      15.113568      0              0              0            
    908000   293.52124     -1207.0304      217.27455     -989.75589     -430.33437      14.759815      14.759815      14.759815      0              0              0            
    909000   289.73276     -1192.2282      214.47018     -977.75803     -295.88988      14.735067      14.735067      14.735067      0              0              0            
    910000   309.62193     -1185.9292      229.19284     -956.73638      2622.2194      14.702372      14.702372      14.702372      0              0              0            
    911000   274.44422     -1163.1947      203.15308     -960.0416      -803.17429      15.004475      15.004475      15.004475      0              0              0            
    912000   317.05559     -1211.6459      234.69549     -976.95042      1163.1938      14.854953      14.854953      14.854953      0              0              0            
    913000   313.42459     -1183.5268      232.00769     -951.5191       298.69944      14.92595       14.92595       14.92595       0              0              0            
    914000   311.22413     -1174.2499      230.37884     -943.87107      788.60032      15.101734      15.101734      15.101734      0              0              0            
    915000   315.51616     -1198.4812      233.55595     -964.9253       26.012927      14.98289       14.98289       14.98289       0              0              0            
    916000   324.27163     -1221.33        240.03705     -981.29292      355.98735      14.559596      14.559596      14.559596      0              0              0            
    917000   300.87785     -1216.5726      222.72016     -993.85247      1974.3297      14.619366      14.619366      14.619366      0              0              0            
    918000   276.39857     -1192.8639      204.59975     -988.26411     -838.62111      14.904211      14.904211      14.904211      0              0              0            
    919000   285.48886     -1222.4691      211.3287      -1011.1404     -994.64131      14.841367      14.841367      14.841367      0              0              0            
    920000   288.60331     -1200.0538      213.63413     -986.41968      421.36178      14.9149        14.9149        14.9149        0              0              0            
    921000   258.64141     -1212.1356      191.4553      -1020.6804     -127.70534      15.256857      15.256857      15.256857      0              0              0            
    922000   279.42774     -1180.268       206.84205     -973.42593     -2289.6381      15.110307      15.110307      15.110307      0              0              0            
    923000   291.07333     -1200.7662      215.46252     -985.30364      1070.1552      15.031628      15.031628      15.031628      0              0              0            
    924000   308.02471     -1214.6079      228.01052     -986.5974       679.61924      15.059967      15.059967      15.059967      0              0              0            
    925000   319.5452      -1235.5973      236.53838     -999.05889      1521.9822      14.720886      14.720886      14.720886      0              0              0            
    926000   306.99422     -1195.0853      227.24771     -967.83759      1376.5923      15.439416      15.439416      15.439416      0              0              0            
    927000   308.01668     -1230.4226      228.00457     -1002.4181     -899.22106      14.831171      14.831171      14.831171      0              0              0            
    928000   287.74329     -1185.6992      212.99751     -972.70173      498.57416      15.095318      15.095318      15.095318      0              0              0            
    929000   316.16669     -1205.3993      234.03749     -971.36178      857.18993      15.065921      15.065921      15.065921      0              0              0            
    930000   297.53525     -1227.5819      220.24586     -1007.3361     -1839.001       15.238219      15.238219      15.238219      0              0              0            
    931000   289.86903     -1178.8118      214.57106     -964.24075      1472.0289      14.863454      14.863454      14.863454      0              0              0            
    932000   325.03079     -1171.0007      240.599       -930.40167      249.5654       14.93436       14.93436       14.93436       0              0              0            
    933000   293.12681     -1219.6852      216.98258     -1002.7026      195.14137      14.921406      14.921406      14.921406      0              0              0            
    934000   289.88005     -1215.8473      214.57921     -1001.2681     -1155.904       15.005938      15.005938      15.005938      0              0              0            
    935000   303.50386     -1191.7529      224.66403     -967.0889       2697.2048      14.935682      14.935682      14.935682      0              0              0            
    936000   304.80325     -1204.0192      225.62588     -978.3933      -959.49525      15.043855      15.043855      15.043855      0              0              0            
    937000   293.10992     -1158.1346      216.97007     -941.16453     -693.16851      15.154389      15.154389      15.154389      0              0              0            
    938000   280.13417     -1186.9337      207.36498     -979.56868      2021.8986      15.029524      15.029524      15.029524      0              0              0            
    939000   330.51925     -1184.0359      244.66175     -939.37414     -1391.5447      15.208548      15.208548      15.208548      0              0              0            
    940000   308.19483     -1210.6964      228.13644     -982.55997     -1275.4583      14.935701      14.935701      14.935701      0              0              0            
    941000   302.88525     -1210.8506      224.20611     -986.64444     -1004.9086      15.080068      15.080068      15.080068      0              0              0            
    942000   293.56598     -1207.7381      217.30766     -990.4304       480.03384      14.935177      14.935177      14.935177      0              0              0            
    943000   305.12545     -1211.1003      225.86438     -985.23593     -322.66963      15.120928      15.120928      15.120928      0              0              0            
    944000   290.04072     -1169.6868      214.69815     -954.98869     -65.732172      15.566363      15.566363      15.566363      0              0              0            
    945000   295.70783     -1192.5255      218.89314     -973.63231     -2381.2221      15.291604      15.291604      15.291604      0              0              0            
    946000   296.06369     -1178.9467      219.15655     -959.79016      1181.695       15.111135      15.111135      15.111135      0              0              0            
    947000   315.75803     -1221.5001      233.73498     -987.76513     -1187.1558      15.008064      15.008064      15.008064      0              0              0            
    948000   313.67334     -1193.2063      232.19183     -961.01452     -815.89797      15.243055      15.243055      15.243055      0              0              0            
    949000   286.76821     -1211.172       212.27572     -998.89631      1689.3159      14.720438      14.720438      14.720438      0              0              0            
    950000   313.14683     -1190.1104      231.80209     -958.30833     -1233.891       15.051319      15.051319      15.051319      0              0              0            
    951000   302.28607     -1197.4884      223.76258     -973.72582      1335.9974      14.853988      14.853988      14.853988      0              0              0            
    952000   330.4983      -1212.6569      244.64624     -968.01068      2240.2923      14.854778      14.854778      14.854778      0              0              0            
    953000   306.40134     -1194.1608      226.80884     -967.35196      413.43971      14.940575      14.940575      14.940575      0              0              0            
    954000   308.59779     -1193.2735      228.43473     -964.83873     -1399.8986      15.10631       15.10631       15.10631       0              0              0            
    955000   301.43751     -1210.6507      223.13444     -987.51627     -1531.6187      15.035292      15.035292      15.035292      0              0              0            
    956000   316.25956     -1200.8265      234.10623     -966.72023     -1390.499       15.198075      15.198075      15.198075      0              0              0            
    957000   265.47723     -1209.7329      196.5154      -1013.2175      655.71697      15.053416      15.053416      15.053416      0              0              0            
    958000   286.86122     -1235.8027      212.34457     -1023.4581      389.89479      15.149573      15.149573      15.149573      0              0              0            
    959000   331.92198     -1208.6352      245.7001      -962.93511     -202.04103      15.159013      15.159013      15.159013      0              0              0            
    960000   341.33644     -1222.5733      252.669       -969.90425     -34.155942      14.647745      14.647745      14.647745      0              0              0            
    961000   284.03722     -1199.7545      210.25415     -989.50035     -1684.9477      15.042491      15.042491      15.042491      0              0              0            
    962000   290.51825     -1192.9301      215.05163     -977.87845      241.88345      15.020057      15.020057      15.020057      0              0              0            
    963000   328.99406     -1217.188       243.53276     -973.65526     -1846.7313      15.123625      15.123625      15.123625      0              0              0            
    964000   282.5974      -1184.6318      209.18834     -975.44345      73.14413       15.285245      15.285245      15.285245      0              0              0            
    965000   321.82908     -1203.0062      238.22898     -964.77719     -427.01296      14.834997      14.834997      14.834997      0              0              0            
    966000   319.87282     -1219.9804      236.78089     -983.19951      717.91542      15.079405      15.079405      15.079405      0              0              0            
    967000   324.31528     -1223.6075      240.06936     -983.5381      -127.0208       14.878475      14.878475      14.878475      0              0              0            
    968000   327.97197     -1205.9234      242.77617     -963.14721     -373.80833      14.890681      14.890681      14.890681      0              0              0            
    969000   307.56283     -1191.0798      227.66862     -963.41122     -68.629015      14.962126      14.962126      14.962126      0              0              0            
    970000   290.22243     -1169.0214      214.83265     -954.18873     -349.34196      15.400427      15.400427      15.400427      0              0              0            
    971000   316.61653     -1206.8107      234.37048     -972.44023     -541.81123      15.012625      15.012625      15.012625      0              0              0            
    972000   313.8695      -1182.8933      232.33703     -950.55622      89.919081      15.372372      15.372372      15.372372      0              0              0            
    973000   328.24337     -1211.0649      242.97707     -968.08781     -1493.6529      14.926511      14.926511      14.926511      0              0              0            
    974000   269.38428     -1201.7651      199.40754     -1002.3576     -1100.9933      14.940814      14.940814      14.940814      0              0              0            
    975000   336.19671     -1181.2059      248.8644      -932.3415      -1091.9689      14.969879      14.969879      14.969879      0              0              0            
    976000   299.60578     -1217.6796      221.77854     -995.90111     -104.07359      15.152054      15.152054      15.152054      0              0              0            
    977000   289.78836     -1208.8007      214.51134     -994.28939      482.50566      14.93213       14.93213       14.93213       0              0              0            
    978000   320.00871     -1195.7536      236.88148     -958.87211      2541.5945      15.122551      15.122551      15.122551      0              0              0            
    979000   301.87284     -1195.9513      223.45669     -972.49458      1658.3753      14.993209      14.993209      14.993209      0              0              0            
    980000   312.0641      -1237.49        231.00061     -1006.4894      444.44833      14.881601      14.881601      14.881601      0              0              0            
    981000   292.49686     -1183.6613      216.51626     -967.14508     -2349.3438      15.044424      15.044424      15.044424      0              0              0            
    982000   289.40263     -1193.5162      214.22581     -979.29037     -1213.4377      15.033295      15.033295      15.033295      0              0              0            
    983000   282.75353     -1206.9421      209.30391     -997.63823     -509.70308      15.198759      15.198759      15.198759      0              0              0            
    984000   278.89708     -1213.0734      206.44924     -1006.6242      1394.9226      15.034847      15.034847      15.034847      0              0              0            
    985000   292.45454     -1203.8515      216.48494     -987.36658      1237.3178      14.964977      14.964977      14.964977      0              0              0            
    986000   328.5403      -1211.5205      243.19687     -968.32364      1884.9854      14.966657      14.966657      14.966657      0              0              0            
    987000   325.47257     -1209.4056      240.92602     -968.47953      373.99776      15.002113      15.002113      15.002113      0              0              0            
    988000   301.73705     -1204.4809      223.35617     -981.12474     -189.19076      15.064756      15.064756      15.064756      0              0              0            
    989000   311.81258     -1234.4768      230.81443     -1003.6623      308.39067      14.986287      14.986287      14.986287      0              0              0            
    990000   299.03281     -1212.1594      221.3544      -990.80495      77.041767      15.060002      15.060002      15.060002      0              0              0            
    991000   313.40025     -1216.5164      231.98967     -984.52671      188.85551      15.000552      15.000552      15.000552      0              0              0            
    992000   298.34338     -1182.6015      220.84406     -961.75747     -438.29508      15.298605      15.298605      15.298605      0              0              0            
    993000   292.31125     -1205.7772      216.37887     -989.39834      1172.1766      14.904963      14.904963      14.904963      0              0              0            
    994000   275.1803      -1190.1417      203.69795     -986.44379      1474.1037      14.94273       14.94273       14.94273       0              0              0            
    995000   290.45561     -1184.2693      215.00526     -969.26404      2372.0108      14.960983      14.960983      14.960983      0              0              0            
    996000   306.41083     -1212.0943      226.81587     -985.27841      128.59788      15.068259      15.068259      15.068259      0              0              0            
    997000   320.24916     -1247.8045      237.05947     -1010.745      -906.50368      14.84124       14.84124       14.84124       0              0              0            
    998000   306.72297     -1214.4802      227.04693     -987.43329      1576.8262      14.878159      14.878159      14.878159      0              0              0            
    999000   293.01777     -1195.3935      216.90186     -978.49167     -790.61111      15.005722      15.005722      15.005722      0              0              0            
   1000000   316.46104     -1214.4402      234.25538     -980.18477      287.56958      14.704411      14.704411      14.704411      0              0              0            
Loop time of 339.721 on 12 procs for 1000000 steps with 320 atoms

Performance: 508.653 ns/day, 0.047 hours/ns, 2943.593 timesteps/s, 941.950 katom-step/s
88.6% CPU use with 12 MPI tasks x 1 OpenMP threads

MPI task timing breakdown:
Section |  min time  |  avg time  |  max time  |%varavg| %total
---------------------------------------------------------------
Pair    | 24.036     | 25.748     | 27.835     |  24.5 |  7.58
Bond    | 0.65542    | 0.70544    | 0.76154    |   3.7 |  0.21
Kspace  | 140.33     | 148.58     | 154.7      |  34.0 | 43.74
Neigh   | 5.2888     | 6.3809     | 7.0695     |  26.3 |  1.88
Comm    | 47.938     | 54.331     | 63.611     |  65.8 | 15.99
Output  | 13.815     | 15.052     | 18.442     |  30.9 |  4.43
Modify  | 82.44      | 87.101     | 90.511     |  23.4 | 25.64
Other   |            | 1.822      |            |       |  0.54

Nlocal:        26.6667 ave          33 max          21 min
Histogram: 2 1 0 0 1 5 1 1 0 1
Nghost:          843.5 ave         872 max         807 min
Histogram: 2 0 1 0 0 2 3 3 0 1
Neighs:              0 ave           0 max           0 min
Histogram: 12 0 0 0 0 0 0 0 0 0

Total # of neighbors = 0
Ave neighs/atom = 0
Ave special neighs/atom = 1.9875
Neighbor list builds = 73904
Dangerous builds = 5233


Total wall time: 0:05:39
