LAMMPS (7 Feb 2024 - Update 1)
  using 1 OpenMP thread(s) per MPI task
echo both

# Define temperature parameters
variable	temperature equal 300.0 # Simulation temperature in Kelvin
variable	tempDamp equal 100.0 # Relaxation time of themostat - 0.1 ps

# Define pressure parameters
variable	pressure equal 1.0 # Pressure in bars
variable	pressureDamp equal 500.0 # Relaxation time of the barostat 0.5 ps

# Define random seed
variable	seed equal 98475

# Simulation setup
units		real
atom_style	full
variable	out_freq equal 1000 # Thermo output frequency
variable	out_freq2 equal 10 # Dump output frequency
neigh_modify    delay 10 every 1 # Neighbor list setup

### TIP4P/Ew and NaCl Potential Parameters ###
pair_style      hybrid lj/cut/coul/long 5.0 buck/coul/long 5.0 # This cutoff is too short for a real calculation
# Load configuration
read_data       data.nacl
Reading data file ...
  orthogonal box = (0 0 0) to (15.5 15.5 15.5)
  2 by 2 by 3 MPI processor grid
  reading atoms ...
  320 atoms
  scanning bonds ...
  2 = max bonds/atom
  scanning angles ...
  1 = max angles/atom
  reading bonds ...
  212 bonds
  reading angles ...
  106 angles
Finding 1-2 1-3 1-4 neighbors ...
  special bond factors lj:    0        0        0       
  special bond factors coul:  0        0        0       
     2 = max # of 1-2 neighbors
     1 = max # of 1-3 neighbors
     1 = max # of 1-4 neighbors
     2 = max # of special neighbors
  special bonds CPU = 0.001 seconds
  read_data CPU = 0.015 seconds

# create groups ###

group hy type 1
212 atoms in group hy
group ox type 2
106 atoms in group ox
group na type 3
1 atoms in group na
group cl type 4
1 atoms in group cl

## set charges - beside manually ###
set group ox charge -0.830
Setting atom values ...
  106 settings made for charge
set group hy charge 0.415
Setting atom values ...
  212 settings made for charge
set group na charge 1.0
Setting atom values ...
  1 settings made for charge
set group cl charge -1.0
Setting atom values ...
  1 settings made for charge

# Water TIP3P
pair_coeff      1 1 lj/cut/coul/long 0.0 0.0
pair_coeff      2 2 lj/cut/coul/long 0.102 3.188
pair_coeff      1 2 lj/cut/coul/long 0.0 0.0
# Mixed from Pettitt 86
pair_coeff      2 3 lj/cut/coul/long 0.1338549 2.72
pair_coeff      1 3 lj/cut/coul/long 0.1338549 1.31
pair_coeff      2 4 lj/cut/coul/long 0.359825 3.55
pair_coeff      1 4 lj/cut/coul/long 0.359825 2.14
# NaCl from Pettitt 86
pair_coeff      3 4 buck/coul/long 28929.93 0.317 161.2016
pair_coeff      3 3 buck/coul/long 9772.847 0.317 24.18024 # This is not used
pair_coeff      4 4 buck/coul/long 80312.94 0.317 1683.981 # This is not used
bond_style      harmonic
bond_coeff      1 450 0.9572
angle_style     harmonic
angle_coeff     1 55 104.52
kspace_style    pppm 1e-2 # This value is too large for a real calculation

timestep	2.0 # Timestep 2 fs
thermo          ${out_freq}
thermo          1000
thermo_style 	custom step temp pe ke etotal press lx ly lz xy xz yz
restart 	${out_freq} restart restart2
restart 	1000 restart restart2

velocity        all create ${temperature} ${seed} dist gaussian
velocity        all create 300 ${seed} dist gaussian
velocity        all create 300 98475 dist gaussian
# Perform minimization
minimize 1.0e-2 1.0e-3 100 1000
Switching to 'neigh_modify every 1 delay 0 check yes' setting during minimization
PPPM initialization ...
  using 12-bit tables for long-range coulomb (src/lammps-7Feb2024/src/kspace.cpp:342)
  G vector (1/distance) = 0.40023582
  grid = 8 8 8
  stencil order = 5
  estimated absolute RMS force accuracy = 0.7823365
  estimated relative force accuracy = 0.0023559831
  using double precision MKL FFT
  3d grid and FFT values/proc = 1089 48
Generated 0 of 6 mixed pair_coeff terms from geometric mixing rule
Neighbor list info ...
  update: every = 1 steps, delay = 0 steps, check = yes
  max neighbors/atom: 2000, page size: 100000
  master list distance cutoff = 7
  ghost atom cutoff = 7
  binsize = 3.5, bins = 5 5 5
  3 neighbor lists, perpetual/occasional/extra = 3 0 0
  (1) pair lj/cut/coul/long, perpetual, skip from (3)
      attributes: half, newton on
      pair build: skip
      stencil: none
      bin: none
  (2) pair buck/coul/long, perpetual, skip from (3)
      attributes: half, newton on
      pair build: skip
      stencil: none
      bin: none
  (3) neighbor class addition, perpetual
      attributes: half, newton on
      pair build: half/bin/newton
      stencil: half/bin/3d
      bin: standard
Per MPI rank memory allocation (min/avg/max) = 9.416 | 9.418 | 9.42 Mbytes
   Step          Temp          PotEng         KinEng         TotEng         Press            Lx             Ly             Lz             Xy             Xz             Yz      
         0   300            92556250       285.26352      92556536       6.8175783e+09  15.5           15.5           15.5           0              0              0            
        27   300           -1095.9406      285.26352     -810.67712     -2918.7587      15.5           15.5           15.5           0              0              0            
Loop time of 0.0114759 on 12 procs for 27 steps with 320 atoms

83.8% CPU use with 12 MPI tasks x 1 OpenMP threads

Minimization stats:
  Stopping criterion = energy tolerance
  Energy initial, next-to-last, final = 
       92556250.257805     -1089.35799481  -1095.94064566941
  Force two-norm initial, final = 1.8953089e+09 108.40957
  Force max component initial, final = 1.2163668e+09 24.333575
  Final line search alpha, max atom move = 0.0033714434 0.08203927
  Iterations, force evaluations = 27 35

MPI task timing breakdown:
Section |  min time  |  avg time  |  max time  |%varavg| %total
---------------------------------------------------------------
Pair    | 0.00050064 | 0.00068436 | 0.00088585 |   0.0 |  5.96
Bond    | 1.8436e-05 | 2.669e-05  | 3.3912e-05 |   0.0 |  0.23
Kspace  | 0.0038394  | 0.0040353  | 0.0042513  |   0.2 | 35.16
Neigh   | 0.00017576 | 0.00019561 | 0.00021287 |   0.0 |  1.70
Comm    | 0.0010414  | 0.0011099  | 0.00119    |   0.1 |  9.67
Output  | 0          | 0          | 0          |   0.0 |  0.00
Modify  | 0          | 0          | 0          |   0.0 |  0.00
Other   |            | 0.005424   |            |       | 47.26

Nlocal:        26.6667 ave          32 max          19 min
Histogram: 1 0 2 1 0 1 1 2 2 2
Nghost:        766.167 ave         805 max         727 min
Histogram: 2 0 0 2 3 1 1 1 1 1
Neighs:              0 ave           0 max           0 min
Histogram: 12 0 0 0 0 0 0 0 0 0

Total # of neighbors = 0
Ave neighs/atom = 0
Ave special neighs/atom = 1.9875
Neighbor list builds = 3
Dangerous builds = 0

# Write trajectory to file
dump           	myDump all dcd ${out_freq2} out.dcd
dump           	myDump all dcd 10 out.dcd
#dump_modify    	myDump unwrap yes

# Start simulation

reset_timestep 	0


fix umb all plumed plumedfile plumed_7.dat outfile plumed.out
fix             1 all temp/csvr ${temperature} ${temperature} ${tempDamp} ${seed} # Bussi's thermostat
fix             1 all temp/csvr 300 ${temperature} ${tempDamp} ${seed} 
fix             1 all temp/csvr 300 300 ${tempDamp} ${seed} 
fix             1 all temp/csvr 300 300 100 ${seed} 
fix             1 all temp/csvr 300 300 100 98475 
fix             2 all shake 0.0001 20 0 t 1 2 # Shake algorithm
Finding SHAKE clusters ...
       0 = # of size 2 clusters
     106 = # of size 3 clusters
       0 = # of size 4 clusters
       0 = # of frozen angles
  find clusters CPU = 0.000 seconds
#fix             3 all nve
fix             3 all nph iso ${pressure} ${pressure} ${pressureDamp} # Isotropic barostat
fix             3 all nph iso 1 ${pressure} ${pressureDamp} 
fix             3 all nph iso 1 1 ${pressureDamp} 
fix             3 all nph iso 1 1 500 
fix 		4 all momentum 10000 linear 1 1 1 # Set total linear momentum to zero every 10000 steps

run 1000000
PPPM initialization ...
  using 12-bit tables for long-range coulomb (src/lammps-7Feb2024/src/kspace.cpp:342)
  G vector (1/distance) = 0.40023582
  grid = 8 8 8
  stencil order = 5
  estimated absolute RMS force accuracy = 0.7823365
  estimated relative force accuracy = 0.0023559831
  using double precision MKL FFT
  3d grid and FFT values/proc = 1089 48
Generated 0 of 6 mixed pair_coeff terms from geometric mixing rule
Per MPI rank memory allocation (min/avg/max) = 9.186 | 9.188 | 9.19 Mbytes
   Step          Temp          PotEng         KinEng         TotEng         Press            Lx             Ly             Lz             Xy             Xz             Yz      
         0   385.36913     -1127.6681      285.26352     -842.40459     -1339.4589      15.5           15.5           15.5           0              0              0            
      1000   295.89904     -1194.1732      219.03467     -975.13852      599.61887      15.163998      15.163998      15.163998      0              0              0            
      2000   293.74278     -1179.3461      217.43854     -961.90757     -478.77345      15.245954      15.245954      15.245954      0              0              0            
      3000   282.89348     -1205.9601      209.40752     -996.5526      -659.03819      15.039676      15.039676      15.039676      0              0              0            
      4000   324.72599     -1201.7119      240.37338     -961.33851     -974.11234      15.148182      15.148182      15.148182      0              0              0            
      5000   290.61096     -1203.4518      215.12026     -988.33155     -2044.0158      15.067504      15.067504      15.067504      0              0              0            
      6000   306.47981     -1212.2964      226.86692     -985.42943      1308.2831      14.884269      14.884269      14.884269      0              0              0            
      7000   294.06451     -1233.8979      217.6767      -1016.2212     -41.13853       14.857023      14.857023      14.857023      0              0              0            
      8000   296.74353     -1212.3828      219.6598      -992.72302     -74.618326      15.016384      15.016384      15.016384      0              0              0            
      9000   277.27076     -1209.5796      205.24538     -1004.3342      547.37253      15.12197       15.12197       15.12197       0              0              0            
     10000   297.71697     -1181.4631      220.38037     -961.08272     -2085.633       15.229919      15.229919      15.229919      0              0              0            
     11000   288.5455      -1197.4677      213.59133     -983.87634     -33.970945      14.902444      14.902444      14.902444      0              0              0            
     12000   297.33601     -1174.1016      220.09837     -954.00325      22.31812       15.088631      15.088631      15.088631      0              0              0            
     13000   312.7667      -1209.9327      231.5207      -978.41203      250.37037      15.024708      15.024708      15.024708      0              0              0            
     14000   280.06645     -1223.1364      207.31485     -1015.8215      491.41549      14.822233      14.822233      14.822233      0              0              0            
     15000   271.707       -1202.2777      201.12689     -1001.1508     -626.1756       15.013516      15.013516      15.013516      0              0              0            
     16000   322.85784     -1222.5718      238.99051     -983.58126      829.0416       14.918465      14.918465      14.918465      0              0              0            
     17000   306.89889     -1171.2973      227.17714     -944.12014     -2377.4787      15.247081      15.247081      15.247081      0              0              0            
     18000   316.46344     -1203.8939      234.25715     -969.63672      6.4870709      14.859644      14.859644      14.859644      0              0              0            
     19000   298.9809      -1194.175       221.31597     -972.85898     -1522.0058      15.199942      15.199942      15.199942      0              0              0            
     20000   312.96607     -1205.2518      231.66828     -973.58351      851.51665      14.758992      14.758992      14.758992      0              0              0            
     21000   291.11975     -1184.8431      215.49688     -969.34625     -120.16814      15.152656      15.152656      15.152656      0              0              0            
     22000   323.74667     -1165.6501      239.64845     -926.0017       576.48113      14.98614       14.98614       14.98614       0              0              0            
     23000   295.25439     -1212.6616      218.55748     -994.1041      -516.5576       14.834328      14.834328      14.834328      0              0              0            
     24000   311.39408     -1184.1899      230.50464     -953.68531      172.41191      14.998919      14.998919      14.998919      0              0              0            
     25000   291.27931     -1177.2283      215.61499     -961.61329     -987.22391      15.024114      15.024114      15.024114      0              0              0            
     26000   299.48845     -1210.0326      221.69169     -988.34088      393.72665      14.882224      14.882224      14.882224      0              0              0            
     27000   302.29426     -1201.4331      223.76864     -977.66448     -256.74214      15.029836      15.029836      15.029836      0              0              0            
     28000   279.1477      -1192.8084      206.63476     -986.17361      305.16257      14.799974      14.799974      14.799974      0              0              0            
     29000   297.2398      -1223.9076      220.02716     -1003.8804      420.09449      14.935455      14.935455      14.935455      0              0              0            
     30000   274.89967     -1219.5158      203.49022     -1016.0256      83.315862      14.849476      14.849476      14.849476      0              0              0            
     31000   275.84255     -1206.4652      204.18817     -1002.277      -987.72255      14.969894      14.969894      14.969894      0              0              0            
     32000   309.45408     -1207.9079      229.06858     -978.83936      67.611369      14.908869      14.908869      14.908869      0              0              0            
     33000   314.5337      -1213.6794      232.82869     -980.85073     -279.8356       15.016714      15.016714      15.016714      0              0              0            
     34000   285.75106     -1200.9445      211.52279     -989.42175      215.75683      15.231183      15.231183      15.231183      0              0              0            
     35000   311.72185     -1229.7571      230.74727     -999.00987      1415.0481      15.049266      15.049266      15.049266      0              0              0            
     36000   314.03548     -1210.8355      232.45989     -978.37558     -1023.3069      15.034241      15.034241      15.034241      0              0              0            
     37000   306.35897     -1184.9455      226.77748     -958.16798      210.37621      14.926271      14.926271      14.926271      0              0              0            
     38000   297.70902     -1198.4416      220.37448     -978.06708     -625.84941      15.00055       15.00055       15.00055       0              0              0            
     39000   322.45387     -1229.3408      238.69148     -990.64931     -1332.0458      14.969677      14.969677      14.969677      0              0              0            
     40000   307.39227     -1228.4164      227.54236     -1000.8741      814.14381      14.937352      14.937352      14.937352      0              0              0            
     41000   315.89031     -1221.4736      233.83291     -987.64072      227.17654      15.021801      15.021801      15.021801      0              0              0            
     42000   290.13307     -1214.9642      214.76651     -1000.1977      2594.7355      14.897877      14.897877      14.897877      0              0              0            
     43000   308.26961     -1225.4244      228.1918      -997.23264     -1574.5762      14.877243      14.877243      14.877243      0              0              0            
     44000   303.47345     -1207.6337      224.64152     -982.99218     -435.41406      15.026142      15.026142      15.026142      0              0              0            
     45000   312.26017     -1231.298       231.14575     -1000.1522     -716.49465      14.930189      14.930189      14.930189      0              0              0            
     46000   268.51338     -1205.6519      198.76287     -1006.8891     -2352.8239      14.978971      14.978971      14.978971      0              0              0            
     47000   304.21876     -1222.4946      225.19322     -997.30139      19.432485      14.986944      14.986944      14.986944      0              0              0            
     48000   300.28269     -1196.2342      222.2796      -973.9546      -900.14714      15.248147      15.248147      15.248147      0              0              0            
     49000   308.07032     -1187.5047      228.04428     -959.4604       238.57589      15.287929      15.287929      15.287929      0              0              0            
     50000   288.27052     -1204.1192      213.38778     -990.73143      469.1869       14.946237      14.946237      14.946237      0              0              0            
     51000   271.83746     -1192.8612      201.22346     -991.63777      526.40809      15.000289      15.000289      15.000289      0              0              0            
     52000   316.14498     -1208.9069      234.02142     -974.88546      185.31781      14.961667      14.961667      14.961667      0              0              0            
     53000   303.35634     -1203.9486      224.55483     -979.39372      95.074484      15.104465      15.104465      15.104465      0              0              0            
     54000   325.93842     -1188.006       241.27086     -946.73511     -517.45523      15.328037      15.328037      15.328037      0              0              0            
     55000   296.11721     -1193.9388      219.19618     -974.74266     -473.2154       15.254295      15.254295      15.254295      0              0              0            
     56000   314.96323     -1183.6465      233.14665     -950.49989     -2213.0176      15.262891      15.262891      15.262891      0              0              0            
     57000   319.88288     -1186.354       236.78834     -949.56566     -211.66459      14.854667      14.854667      14.854667      0              0              0            
     58000   310.3287      -1205.8213      229.71601     -976.10529      1549.2486      14.757246      14.757246      14.757246      0              0              0            
     59000   293.63506     -1219.16        217.3588      -1001.8012     -738.62781      14.862148      14.862148      14.862148      0              0              0            
     60000   334.46544     -1188.2584      247.58286     -940.67556      788.27678      15.00735       15.00735       15.00735       0              0              0            
     61000   303.10302     -1233.3592      224.36731     -1008.9919     -269.40744      14.844636      14.844636      14.844636      0              0              0            
     62000   313.19623     -1190.7055      231.83865     -958.86686     -704.52064      15.146197      15.146197      15.146197      0              0              0            
     63000   301.01611     -1196.7794      222.82251     -973.95686      971.1571       14.887694      14.887694      14.887694      0              0              0            
     64000   302.82923     -1216.268       224.16464     -992.10333      3649.0437      14.809813      14.809813      14.809813      0              0              0            
     65000   314.40937     -1224.3236      232.73666     -991.5869      -2363.8565      15.016313      15.016313      15.016313      0              0              0            
     66000   313.77204     -1202.8944      232.26489     -970.62949     -298.95316      14.905398      14.905398      14.905398      0              0              0            
     67000   313.88212     -1162.2026      232.34638     -929.85618      39.505311      15.105218      15.105218      15.105218      0              0              0            
     68000   282.46569     -1208.3698      209.09085     -999.27896     -1087.0033      15.257724      15.257724      15.257724      0              0              0            
     69000   288.31844     -1191.8805      213.42325     -978.45721     -540.58299      15.47899       15.47899       15.47899       0              0              0            
     70000   310.99654     -1178.1136      230.21037     -947.9032       942.47965      15.1742        15.1742        15.1742        0              0              0            
     71000   326.73281     -1227.7688      241.85889     -985.90991      1888.9093      14.991415      14.991415      14.991415      0              0              0            
     72000   295.68326     -1198.3092      218.87495     -979.43429     -654.49914      15.008842      15.008842      15.008842      0              0              0            
     73000   298.33186     -1210.694       220.83554     -989.85846     -22.734737      14.864709      14.864709      14.864709      0              0              0            
     74000   307.46001     -1202.1956      227.5925      -974.60311     -479.77206      14.974565      14.974565      14.974565      0              0              0            
     75000   289.56743     -1198.6191      214.3478      -984.27134      2156.4342      14.978395      14.978395      14.978395      0              0              0            
     76000   309.51891     -1206.7854      229.11657     -977.6688      -648.04196      15.063741      15.063741      15.063741      0              0              0            
     77000   310.60474     -1204.2671      229.92035     -974.34673      527.99027      14.837384      14.837384      14.837384      0              0              0            
     78000   308.66243     -1198.5814      228.48258     -970.09887     -882.64322      15.168385      15.168385      15.168385      0              0              0            
     79000   308.64691     -1209.2635      228.47109     -980.79241      1805.976       15.009083      15.009083      15.009083      0              0              0            
     80000   291.07129     -1177.0036      215.46101     -961.54264      1324.6593      15.249018      15.249018      15.249018      0              0              0            
     81000   317.07791     -1238.7209      234.71201     -1004.0089      1478.5052      14.999919      14.999919      14.999919      0              0              0            
     82000   308.21871     -1213.5318      228.15412     -985.37771     -644.09147      14.927155      14.927155      14.927155      0              0              0            
     83000   275.76268     -1211.2957      204.12905     -1007.1667     -2743.336       15.072633      15.072633      15.072633      0              0              0            
     84000   310.30576     -1196.7869      229.69903     -967.08784     -42.115791      14.934017      14.934017      14.934017      0              0              0            
     85000   310.59375     -1201.0202      229.91221     -971.10803      460.32056      14.826818      14.826818      14.826818      0              0              0            
     86000   269.83815     -1171.9724      199.7435      -972.22894     -322.09118      15.0604        15.0604        15.0604        0              0              0            
     87000   275.26591     -1171.8293      203.76132     -968.06795     -881.16011      15.258547      15.258547      15.258547      0              0              0            
     88000   314.58187     -1224.2852      232.86435     -991.42086      861.21429      15.044464      15.044464      15.044464      0              0              0            
     89000   308.45412     -1207.3365      228.32838     -979.00815      509.26439      14.918702      14.918702      14.918702      0              0              0            
     90000   312.96964     -1187.5271      231.67092     -955.8562      -73.31514       14.952122      14.952122      14.952122      0              0              0            
     91000   306.06125     -1191.8603      226.55709     -965.30319      975.19485      14.991712      14.991712      14.991712      0              0              0            
     92000   308.3214      -1182.5109      228.23014     -954.28077     -1881.9277      15.100312      15.100312      15.100312      0              0              0            
     93000   303.96465     -1178.4224      225.00512     -953.41727      2949.6089      14.983823      14.983823      14.983823      0              0              0            
     94000   321.26199     -1193.4613      237.80921     -955.65214      1566.3927      15.290915      15.290915      15.290915      0              0              0            
     95000   308.11329     -1247.782       228.07608     -1019.706      -896.16812      14.736712      14.736712      14.736712      0              0              0            
     96000   282.49475     -1207.85        209.11236     -998.73767     -2654.1675      14.832667      14.832667      14.832667      0              0              0            
     97000   285.63288     -1193.2734      211.43531     -981.83806     -500.15764      15.192455      15.192455      15.192455      0              0              0            
     98000   279.13953     -1215.2871      206.62871     -1008.6583     -739.33413      14.796395      14.796395      14.796395      0              0              0            
     99000   321.30065     -1234.1725      237.83782     -996.3347      -378.6027       14.858467      14.858467      14.858467      0              0              0            
    100000   290.92868     -1187.6118      215.35545     -972.25638     -814.22737      14.844154      14.844154      14.844154      0              0              0            
    101000   306.49848     -1222.834       226.88075     -995.95329      1994.2371      14.921231      14.921231      14.921231      0              0              0            
    102000   288.2143      -1212.938       213.34617     -999.5918      -519.70798      14.890507      14.890507      14.890507      0              0              0            
    103000   284.91854     -1211.0675      210.90653     -1000.1609     -175.13537      15.129009      15.129009      15.129009      0              0              0            
    104000   282.02318     -1195.1352      208.76329     -986.37193      560.35048      14.897796      14.897796      14.897796      0              0              0            
    105000   281.11741     -1149.8115      208.0928      -941.71871     -1562.9686      15.687112      15.687112      15.687112      0              0              0            
    106000   327.90931     -1183.8752      242.72978     -941.14542     -72.007429      14.899595      14.899595      14.899595      0              0              0            
    107000   299.51418     -1199.9335      221.71073     -978.22279      1586.3222      15.121955      15.121955      15.121955      0              0              0            
    108000   296.16057     -1182.2552      219.22827     -963.02692     -40.465665      15.344438      15.344438      15.344438      0              0              0            
    109000   307.88441     -1201.5666      227.90666     -973.65998     -851.12059      14.903229      14.903229      14.903229      0              0              0            
    110000   290.4979      -1200.5493      215.03656     -985.51269     -528.17981      14.910245      14.910245      14.910245      0              0              0            
    111000   317.8193      -1214.5952      235.26081     -979.33442      166.99633      14.779684      14.779684      14.779684      0              0              0            
    112000   310.81512     -1203.6086      230.07608     -973.53257     -1108.9149      14.906305      14.906305      14.906305      0              0              0            
    113000   289.26562     -1210.8494      214.12439     -996.72497     -2978.924       15.199878      15.199878      15.199878      0              0              0            
    114000   295.8951      -1238.5443      219.03176     -1019.5125     -943.28077      14.828091      14.828091      14.828091      0              0              0            
    115000   263.34774     -1181.0942      194.93908     -986.15516      357.52157      14.830752      14.830752      14.830752      0              0              0            
    116000   306.92383     -1195.9588      227.19561     -968.76324      102.81792      14.963508      14.963508      14.963508      0              0              0            
    117000   317.98781     -1176.6399      235.38554     -941.25438      235.32917      14.8912        14.8912        14.8912        0              0              0            
    118000   314.70827     -1163.0918      232.95792     -930.13392      466.58503      15.001316      15.001316      15.001316      0              0              0            
    119000   302.20394     -1225.461       223.70178     -1001.7592      4125.4777      14.738345      14.738345      14.738345      0              0              0            
    120000   310.59593     -1191.9292      229.91382     -962.01534      671.67075      15.015696      15.015696      15.015696      0              0              0            
    121000   285.29949     -1207.5641      211.18852     -996.37561      718.73901      15.032036      15.032036      15.032036      0              0              0            
    122000   308.65588     -1222.0407      228.47773     -993.56297     -620.13822      14.881527      14.881527      14.881527      0              0              0            
    123000   274.03702     -1239.9554      202.85165     -1037.1038      696.9778       14.731022      14.731022      14.731022      0              0              0            
    124000   295.27282     -1226.934       218.57113     -1008.3629      1849.5492      14.959853      14.959853      14.959853      0              0              0            
    125000   324.17782     -1215.5439      239.96761     -975.57628      190.23052      14.882166      14.882166      14.882166      0              0              0            
    126000   313.68532     -1199.9184      232.20069     -967.71768     -264.50678      14.900121      14.900121      14.900121      0              0              0            
    127000   311.46638     -1194.3885      230.55816     -963.83031     -485.85136      15.05866       15.05866       15.05866       0              0              0            
    128000   279.69234     -1210.6578      207.03792     -1003.6199     -88.988629      14.842866      14.842866      14.842866      0              0              0            
    129000   264.76221     -1194.7612      195.98612     -998.77511     -659.87714      15.104344      15.104344      15.104344      0              0              0            
    130000   273.15901     -1197.5796      202.20172     -995.37783      7.1214756      14.888764      14.888764      14.888764      0              0              0            
    131000   298.927       -1186.2905      221.27608     -965.01443     -2136.1245      15.362605      15.362605      15.362605      0              0              0            
    132000   269.71539     -1193.2314      199.65264     -993.57875      39.181842      15.324304      15.324304      15.324304      0              0              0            
    133000   343.36604     -1200.7934      254.17139     -946.62205     -422.73818      15.325594      15.325594      15.325594      0              0              0            
    134000   298.09447     -1176.7434      220.65981     -956.08361     -10.576726      14.838161      14.838161      14.838161      0              0              0            
    135000   280.83127     -1190.6152      207.88099     -982.73417     -237.99798      14.938773      14.938773      14.938773      0              0              0            
    136000   311.99186     -1201.46        230.94714     -970.51283      938.88372      14.863775      14.863775      14.863775      0              0              0            
    137000   293.65795     -1203.6676      217.37574     -986.29181      1078.318       14.876514      14.876514      14.876514      0              0              0            
    138000   285.94512     -1199.2676      211.66644     -987.60121      311.24041      14.923977      14.923977      14.923977      0              0              0            
    139000   289.14162     -1206.4845      214.0326      -992.45189     -2285.2209      15.070943      15.070943      15.070943      0              0              0            
    140000   319.27907     -1218.4437      236.34138     -982.10234      3826.6619      14.7807        14.7807        14.7807        0              0              0            
    141000   316.48864     -1214.6744      234.27581     -980.39856     -2373.0118      15.205474      15.205474      15.205474      0              0              0            
    142000   294.02696     -1197.8396      217.6489      -980.19066      711.66051      14.86023       14.86023       14.86023       0              0              0            
    143000   306.1914      -1207.572       226.65344     -980.91856      984.91348      14.97026       14.97026       14.97026       0              0              0            
    144000   293.92972     -1205.9497      217.57691     -988.37278     -1404.6922      15.194147      15.194147      15.194147      0              0              0            
    145000   295.34918     -1232.6577      218.62765     -1014.0301     -1701.0859      14.953451      14.953451      14.953451      0              0              0            
    146000   287.27598     -1212.5099      212.65159     -999.85834     -1348.8019      14.815664      14.815664      14.815664      0              0              0            
    147000   329.83136     -1168.1901      244.15255     -924.03753      474.97707      15.183625      15.183625      15.183625      0              0              0            
    148000   300.41924     -1206.0226      222.38068     -983.64188     -1713.9546      15.017488      15.017488      15.017488      0              0              0            
    149000   293.73372     -1187.6362      217.43184     -970.20433     -768.55938      15.055419      15.055419      15.055419      0              0              0            
    150000   320.98232     -1217.9364      237.60219     -980.33422      2251.3331      14.877658      14.877658      14.877658      0              0              0            
    151000   276.3832      -1218.4551      204.58838     -1013.8667     -855.78477      15.069052      15.069052      15.069052      0              0              0            
    152000   284.89384     -1206.043       210.88824     -995.15479     -117.5137       15.115228      15.115228      15.115228      0              0              0            
    153000   274.72024     -1215.7413      203.3574      -1012.3839     -645.01895      15.105152      15.105152      15.105152      0              0              0            
    154000   318.62707     -1212.4389      235.85875     -976.58014     -1048.5234      15.030475      15.030475      15.030475      0              0              0            
    155000   292.43311     -1175.0221      216.46908     -958.55307     -1489.9442      14.912182      14.912182      14.912182      0              0              0            
    156000   296.90762     -1200.9505      219.78126     -981.16928     -923.79096      15.204908      15.204908      15.204908      0              0              0            
    157000   296.48519     -1169.8265      219.46856     -950.35796      493.0335       15.065979      15.065979      15.065979      0              0              0            
    158000   275.26348     -1199.3415      203.75953     -995.58201     -1260.5328      15.057958      15.057958      15.057958      0              0              0            
    159000   270.66062     -1199.8555      200.35233     -999.50318     -594.66663      15.16225       15.16225       15.16225       0              0              0            
    160000   273.78137     -1212.8689      202.66241     -1010.2064     -1381.9303      15.088261      15.088261      15.088261      0              0              0            
    161000   306.52787     -1186.2265      226.9025      -959.324        1071.0072      14.917673      14.917673      14.917673      0              0              0            
    162000   316.57278     -1179.5146      234.33809     -945.17648      774.01689      15.069722      15.069722      15.069722      0              0              0            
    163000   309.19183     -1199.6259      228.87446     -970.75146      196.37155      15.027622      15.027622      15.027622      0              0              0            
    164000   303.42923     -1205.9973      224.60879     -981.38852     -1370.5586      15.148536      15.148536      15.148536      0              0              0            
    165000   272.16978     -1178.0581      201.46946     -976.5886       533.30218      15.216207      15.216207      15.216207      0              0              0            
    166000   304.76047     -1215.5171      225.59421     -989.92291      1308.0155      14.874377      14.874377      14.874377      0              0              0            
    167000   292.0761      -1205.5523      216.2048      -989.34752     -743.39812      14.94302       14.94302       14.94302       0              0              0            
    168000   302.69671     -1172.8369      224.06655     -948.77039      705.1317       14.998236      14.998236      14.998236      0              0              0            
    169000   294.44683     -1214.2379      217.9597      -996.27821      2110.4204      14.858163      14.858163      14.858163      0              0              0            
    170000   302.54291     -1230.9247      223.9527      -1006.972       2814.2406      14.829637      14.829637      14.829637      0              0              0            
    171000   317.20831     -1206.7117      234.80853     -971.9032       1646.3549      15.076058      15.076058      15.076058      0              0              0            
    172000   313.09478     -1203.0223      231.76356     -971.25873      609.34852      15.040779      15.040779      15.040779      0              0              0            
    173000   287.44953     -1213.0212      212.78006     -1000.2411      1467.4457      15.056496      15.056496      15.056496      0              0              0            
    174000   277.98308     -1215.9325      205.77267     -1010.1598      341.57881      15.26667       15.26667       15.26667       0              0              0            
    175000   302.41695     -1175.8433      223.85946     -951.98384     -192.45483      15.001112      15.001112      15.001112      0              0              0            
    176000   296.34487     -1184.2186      219.3647      -964.85393     -315.55315      15.154439      15.154439      15.154439      0              0              0            
    177000   288.96705     -1178.6687      213.90338     -964.76536     -1895.9703      15.262955      15.262955      15.262955      0              0              0            
    178000   302.1223      -1186.7568      223.64134     -963.11543      59.315092      15.073464      15.073464      15.073464      0              0              0            
    179000   308.62767     -1193.7329      228.45685     -965.27601      359.33699      15.052954      15.052954      15.052954      0              0              0            
    180000   283.76869     -1205.3618      210.05537     -995.30642      15.020042      14.935147      14.935147      14.935147      0              0              0            
    181000   281.29087     -1197.9549      208.2212      -989.73367     -671.3605       15.096513      15.096513      15.096513      0              0              0            
    182000   297.17782     -1184.5593      219.98127     -964.57804      102.82612      14.947774      14.947774      14.947774      0              0              0            
    183000   288.14008     -1220.6516      213.29123     -1007.3604     -2073.7027      14.96731       14.96731       14.96731       0              0              0            
    184000   310.90607     -1206.6502      230.1434      -976.50677     -779.89119      15.017411      15.017411      15.017411      0              0              0            
    185000   302.62821     -1202.605       224.01584     -978.58912      973.6745       14.937127      14.937127      14.937127      0              0              0            
    186000   277.88541     -1219.5639      205.70037     -1013.8635     -826.9276       15.038737      15.038737      15.038737      0              0              0            
    187000   278.67995     -1170.0014      206.28851     -963.71293      234.14883      15.107098      15.107098      15.107098      0              0              0            
    188000   307.08426     -1199.0616      227.31436     -971.74724     -659.8217       14.9831        14.9831        14.9831        0              0              0            
    189000   290.33169     -1200.5382      214.91353     -985.62462      1070.1498      15.236397      15.236397      15.236397      0              0              0            
    190000   287.69899     -1184.7104      212.96472     -971.74571     -1562.6577      15.022388      15.022388      15.022388      0              0              0            
    191000   307.03815     -1183.9687      227.28023     -956.68844     -1473.936       15.051232      15.051232      15.051232      0              0              0            
    192000   315.53448     -1208.5621      233.56951     -974.99258      3136.1597      14.887113      14.887113      14.887113      0              0              0            
    193000   292.72617     -1184.9643      216.68601     -968.27829     -2583.6787      15.381938      15.381938      15.381938      0              0              0            
    194000   293.861       -1147.7387      217.52605     -930.21264      1574.4434      15.560163      15.560163      15.560163      0              0              0            
    195000   299.56203     -1214.7037      221.74615     -992.95752      800.6684       14.974422      14.974422      14.974422      0              0              0            
    196000   298.9957      -1171.2348      221.32693     -949.90792     -522.54643      15.291659      15.291659      15.291659      0              0              0            
    197000   300.3496      -1182.6523      222.32913     -960.32322     -838.36933      15.250907      15.250907      15.250907      0              0              0            
    198000   304.19633     -1199.0418      225.17662     -973.86519     -108.05023      14.922104      14.922104      14.922104      0              0              0            
    199000   315.77572     -1218.8189      233.74808     -985.07078     -726.68648      14.963686      14.963686      14.963686      0              0              0            
    200000   296.65472     -1220.381       219.59406     -1000.7869      206.38357      15.031534      15.031534      15.031534      0              0              0            
    201000   300.93786     -1218.4598      222.76459     -995.6952       385.78536      14.764192      14.764192      14.764192      0              0              0            
    202000   315.18576     -1181.8751      233.31137     -948.56375     -765.26908      15.040728      15.040728      15.040728      0              0              0            
    203000   269.88316     -1173.8533      199.77683     -974.07644      332.42239      15.158406      15.158406      15.158406      0              0              0            
    204000   326.97181     -1218.4598      242.03582     -976.42397      381.10824      14.967251      14.967251      14.967251      0              0              0            
    205000   271.84485     -1221.0945      201.22893     -1019.8656      763.40514      14.650952      14.650952      14.650952      0              0              0            
    206000   321.91907     -1160.5538      238.2956      -922.25823     -511.86408      15.221138      15.221138      15.221138      0              0              0            
    207000   291.42985     -1190.6892      215.72643     -974.96278     -1823.0223      14.991423      14.991423      14.991423      0              0              0            
    208000   291.03691     -1243.0073      215.43556     -1027.5718     -1214.5734      14.944598      14.944598      14.944598      0              0              0            
    209000   291.26524     -1214.4935      215.60458     -998.88888      657.3654       14.895318      14.895318      14.895318      0              0              0            
    210000   285.60164     -1182.4037      211.41219     -970.99147      176.75352      15.070617      15.070617      15.070617      0              0              0            
    211000   306.0723      -1220.4629      226.56528     -993.89763     -1610.8015      14.882311      14.882311      14.882311      0              0              0            
    212000   289.32056     -1178.821       214.16506     -964.65592      2550.3753      14.825776      14.825776      14.825776      0              0              0            
    213000   347.02359     -1195.3691      256.87883     -938.4903       1325.8166      15.041845      15.041845      15.041845      0              0              0            
    214000   280.64783     -1169.0878      207.7452      -961.34261      660.93481      14.983681      14.983681      14.983681      0              0              0            
    215000   291.43938     -1195.8705      215.73348     -980.13701     -557.66602      14.874002      14.874002      14.874002      0              0              0            
    216000   302.55637     -1208.737       223.96266     -984.77436      1251.9049      15.014465      15.014465      15.014465      0              0              0            
    217000   322.33999     -1243.7365      238.60718     -1005.1293      125.09998      14.953597      14.953597      14.953597      0              0              0            
    218000   300.80658     -1217.0378      222.6674      -994.37041     -494.05066      15.065034      15.065034      15.065034      0              0              0            
    219000   279.46844     -1213.3166      206.87218     -1006.4444     -248.7889       14.972398      14.972398      14.972398      0              0              0            
    220000   293.42413     -1192.0598      217.20266     -974.85711      1459.8296      14.982917      14.982917      14.982917      0              0              0            
    221000   328.22681     -1209.4112      242.96481     -966.44636      350.78603      14.885998      14.885998      14.885998      0              0              0            
    222000   311.28362     -1221.9187      230.42288     -991.49578      251.08633      15.232874      15.232874      15.232874      0              0              0            
    223000   322.92248     -1169.8766      239.03836     -930.83827      1930.4451      14.94178       14.94178       14.94178       0              0              0            
    224000   292.83278     -1204.465       216.76493     -987.70008     -1019.4852      15.02704       15.02704       15.02704       0              0              0            
    225000   319.18072     -1181.1295      236.26858     -944.86088     -664.21682      15.065668      15.065668      15.065668      0              0              0            
    226000   286.91932     -1171.219       212.38758     -958.83145     -71.6656        15.124308      15.124308      15.124308      0              0              0            
    227000   302.48844     -1207.1499      223.91238     -983.23748     -755.49727      15.223281      15.223281      15.223281      0              0              0            
    228000   302.51356     -1220.0656      223.93097     -996.1346       714.55201      14.920101      14.920101      14.920101      0              0              0            
    229000   295.39778     -1184.1697      218.66363     -965.50607      1027.7247      14.836789      14.836789      14.836789      0              0              0            
    230000   296.17712     -1216.7331      219.24052     -997.49259     -292.04466      14.923582      14.923582      14.923582      0              0              0            
    231000   295.01039     -1216.2393      218.37687     -997.86244      41.943417      15.108647      15.108647      15.108647      0              0              0            
    232000   294.99138     -1203.5853      218.3628      -985.22248     -1056.5692      15.019033      15.019033      15.019033      0              0              0            
    233000   304.41379     -1203.9527      225.33759     -978.61508      855.64253      14.811764      14.811764      14.811764      0              0              0            
    234000   300.7818      -1196.6847      222.64906     -974.0356       687.79222      15.149828      15.149828      15.149828      0              0              0            
    235000   291.26738     -1219.7943      215.60616     -1004.1881      1655.4449      14.88909       14.88909       14.88909       0              0              0            
    236000   301.71161     -1191.6959      223.33734     -968.35859      21.285908      15.15611       15.15611       15.15611       0              0              0            
    237000   277.41371     -1170.3884      205.3512      -965.03716     -1041.388       15.081799      15.081799      15.081799      0              0              0            
    238000   311.76588     -1189.7917      230.77986     -959.01189     -1256.9749      15.224559      15.224559      15.224559      0              0              0            
    239000   300.49731     -1204.404       222.43847     -981.96551      579.44844      15.062218      15.062218      15.062218      0              0              0            
    240000   277.64002     -1212.3759      205.51872     -1006.8572      393.34077      14.916594      14.916594      14.916594      0              0              0            
    241000   297.14321     -1207.0254      219.95566     -987.06973     -895.79225      15.076958      15.076958      15.076958      0              0              0            
    242000   290.18373     -1206.0339      214.80401     -991.22985     -79.659514      14.836302      14.836302      14.836302      0              0              0            
    243000   307.31197     -1235.7869      227.48292     -1008.304       604.02662      14.883491      14.883491      14.883491      0              0              0            
    244000   286.79426     -1224.1786      212.295       -1011.8836     -958.85193      15.020653      15.020653      15.020653      0              0              0            
    245000   304.40228     -1192.3322      225.32907     -967.00314      741.13185      14.971723      14.971723      14.971723      0              0              0            
    246000   306.39492     -1197.9843      226.80409     -971.18024      589.29611      15.022889      15.022889      15.022889      0              0              0            
    247000   294.65548     -1220.586       218.11415     -1002.4718     -388.43244      15.157037      15.157037      15.157037      0              0              0            
    248000   286.99579     -1217.3142      212.44419     -1004.87       -94.453963      14.677181      14.677181      14.677181      0              0              0            
    249000   286.82202     -1183.3934      212.31555     -971.07784      52.005491      14.94098       14.94098       14.94098       0              0              0            
    250000   285.23558     -1202.922       211.14122     -991.7808      -139.18289      15.022228      15.022228      15.022228      0              0              0            
    251000   292.62503     -1203.016       216.61114     -986.40486      1268.9842      14.9325        14.9325        14.9325        0              0              0            
    252000   280.57417     -1196.7445      207.69068     -989.05383      79.230616      14.999964      14.999964      14.999964      0              0              0            
    253000   283.53894     -1183.8577      209.8853      -973.97239     -635.00186      15.248674      15.248674      15.248674      0              0              0            
    254000   308.61154     -1203.2184      228.44491     -974.7735       940.73573      15.069542      15.069542      15.069542      0              0              0            
    255000   307.95074     -1202.2559      227.95576     -974.30016      1065.6379      14.980667      14.980667      14.980667      0              0              0            
    256000   303.50437     -1190.6243      224.6644      -965.95986     -1034.8571      15.197387      15.197387      15.197387      0              0              0            
    257000   324.00737     -1186.3981      239.84143     -946.55669     -417.81842      14.875242      14.875242      14.875242      0              0              0            
    258000   276.87962     -1169.943       204.95585     -964.98712      825.28732      15.061502      15.061502      15.061502      0              0              0            
    259000   281.7028      -1181.1798      208.52613     -972.65366     -508.98969      15.186716      15.186716      15.186716      0              0              0            
    260000   277.37289     -1202.79        205.32098     -997.469       -387.69508      15.255383      15.255383      15.255383      0              0              0            
    261000   288.913       -1198.7907      213.86337     -984.92737     -2176.1431      14.718406      14.718406      14.718406      0              0              0            
    262000   304.96846     -1225.1868      225.74817     -999.43862      674.57793      14.927513      14.927513      14.927513      0              0              0            
    263000   296.2498      -1212.7205      219.29432     -993.42622      1364.4649      14.834787      14.834787      14.834787      0              0              0            
    264000   298.59014     -1186.4528      221.02673     -965.4261      -1317.9055      14.974282      14.974282      14.974282      0              0              0            
    265000   283.62331     -1231.7369      209.94776     -1021.7891      170.17499      14.789922      14.789922      14.789922      0              0              0            
    266000   288.96187     -1243.07        213.89954     -1029.1704      873.81038      14.912404      14.912404      14.912404      0              0              0            
    267000   282.51131     -1202.6961      209.12462     -993.57149     -1672.2078      14.939922      14.939922      14.939922      0              0              0            
    268000   310.95445     -1227.6617      230.17921     -997.48247      239.41383      14.977866      14.977866      14.977866      0              0              0            
    269000   293.94812     -1221.1544      217.59054     -1003.5638     -574.27612      15.010351      15.010351      15.010351      0              0              0            
    270000   308.8536      -1212.116       228.62409     -983.49194      774.65713      14.889499      14.889499      14.889499      0              0              0            
    271000   286.00087     -1170.6111      211.70771     -958.90336     -1707.4701      15.137635      15.137635      15.137635      0              0              0            
    272000   318.67016     -1198.0033      235.89065     -962.11268     -107.67578      15.117731      15.117731      15.117731      0              0              0            
    273000   315.95596     -1221.6773      233.8815      -987.79585      2252.2469      14.726548      14.726548      14.726548      0              0              0            
    274000   326.50447     -1205.4842      241.68987     -963.79435      1128.5446      14.921399      14.921399      14.921399      0              0              0            
    275000   271.70811     -1210.7564      201.12772     -1009.6287      1278.3771      15.072889      15.072889      15.072889      0              0              0            
    276000   295.51462     -1193.4839      218.75012     -974.73383     -1299.6854      15.027579      15.027579      15.027579      0              0              0            
    277000   279.37399     -1188.1848      206.80226     -981.38249      1489.1871      14.743945      14.743945      14.743945      0              0              0            
    278000   299.81045     -1192.8706      221.93004     -970.94055     -2138.5724      14.946476      14.946476      14.946476      0              0              0            
    279000   272.92894     -1195.4438      202.03142     -993.41242     -636.69738      15.221228      15.221228      15.221228      0              0              0            
    280000   301.34687     -1229.4868      223.06735     -1006.4195     -745.86139      14.811682      14.811682      14.811682      0              0              0            
    281000   312.65354     -1196.3051      231.43693     -964.86818     -188.28989      14.875306      14.875306      14.875306      0              0              0            
    282000   312.08334     -1188.9238      231.01485     -957.90894     -573.54712      14.860809      14.860809      14.860809      0              0              0            
    283000   283.26488     -1196.7045      209.68243     -987.02203     -1451.8106      15.063813      15.063813      15.063813      0              0              0            
    284000   285.41092     -1202.4162      211.27101     -991.14521     -2244.2526      14.87661       14.87661       14.87661       0              0              0            
    285000   339.79524     -1231.0991      251.52816     -979.57097      883.24343      14.767384      14.767384      14.767384      0              0              0            
    286000   283.17298     -1201.9392      209.61441     -992.32483      1661.1502      14.885165      14.885165      14.885165      0              0              0            
    287000   302.44707     -1224.4491      223.88176     -1000.5674     -2297.227       15.071191      15.071191      15.071191      0              0              0            
    288000   315.6351      -1192.1593      233.64399     -958.51528     -1639.2511      15.076906      15.076906      15.076906      0              0              0            
    289000   304.57402     -1180.4296      225.4562      -954.97337      9.8113702      15.340201      15.340201      15.340201      0              0              0            
    290000   312.03223     -1198.0816      230.97702     -967.10459      139.98164      14.941789      14.941789      14.941789      0              0              0            
    291000   294.64889     -1205.4612      218.10927     -987.35196      1649.1106      15.089952      15.089952      15.089952      0              0              0            
    292000   286.29272     -1213.7629      211.92375     -1001.8391      1580.5515      14.980666      14.980666      14.980666      0              0              0            
    293000   301.71252     -1191.3677      223.33802     -968.02965      42.94706       14.900954      14.900954      14.900954      0              0              0            
    294000   293.71568     -1191.175       217.41848     -973.75657      892.31166      14.874274      14.874274      14.874274      0              0              0            
    295000   328.40271     -1186.3059      243.09502     -943.21087     -529.34002      15.270742      15.270742      15.270742      0              0              0            
    296000   292.00162     -1193.8469      216.14968     -977.69722      1140.4531      15.124618      15.124618      15.124618      0              0              0            
    297000   313.67056     -1214.8031      232.18977     -982.61333     -903.49233      14.959015      14.959015      14.959015      0              0              0            
    298000   295.64072     -1183.7582      218.84346     -964.91474     -833.61483      15.11225       15.11225       15.11225       0              0              0            
    299000   303.3397      -1161.2763      224.54251     -936.73383     -1942.2281      15.44659       15.44659       15.44659       0              0              0            
    300000   312.19616     -1189.948       231.09837     -958.8496       232.03383      15.080526      15.080526      15.080526      0              0              0            
    301000   322.13798     -1218.3506      238.45764     -979.89298      1306.5073      14.881927      14.881927      14.881927      0              0              0            
    302000   287.4862      -1224.5648      212.8072      -1011.7576      726.87184      14.883109      14.883109      14.883109      0              0              0            
    303000   308.51372     -1226.6115      228.3725      -998.23901     -1132.6023      15.206442      15.206442      15.206442      0              0              0            
    304000   287.70234     -1234.875       212.9672      -1021.9078     -985.56635      15.145121      15.145121      15.145121      0              0              0            
    305000   289.96962     -1220.3259      214.64552     -1005.6804      58.267621      15.063093      15.063093      15.063093      0              0              0            
    306000   293.70804     -1228.3917      217.41282     -1010.9789     -513.4018       14.947549      14.947549      14.947549      0              0              0            
    307000   295.3585      -1220.7069      218.63455     -1002.0723      1335.1553      14.87861       14.87861       14.87861       0              0              0            
    308000   255.08        -1167.4397      188.81901     -978.6207      -152.81245      15.091285      15.091285      15.091285      0              0              0            
    309000   300.08081     -1197.2734      222.13017     -975.14326     -1792.7462      15.08655       15.08655       15.08655       0              0              0            
    310000   303.92585     -1174.3432      224.9764      -949.36682      1596.6951      14.819982      14.819982      14.819982      0              0              0            
    311000   289.45912     -1199.7895      214.26763     -985.52187     -1678.8929      14.923103      14.923103      14.923103      0              0              0            
    312000   323.86684     -1194.6091      239.73741     -954.87166      2115.7523      15.059782      15.059782      15.059782      0              0              0            
    313000   292.67937     -1211.5917      216.65137     -994.94032     -515.55679      15.065857      15.065857      15.065857      0              0              0            
    314000   272.18287     -1185.296       201.47915     -983.81689     -333.36271      14.864097      14.864097      14.864097      0              0              0            
    315000   306.92011     -1208.7046      227.19285     -981.51173     -852.62714      15.00488       15.00488       15.00488       0              0              0            
    316000   295.2042      -1217.8407      218.52033     -999.32039     -582.85629      14.834628      14.834628      14.834628      0              0              0            
    317000   305.09912     -1218.1911      225.84489     -992.34617     -1242.3333      14.805805      14.805805      14.805805      0              0              0            
    318000   304.42455     -1187.2086      225.34555     -961.86301      1297.7501      14.81325       14.81325       14.81325       0              0              0            
    319000   285.18439     -1187.5147      211.10333     -976.41133     -1209.7554      15.057347      15.057347      15.057347      0              0              0            
    320000   311.0747      -1194.2933      230.26823     -964.02512     -1597.0511      14.977963      14.977963      14.977963      0              0              0            
    321000   315.84006     -1197.1921      233.79571     -963.39637     -279.74449      14.837988      14.837988      14.837988      0              0              0            
    322000   317.28844     -1193.3142      234.86785     -958.44633      2431.797       14.978725      14.978725      14.978725      0              0              0            
    323000   305.18063     -1210.3774      225.90523     -984.47213     -484.26713      14.875346      14.875346      14.875346      0              0              0            
    324000   275.16485     -1182.7722      203.68651     -979.0857      -694.01298      14.871082      14.871082      14.871082      0              0              0            
    325000   316.79225     -1212.5623      234.50055     -978.06175      559.39712      14.835004      14.835004      14.835004      0              0              0            
    326000   289.74181     -1252.981       214.47689     -1038.5041      985.49269      14.733037      14.733037      14.733037      0              0              0            
    327000   291.95913     -1217.181       216.11822     -1001.0628     -357.90898      15.131158      15.131158      15.131158      0              0              0            
    328000   329.78344     -1219.9125      244.11708     -975.79546     -812.51714      15.065703      15.065703      15.065703      0              0              0            
    329000   281.81718     -1215.3876      208.6108      -1006.7768     -1229.7278      15.157796      15.157796      15.157796      0              0              0            
    330000   314.42338     -1228.7189      232.74704     -995.97185      1732.1193      14.996798      14.996798      14.996798      0              0              0            
    331000   329.35466     -1230.2251      243.79968     -986.42546      1249.9325      14.825769      14.825769      14.825769      0              0              0            
    332000   302.3012      -1168.1725      223.77378     -944.39872     -37.628214      15.164223      15.164223      15.164223      0              0              0            
    333000   290.56352     -1218.8988      215.08514     -1003.8136     -1329.3601      15.229254      15.229254      15.229254      0              0              0            
    334000   301.32155     -1209.7722      223.0486      -986.72358      1190.0109      14.929059      14.929059      14.929059      0              0              0            
    335000   306.3652      -1216.6546      226.78209     -989.8725      -1471.8135      15.079034      15.079034      15.079034      0              0              0            
    336000   310.21046     -1178.5119      229.62848     -948.88346     -233.27775      15.135977      15.135977      15.135977      0              0              0            
    337000   320.70254     -1170.3586      237.39508     -932.96348      495.35013      15.068374      15.068374      15.068374      0              0              0            
    338000   305.86334     -1237.0269      226.4106      -1010.6163      389.72392      14.888644      14.888644      14.888644      0              0              0            
    339000   347.71044     -1203.7658      257.38726     -946.37851      773.9458       14.919996      14.919996      14.919996      0              0              0            
    340000   288.55488     -1207.4453      213.59827     -993.84701      529.96446      14.891342      14.891342      14.891342      0              0              0            
    341000   267.44965     -1193.371       197.97546     -995.39557     -613.82451      15.082754      15.082754      15.082754      0              0              0            
    342000   293.32461     -1199.2177      217.129       -982.08872      469.62662      14.897383      14.897383      14.897383      0              0              0            
    343000   299.5992      -1172.9388      221.77366     -951.16517      1351.0058      14.967522      14.967522      14.967522      0              0              0            
    344000   297.92914     -1229.7184      220.53743     -1009.1809      912.09521      14.957063      14.957063      14.957063      0              0              0            
    345000   295.47147     -1207.6692      218.71818     -988.95105      859.30161      15.016206      15.016206      15.016206      0              0              0            
    346000   271.90514     -1213.2697      201.27356     -1011.9962      1306.6487      14.913474      14.913474      14.913474      0              0              0            
    347000   316.64289     -1218.1523      234.38999     -983.76235      1316.6245      14.838829      14.838829      14.838829      0              0              0            
    348000   280.15612     -1226.254       207.38122     -1018.8728     -250.45208      14.769326      14.769326      14.769326      0              0              0            
    349000   335.47021     -1222.1294      248.32663     -973.80274     -274.79946      14.859732      14.859732      14.859732      0              0              0            
    350000   310.30216     -1231.376       229.69636     -1001.6796      423.29714      14.797886      14.797886      14.797886      0              0              0            
    351000   309.74972     -1212.9629      229.28743     -983.67543     -1974.4338      14.971865      14.971865      14.971865      0              0              0            
    352000   285.18126     -1207.1603      211.101       -996.05928      148.97116      15.017578      15.017578      15.017578      0              0              0            
    353000   316.75907     -1181.2114      234.47599     -946.73538      325.04831      15.113924      15.113924      15.113924      0              0              0            
    354000   312.30884     -1213.2603      231.18177     -982.07855      1592.4479      14.861266      14.861266      14.861266      0              0              0            
    355000   334.32906     -1187.7527      247.4819      -940.27083      4189.239       14.769979      14.769979      14.769979      0              0              0            
    356000   304.27091     -1219.0645      225.23182     -993.8327      -485.41967      14.866414      14.866414      14.866414      0              0              0            
    357000   303.70046     -1193.8326      224.80956     -969.02303     -1418.1455      15.127673      15.127673      15.127673      0              0              0            
    358000   322.08126     -1221.0937      238.41566     -982.67801     -905.16702      15.021748      15.021748      15.021748      0              0              0            
    359000   306.51248     -1225.7179      226.89111     -998.82683      1468.7163      14.772643      14.772643      14.772643      0              0              0            
    360000   287.20078     -1229.0197      212.59593     -1016.4237      991.15953      14.894814      14.894814      14.894814      0              0              0            
    361000   312.24646     -1210.4753      231.1356      -979.3397       1669.8815      15.030861      15.030861      15.030861      0              0              0            
    362000   301.23094     -1196.0388      222.98154     -973.05724      1534.4863      14.793638      14.793638      14.793638      0              0              0            
    363000   280.06697     -1193.1236      207.31523     -985.80837      925.20348      14.805168      14.805168      14.805168      0              0              0            
    364000   297.7452      -1228.542       220.40127     -1008.1408      619.71164      14.792977      14.792977      14.792977      0              0              0            
    365000   300.74877     -1220.4025      222.62461     -997.77785      900.71743      14.924912      14.924912      14.924912      0              0              0            
    366000   285.37456     -1172.4448      211.2441      -961.20074      1447.2007      15.174794      15.174794      15.174794      0              0              0            
    367000   317.48578     -1197.2207      235.01392     -962.20676     -2593.7594      15.168157      15.168157      15.168157      0              0              0            
    368000   291.51769     -1231.4551      215.79145     -1015.6636      158.3059       14.875571      14.875571      14.875571      0              0              0            
    369000   281.6867      -1196.963       208.51421     -988.44875     -1973.8081      15.394143      15.394143      15.394143      0              0              0            
    370000   302.33988     -1188.5222      223.80241     -964.71982      899.99361      14.795621      14.795621      14.795621      0              0              0            
    371000   292.38237     -1173.1654      216.43152     -956.73392      738.27324      15.015172      15.015172      15.015172      0              0              0            
    372000   292.34375     -1199.7289      216.40293     -983.326       -160.6536       15.085457      15.085457      15.085457      0              0              0            
    373000   276.11088     -1200.0544      204.3868      -995.66761     -1444.3266      15.135338      15.135338      15.135338      0              0              0            
    374000   291.94313     -1201.1417      216.10638     -985.03535     -1304.4577      14.836         14.836         14.836         0              0              0            
    375000   295.37135     -1177.9901      218.64406     -959.34601     -239.32553      14.975599      14.975599      14.975599      0              0              0            
    376000   291.86081     -1189.1346      216.04544     -973.08921     -2474.2137      14.925286      14.925286      14.925286      0              0              0            
    377000   304.3031      -1222.9828      225.25566     -997.72715     -1338.1796      14.831296      14.831296      14.831296      0              0              0            
    378000   316.57355     -1221.3834      234.33866     -987.04473      1024.1176      14.88532       14.88532       14.88532       0              0              0            
    379000   323.37631     -1225.1646      239.3743      -985.79027      597.35578      14.952109      14.952109      14.952109      0              0              0            
    380000   261.6357      -1230.49        193.67177     -1036.8182     -129.18866      15.004194      15.004194      15.004194      0              0              0            
    381000   278.87641     -1212.2168      206.43394     -1005.7829     -1609.3385      15.012915      15.012915      15.012915      0              0              0            
    382000   303.53407     -1207.6812      224.68639     -982.99484     -256.68658      14.932189      14.932189      14.932189      0              0              0            
    383000   310.28774     -1224.6268      229.68569     -994.94114      896.07919      14.962382      14.962382      14.962382      0              0              0            
    384000   303.1843      -1206.6518      224.42748     -982.22436      787.12858      14.834728      14.834728      14.834728      0              0              0            
    385000   329.24166     -1220.8171      243.71603     -977.10103      2000.6567      14.913333      14.913333      14.913333      0              0              0            
    386000   312.71095     -1183.5947      231.47943     -952.1153      -276.87747      15.016568      15.016568      15.016568      0              0              0            
    387000   324.43151     -1235.4879      240.15539     -995.3325      -1153.6645      15.053419      15.053419      15.053419      0              0              0            
    388000   310.33577     -1185.2772      229.72124     -955.55593     -217.45203      15.165129      15.165129      15.165129      0              0              0            
    389000   272.77662     -1226.9385      201.91867     -1025.0198      351.58731      15.164205      15.164205      15.164205      0              0              0            
    390000   310.85395     -1186.1611      230.10482     -956.05624      1731.581       15.019218      15.019218      15.019218      0              0              0            
    391000   299.94302     -1232.2288      222.02817     -1010.2006      123.37976      15.028544      15.028544      15.028544      0              0              0            
    392000   286.79462     -1196.9576      212.29527     -984.66229     -753.92203      15.190983      15.190983      15.190983      0              0              0            
    393000   287.53823     -1162.1207      212.84572     -949.27499     -59.474392      15.064812      15.064812      15.064812      0              0              0            
    394000   283.20209     -1218.316       209.63595     -1008.68        718.81856      14.910801      14.910801      14.910801      0              0              0            
    395000   282.31556     -1220.6322      208.97971     -1011.6525     -907.54169      15.06005       15.06005       15.06005       0              0              0            
    396000   287.99869     -1205.6161      213.18656     -992.42956     -849.54641      15.031341      15.031341      15.031341      0              0              0            
    397000   289.19381     -1156.8666      214.07124     -942.79539     -661.05604      15.168946      15.168946      15.168946      0              0              0            
    398000   302.73555     -1226.5787      224.09529     -1002.4834     -483.57678      15.026852      15.026852      15.026852      0              0              0            
    399000   319.15652     -1227.294       236.25067     -991.04337      221.727        14.874432      14.874432      14.874432      0              0              0            
    400000   294.09252     -1239.3046      217.69742     -1021.6072      342.60842      15.0399        15.0399        15.0399        0              0              0            
    401000   308.27005     -1185.7441      228.19213     -957.55197     -741.41791      15.199686      15.199686      15.199686      0              0              0            
    402000   317.78142     -1187.1367      235.23277     -951.90396     -537.77822      15.05359       15.05359       15.05359       0              0              0            
    403000   314.71485     -1197.2247      232.96279     -964.2619       2607.156       15.000223      15.000223      15.000223      0              0              0            
    404000   307.463       -1211.9177      227.59472     -984.32299     -1578.029       14.762282      14.762282      14.762282      0              0              0            
    405000   288.0148      -1186.266       213.19849     -973.06751      1656.9637      14.898691      14.898691      14.898691      0              0              0            
    406000   284.93573     -1225.2708      210.91925     -1014.3516      2072.7458      14.865015      14.865015      14.865015      0              0              0            
    407000   273.88478     -1232.2198      202.73896     -1029.4808     -566.47054      15.017126      15.017126      15.017126      0              0              0            
    408000   282.07246     -1200.0683      208.79977     -991.26854      1334.0416      14.88913       14.88913       14.88913       0              0              0            
    409000   300.57672     -1192.5213      222.49726     -970.02407      1140.2148      14.874508      14.874508      14.874508      0              0              0            
    410000   297.11455     -1220.7986      219.93444     -1000.8642      939.21592      14.876405      14.876405      14.876405      0              0              0            
    411000   300.53285     -1244.4433      222.46478     -1021.9786     -243.57245      14.72854       14.72854       14.72854       0              0              0            
    412000   288.65804     -1187.4804      213.67464     -973.8058       2170.8225      14.985387      14.985387      14.985387      0              0              0            
    413000   306.44616     -1205.1237      226.84202     -978.28172     -790.02344      14.88614       14.88614       14.88614       0              0              0            
    414000   281.04357     -1206.1045      208.03815     -998.06636      155.23226      14.863143      14.863143      14.863143      0              0              0            
    415000   290.03245     -1182.2617      214.69202     -967.56964     -986.5698       15.235345      15.235345      15.235345      0              0              0            
    416000   271.39026     -1211.3357      200.89243     -1010.4433     -749.67974      15.239443      15.239443      15.239443      0              0              0            
    417000   295.16216     -1186.8808      218.48921     -968.39162      1206.1233      15.03698       15.03698       15.03698       0              0              0            
    418000   288.84708     -1191.3153      213.81457     -977.5007      -2063.7388      15.19232       15.19232       15.19232       0              0              0            
    419000   285.67786     -1185.2322      211.4686      -973.76357     -1051.149       15.088648      15.088648      15.088648      0              0              0            
    420000   318.10592     -1204.9787      235.47297     -969.50575      226.40899      15.071382      15.071382      15.071382      0              0              0            
    421000   314.08082     -1166.2031      232.49345     -933.70963     -1069.405       15.422228      15.422228      15.422228      0              0              0            
    422000   305.68654     -1214.5679      226.27972     -988.2882      -111.93248      14.798809      14.798809      14.798809      0              0              0            
    423000   268.22869     -1217.3895      198.55213     -1018.8374      452.57296      14.596534      14.596534      14.596534      0              0              0            
    424000   296.26112     -1176.1828      219.3027      -956.88007     -1376.2863      15.246015      15.246015      15.246015      0              0              0            
    425000   289.811       -1201.8374      214.5281      -987.30926     -602.71162      14.882385      14.882385      14.882385      0              0              0            
    426000   294.65694     -1214.9007      218.11523     -996.78542     -2600.6414      15.019523      15.019523      15.019523      0              0              0            
    427000   317.79757     -1206.9123      235.24473     -971.66756     -2475.8968      15.115809      15.115809      15.115809      0              0              0            
    428000   340.33019     -1206.6462      251.92415     -954.72207     -1389.2701      15.175468      15.175468      15.175468      0              0              0            
    429000   276.50816     -1201.8882      204.68088     -997.20734     -51.307804      15.008654      15.008654      15.008654      0              0              0            
    430000   293.12286     -1215.8926      216.97965     -998.9129      -864.44202      14.859751      14.859751      14.859751      0              0              0            
    431000   308.52883     -1232.6744      228.38369     -1004.2907      1976.7001      14.586396      14.586396      14.586396      0              0              0            
    432000   297.76719     -1215.6697      220.41755     -995.25212      198.00449      14.809018      14.809018      14.809018      0              0              0            
    433000   302.21046     -1190.532       223.70661     -966.82537     -606.72598      14.889354      14.889354      14.889354      0              0              0            
    434000   310.68279     -1213.453       229.97812     -983.47492      1812.4431      14.988286      14.988286      14.988286      0              0              0            
    435000   269.78237     -1185.4456      199.70221     -985.74338     -1013.3192      15.065873      15.065873      15.065873      0              0              0            
    436000   320.17654     -1203.0295      237.00572     -966.02375      2000.5173      14.996552      14.996552      14.996552      0              0              0            
    437000   336.43393     -1177.3366      249.04        -928.29658      1577.5739      15.157581      15.157581      15.157581      0              0              0            
    438000   301.16564     -1174.2133      222.9332      -951.28008     -408.20526      15.06475       15.06475       15.06475       0              0              0            
    439000   297.36674     -1230.5707      220.12112     -1010.4496      1669.5141      14.850702      14.850702      14.850702      0              0              0            
    440000   289.2171      -1216.0223      214.08847     -1001.9339      265.70961      14.801069      14.801069      14.801069      0              0              0            
    441000   309.68365     -1210.3789      229.23852     -981.14039     -29.140493      15.010795      15.010795      15.010795      0              0              0            
    442000   301.11135     -1213.0475      222.89301     -990.15451      282.77345      14.735247      14.735247      14.735247      0              0              0            
    443000   286.19022     -1192.8099      211.84787     -980.96203     -1404.618       14.91519       14.91519       14.91519       0              0              0            
    444000   274.87643     -1179.8096      203.47301     -976.33657     -2484.8471      15.101985      15.101985      15.101985      0              0              0            
    445000   288.55197     -1207.336       213.59612     -993.73988     -2629.2231      14.991653      14.991653      14.991653      0              0              0            
    446000   318.42181     -1187.0587      235.70681     -951.35189     -762.97295      15.208748      15.208748      15.208748      0              0              0            
    447000   305.10062     -1196.0598      225.846       -970.21378     -924.21052      15.107398      15.107398      15.107398      0              0              0            
    448000   316.51494     -1206.4182      234.29527     -972.12295      359.01502      14.844575      14.844575      14.844575      0              0              0            
    449000   330.92478     -1194.6882      244.96194     -949.72626      514.50713      14.84666       14.84666       14.84666       0              0              0            
    450000   296.28424     -1190.82        219.31982     -971.50022     -55.087184      14.963606      14.963606      14.963606      0              0              0            
    451000   317.32703     -1208.1689      234.89641     -973.27245      1362.6941      14.892919      14.892919      14.892919      0              0              0            
    452000   271.44171     -1189.6632      200.93052     -988.73267     -1067.0618      15.216216      15.216216      15.216216      0              0              0            
    453000   278.7995      -1199.2551      206.37701     -992.87806     -559.7791       14.937609      14.937609      14.937609      0              0              0            
    454000   299.63177     -1204.5115      221.79777     -982.71373      749.20391      14.986538      14.986538      14.986538      0              0              0            
    455000   276.42357     -1205.8806      204.61826     -1001.2623     -942.91452      15.080615      15.080615      15.080615      0              0              0            
    456000   287.65288     -1225.7247      212.93058     -1012.7941     -110.50252      14.891029      14.891029      14.891029      0              0              0            
    457000   298.2272      -1195.4339      220.75806     -974.67587     -173.66949      14.907345      14.907345      14.907345      0              0              0            
    458000   286.00143     -1210.3657      211.70812     -998.65755      896.63286      14.855168      14.855168      14.855168      0              0              0            
    459000   314.82773     -1209.4727      233.04634     -976.42635      1249.7216      14.901941      14.901941      14.901941      0              0              0            
    460000   323.00023     -1213.541       239.09591     -974.44507      1544.3614      14.778018      14.778018      14.778018      0              0              0            
    461000   295.69173     -1180.7469      218.88122     -961.86566     -284.82297      15.083463      15.083463      15.083463      0              0              0            
    462000   303.10449     -1214.9527      224.3684      -990.58432      1074.8456      14.950195      14.950195      14.950195      0              0              0            
    463000   312.06888     -1213.8079      231.00415     -982.80375     -406.90153      15.135025      15.135025      15.135025      0              0              0            
    464000   314.16931     -1153.615       232.55896     -921.05601     -649.76728      15.471659      15.471659      15.471659      0              0              0            
    465000   317.94504     -1196.1042      235.35389     -960.75027     -572.2007       15.136859      15.136859      15.136859      0              0              0            
    466000   294.11154     -1206.3517      217.71151     -988.64023     -1725.6881      15.101328      15.101328      15.101328      0              0              0            
    467000   288.92345     -1210.6757      213.8711      -996.80463      268.17918      15.21654       15.21654       15.21654       0              0              0            
    468000   308.67375     -1211.7744      228.49096     -983.2834      -751.90286      14.853469      14.853469      14.853469      0              0              0            
    469000   296.07219     -1192.6255      219.16285     -973.46261     -1238.6627      14.841224      14.841224      14.841224      0              0              0            
    470000   299.31718     -1212.8232      221.5649      -991.25828      79.142881      14.978034      14.978034      14.978034      0              0              0            
    471000   293.72046     -1205.3693      217.42202     -987.94731      1405.5531      15.072946      15.072946      15.072946      0              0              0            
    472000   315.06872     -1168.0611      233.22473     -934.8364       24.472712      15.131258      15.131258      15.131258      0              0              0            
    473000   287.36813     -1227.9209      212.7198      -1015.2011     -1988.056       14.909548      14.909548      14.909548      0              0              0            
    474000   294.65525     -1257.2563      218.11398     -1039.1423     -884.7683       14.891306      14.891306      14.891306      0              0              0            
    475000   313.88424     -1199.8083      232.34795     -967.46033     -915.07068      15.04992       15.04992       15.04992       0              0              0            
    476000   284.62547     -1197.9758      210.68959     -987.2862      -882.193        15.119256      15.119256      15.119256      0              0              0            
    477000   314.54381     -1198.4324      232.83618     -965.59626      717.72046      15.313533      15.313533      15.313533      0              0              0            
    478000   262.78198     -1200.0934      194.52029     -1005.5731     -1907.6774      15.246119      15.246119      15.246119      0              0              0            
    479000   282.80577     -1240.0981      209.34259     -1030.7555      1437.4006      14.798983      14.798983      14.798983      0              0              0            
    480000   280.42654     -1177.276       207.5814      -969.69456      322.60002      15.112942      15.112942      15.112942      0              0              0            
    481000   292.18128     -1235.5922      216.28266     -1019.3095     -745.86625      14.729815      14.729815      14.729815      0              0              0            
    482000   275.31811     -1235.2417      203.79996     -1031.4417      494.22478      14.92904       14.92904       14.92904       0              0              0            
    483000   284.64212     -1208.4288      210.70192     -997.72689      2779.6661      14.850622      14.850622      14.850622      0              0              0            
    484000   310.57596     -1180.6904      229.89904     -950.79135     -1300.5105      15.253639      15.253639      15.253639      0              0              0            
    485000   308.38552     -1189.176       228.2776      -960.89843      926.21441      15.276346      15.276346      15.276346      0              0              0            
    486000   305.70048     -1182.5046      226.29004     -956.21459      573.88906      15.047628      15.047628      15.047628      0              0              0            
    487000   302.01075     -1200.0956      223.55877     -976.53683     -1312.1902      15.002402      15.002402      15.002402      0              0              0            
    488000   285.80907     -1193.3883      211.56573     -981.82258     -502.87056      15.03943       15.03943       15.03943       0              0              0            
    489000   298.74966     -1229.9241      221.14481     -1008.7793      42.822923      14.785081      14.785081      14.785081      0              0              0            
    490000   310.02849     -1196.7247      229.49379     -967.23093     -1443.8485      15.05618       15.05618       15.05618       0              0              0            
    491000   320.66179     -1183.8175      237.36492     -946.45257     -483.05326      15.002217      15.002217      15.002217      0              0              0            
    492000   303.20035     -1217.1927      224.43936     -992.75333      1435.0535      14.860078      14.860078      14.860078      0              0              0            
    493000   287.07297     -1223.3847      212.50132     -1010.8834     -1055.8994      15.026146      15.026146      15.026146      0              0              0            
    494000   285.63252     -1226.2858      211.43504     -1014.8507     -593.01219      14.983673      14.983673      14.983673      0              0              0            
    495000   300.45536     -1243.8612      222.40742     -1021.4538      940.76496      14.970226      14.970226      14.970226      0              0              0            
    496000   285.04164     -1201.7268      210.99766     -990.72912      675.18269      14.995368      14.995368      14.995368      0              0              0            
    497000   295.76905     -1185.4064      218.93846     -966.46794      1763.2758      14.880567      14.880567      14.880567      0              0              0            
    498000   311.43513     -1184.7507      230.53503     -954.21564      440.52104      15.223295      15.223295      15.223295      0              0              0            
    499000   297.35622     -1217.9418      220.11333     -997.82852      1558.3         15.076497      15.076497      15.076497      0              0              0            
    500000   327.59928     -1224.7661      242.50029     -982.26582      1233.1464      14.993227      14.993227      14.993227      0              0              0            
    501000   300.65018     -1189.1955      222.55164     -966.64383      347.11666      15.081276      15.081276      15.081276      0              0              0            
    502000   283.70307     -1250.5022      210.0068      -1040.4954      74.164681      14.719399      14.719399      14.719399      0              0              0            
    503000   263.71533     -1212.5007      195.21119     -1017.2895     -695.6935       14.775527      14.775527      14.775527      0              0              0            
    504000   284.69195     -1183.4212      210.7388      -972.6824      -2119.1701      15.057716      15.057716      15.057716      0              0              0            
    505000   283.76145     -1192.2718      210.05001     -982.22175     -965.67705      15.011258      15.011258      15.011258      0              0              0            
    506000   294.45058     -1191.0775      217.96248     -973.11505      1274.9158      15.023797      15.023797      15.023797      0              0              0            
    507000   299.65415     -1187.3201      221.81434     -965.50575     -541.29175      14.932679      14.932679      14.932679      0              0              0            
    508000   326.38026     -1193.0219      241.59793     -951.42397     -1374.4043      15.203316      15.203316      15.203316      0              0              0            
    509000   288.03962     -1196.2191      213.21686     -983.00225      1571.9315      15.011236      15.011236      15.011236      0              0              0            
    510000   298.63135     -1172.8074      221.05722     -951.7502       582.86561      15.044586      15.044586      15.044586      0              0              0            
    511000   319.04514     -1196.4477      236.16822     -960.27945      339.0871       14.911434      14.911434      14.911434      0              0              0            
    512000   310.29758     -1159.5941      229.69297     -929.90114     -1185.4608      15.065536      15.065536      15.065536      0              0              0            
    513000   302.48686     -1193.4095      223.91121     -969.49833     -1093.2355      15.038         15.038         15.038         0              0              0            
    514000   302.10607     -1206.0638      223.62933     -982.43446      1241.5453      14.803611      14.803611      14.803611      0              0              0            
    515000   312.87114     -1225.8437      231.59801     -994.24567     -2114.7255      14.989348      14.989348      14.989348      0              0              0            
    516000   285.23862     -1213.0779      211.14346     -1001.9345      453.43241      14.81753       14.81753       14.81753       0              0              0            
    517000   305.65073     -1183.0996      226.25322     -956.84641      1641.3596      15.077901      15.077901      15.077901      0              0              0            
    518000   305.09698     -1194.1571      225.84331     -968.31375      572.77266      14.983034      14.983034      14.983034      0              0              0            
    519000   287.43618     -1199.7313      212.77017     -986.96111      2637.2716      14.902778      14.902778      14.902778      0              0              0            
    520000   298.21219     -1209.7874      220.74695     -989.04042      885.5804       14.879354      14.879354      14.879354      0              0              0            
    521000   318.78681     -1188.9005      235.97699     -952.92351     -134.61748      15.067494      15.067494      15.067494      0              0              0            
    522000   298.48188     -1191.4807      220.94658     -970.53409     -576.18247      15.308646      15.308646      15.308646      0              0              0            
    523000   286.57522     -1214.5487      212.13286     -1002.4158     -209.91248      14.777099      14.777099      14.777099      0              0              0            
    524000   297.72991     -1226.9753      220.38995     -1006.5854     -1271.5729      14.824323      14.824323      14.824323      0              0              0            
    525000   301.67464     -1215.7315      223.30998     -992.42153     -1220.9744      14.839983      14.839983      14.839983      0              0              0            
    526000   302.82199     -1230.966       224.15928     -1006.8067      183.23423      14.822282      14.822282      14.822282      0              0              0            
    527000   287.68289     -1219.976       212.9528      -1007.0232     -1461.98        15.023716      15.023716      15.023716      0              0              0            
    528000   294.41484     -1215.4481      217.93602     -997.51204     -291.65063      14.88292       14.88292       14.88292       0              0              0            
    529000   303.30126     -1199.2456      224.51406     -974.73154     -1342.5289      14.985953      14.985953      14.985953      0              0              0            
    530000   298.11263     -1191.6985      220.67325     -971.02524      1084.3764      14.980267      14.980267      14.980267      0              0              0            
    531000   282.2833      -1205.2719      208.95583     -996.31608      106.53253      14.974304      14.974304      14.974304      0              0              0            
    532000   278.47605     -1185.4317      206.13758     -979.29411      398.06355      14.875502      14.875502      14.875502      0              0              0            
    533000   310.65379     -1184.2509      229.95665     -954.29427     -737.47153      14.791257      14.791257      14.791257      0              0              0            
    534000   283.36622     -1218.0757      209.75745     -1008.3183     -363.38882      14.977532      14.977532      14.977532      0              0              0            
    535000   338.14505     -1215.6262      250.30663     -965.31962      1392.1073      14.910443      14.910443      14.910443      0              0              0            
    536000   315.56172     -1223.2848      233.58967     -989.69513     -210.36334      15.224787      15.224787      15.224787      0              0              0            
    537000   341.64325     -1172.27        252.89612     -919.3739      -199.81266      15.052189      15.052189      15.052189      0              0              0            
    538000   315.40616     -1192.6883      233.47452     -959.21379      921.58068      15.017982      15.017982      15.017982      0              0              0            
    539000   311.45814     -1205.543       230.55206     -974.99098     -118.81452      14.84252       14.84252       14.84252       0              0              0            
    540000   297.80778     -1184.7729      220.44759     -964.32527     -529.45742      15.211151      15.211151      15.211151      0              0              0            
    541000   308.92657     -1178.1128      228.67811     -949.43468     -944.89256      15.248037      15.248037      15.248037      0              0              0            
    542000   298.22374     -1194.2873      220.7555      -973.53177     -568.55628      15.076542      15.076542      15.076542      0              0              0            
    543000   293.1915      -1185.6041      217.03046     -968.57365      828.70843      14.839582      14.839582      14.839582      0              0              0            
    544000   297.07994     -1166.4929      219.90882     -946.58412     -709.43186      15.104014      15.104014      15.104014      0              0              0            
    545000   317.75086     -1186.716       235.21015     -951.50588      1786.9265      14.960953      14.960953      14.960953      0              0              0            
    546000   257.64534     -1200.958       190.71796     -1010.2401      1674.3093      14.995407      14.995407      14.995407      0              0              0            
    547000   330.89716     -1182.7943      244.94149     -937.85277     -1601.5596      15.253264      15.253264      15.253264      0              0              0            
    548000   286.77876     -1232.3268      212.28353     -1020.0432     -1319.5556      14.856368      14.856368      14.856368      0              0              0            
    549000   287.36305     -1193.0715      212.71604     -980.35546     -297.59141      15.012594      15.012594      15.012594      0              0              0            
    550000   322.80745     -1193.7737      238.95321     -954.82051      1199.0668      14.938654      14.938654      14.938654      0              0              0            
    551000   280.62584     -1189.2531      207.72893     -981.52414     -255.28392      15.187959      15.187959      15.187959      0              0              0            
    552000   337.70969     -1177.1237      249.98436     -927.13934     -2809.6417      15.152966      15.152966      15.152966      0              0              0            
    553000   301.81606     -1190.9459      223.41466     -967.53125     -1142.7531      14.989317      14.989317      14.989317      0              0              0            
    554000   320.55822     -1201.3751      237.28825     -964.08682     -326.37921      14.902484      14.902484      14.902484      0              0              0            
    555000   322.8482      -1177.2292      238.98337     -938.24578     -665.18039      15.105682      15.105682      15.105682      0              0              0            
    556000   316.88256     -1245.6073      234.56741     -1011.0399     -1207.2221      15.364954      15.364954      15.364954      0              0              0            
    557000   297.45432     -1200.1146      220.18595     -979.92864     -2879.3266      15.086703      15.086703      15.086703      0              0              0            
    558000   325.72211     -1217.6753      241.11074     -976.56455     -1807.9713      15.085592      15.085592      15.085592      0              0              0            
    559000   318.12705     -1237.1104      235.48862     -1001.6218     -273.01919      14.856798      14.856798      14.856798      0              0              0            
    560000   276.27874     -1188.8073      204.51105     -984.29622     -1142.462       14.919336      14.919336      14.919336      0              0              0            
    561000   313.90881     -1202.571       232.36613     -970.20485      1099.5225      14.730714      14.730714      14.730714      0              0              0            
    562000   289.61576     -1183.1488      214.38357     -968.76518     -182.67948      15.050975      15.050975      15.050975      0              0              0            
    563000   313.37403     -1172.5475      231.97026     -940.57728     -688.15211      15.216134      15.216134      15.216134      0              0              0            
    564000   303.34825     -1198.6815      224.54884     -974.13263      465.60568      15.008148      15.008148      15.008148      0              0              0            
    565000   300.56807     -1208.2047      222.49085     -985.71382     -470.83748      15.168599      15.168599      15.168599      0              0              0            
    566000   301.43279     -1171.9353      223.13095     -948.80436     -353.54031      15.198692      15.198692      15.198692      0              0              0            
    567000   303.35934     -1199.4591      224.55705     -974.90208     -850.26914      15.378955      15.378955      15.378955      0              0              0            
    568000   292.3301      -1221.3275      216.39282     -1004.9347      1151.1644      14.929822      14.929822      14.929822      0              0              0            
    569000   296.1684      -1202.3334      219.23407     -983.09932      2328.0333      14.758463      14.758463      14.758463      0              0              0            
    570000   301.6706      -1202.8104      223.30698     -979.50342      1253.1305      14.798389      14.798389      14.798389      0              0              0            
    571000   285.49098     -1199.598       211.33027     -988.26776     -1227.861       15.028919      15.028919      15.028919      0              0              0            
    572000   320.60161     -1221.4157      237.32037     -984.09531      369.20368      15.090321      15.090321      15.090321      0              0              0            
    573000   311.197       -1196.277       230.35876     -965.91826      1872.7532      15.109287      15.109287      15.109287      0              0              0            
    574000   295.92115     -1222.1114      219.05105     -1003.0604      93.718377      14.78677       14.78677       14.78677       0              0              0            
    575000   296.99383     -1214.2214      219.84508     -994.37632      90.940901      15.049172      15.049172      15.049172      0              0              0            
    576000   310.87156     -1186.5346      230.11785     -956.41671     -375.45154      15.14063       15.14063       15.14063       0              0              0            
    577000   289.81705     -1211.9687      214.53258     -997.43615      607.46294      14.936677      14.936677      14.936677      0              0              0            
    578000   306.06101     -1209.4772      226.55692     -982.92028     -2829.2498      15.057773      15.057773      15.057773      0              0              0            
    579000   288.67077     -1214.5283      213.68406     -1000.8443     -1374.2284      15.087865      15.087865      15.087865      0              0              0            
    580000   310.85415     -1209.5016      230.10497     -979.39666      345.06789      14.943196      14.943196      14.943196      0              0              0            
    581000   334.86956     -1225.4876      247.882       -977.6056       910.79536      15.061153      15.061153      15.061153      0              0              0            
    582000   327.5811      -1219.7518      242.48683     -977.26495      1076.6266      14.911877      14.911877      14.911877      0              0              0            
    583000   306.23346     -1165.4098      226.68457     -938.72525      187.38805      15.301278      15.301278      15.301278      0              0              0            
    584000   299.89476     -1203.3275      221.99245     -981.33506     -1574.1083      15.234833      15.234833      15.234833      0              0              0            
    585000   301.67066     -1202.2263      223.30703     -978.91931     -140.4102       15.0254        15.0254        15.0254        0              0              0            
    586000   294.87318     -1187.7943      218.2753      -969.51896     -1632.5856      14.978665      14.978665      14.978665      0              0              0            
    587000   324.99284     -1192.5328      240.57091     -951.96187      2562.3971      14.886308      14.886308      14.886308      0              0              0            
    588000   277.74345     -1171.6991      205.59528     -966.10382      1022.8443      15.13314       15.13314       15.13314       0              0              0            
    589000   317.33031     -1222.233       234.89884     -987.3342       2353.0708      14.908562      14.908562      14.908562      0              0              0            
    590000   312.68692     -1206.1963      231.46164     -974.73468     -519.47616      15.240837      15.240837      15.240837      0              0              0            
    591000   299.13169     -1202.8813      221.4276      -981.45372     -724.92206      14.954725      14.954725      14.954725      0              0              0            
    592000   316.1601      -1192.8514      234.03261     -958.81877     -1952.5762      15.087115      15.087115      15.087115      0              0              0            
    593000   290.58694     -1195.8027      215.10248     -980.70026     -633.0377       14.936936      14.936936      14.936936      0              0              0            
    594000   292.57064     -1247.8669      216.57088     -1031.2961      239.6475       14.801688      14.801688      14.801688      0              0              0            
    595000   310.11818     -1203.0991      229.56017     -973.53898      1363.0078      14.967874      14.967874      14.967874      0              0              0            
    596000   296.892       -1195.5185      219.7697      -975.74877      2310.2636      14.961178      14.961178      14.961178      0              0              0            
    597000   276.20244     -1208.3198      204.45458     -1003.8653     -1235.3002      15.040162      15.040162      15.040162      0              0              0            
    598000   311.35973     -1194.3763      230.47921     -963.89713     -838.3006       15.034214      15.034214      15.034214      0              0              0            
    599000   293.51535     -1194.1854      217.27019     -976.9152      -458.36227      15.137482      15.137482      15.137482      0              0              0            
    600000   307.85962     -1207.2888      227.88831     -979.40052     -904.07049      15.023398      15.023398      15.023398      0              0              0            
    601000   297.30707     -1219.1012      220.07695     -999.02426     -938.14894      15.041879      15.041879      15.041879      0              0              0            
    602000   275.96036     -1218.91        204.27538     -1014.6347     -502.05023      15.173207      15.173207      15.173207      0              0              0            
    603000   309.53197     -1198.8477      229.12624     -969.7215       91.673099      15.005534      15.005534      15.005534      0              0              0            
    604000   306.79191     -1219.4408      227.09796     -992.34282      1738.1458      14.776949      14.776949      14.776949      0              0              0            
    605000   256.79052     -1213.9843      190.0852      -1023.8991      665.67196      14.634433      14.634433      14.634433      0              0              0            
    606000   290.76163     -1196.8523      215.23179     -981.62047     -456.10941      15.088375      15.088375      15.088375      0              0              0            
    607000   282.8562      -1177.5725      209.37992     -968.19258      2369.6631      15.326541      15.326541      15.326541      0              0              0            
    608000   293.25016     -1180.8047      217.07388     -963.7308       7.6897009      15.079967      15.079967      15.079967      0              0              0            
    609000   301.26603     -1184.2634      223.0075      -961.25591      271.2169       14.986696      14.986696      14.986696      0              0              0            
    610000   274.84234     -1200.8917      203.44778     -997.44395      1465.9929      15.024852      15.024852      15.024852      0              0              0            
    611000   305.51817     -1215.5703      226.15509     -989.41519     -576.88018      15.129502      15.129502      15.129502      0              0              0            
    612000   284.13175     -1198.5368      210.32412     -988.21265      252.36634      14.775312      14.775312      14.775312      0              0              0            
    613000   282.15026     -1182.3408      208.85735     -973.48345      679.39114      14.960585      14.960585      14.960585      0              0              0            
    614000   303.76239     -1195.9591      224.8554      -971.10374      1181.5345      15.033056      15.033056      15.033056      0              0              0            
    615000   321.64938     -1198.6626      238.09597     -960.56662     -1444.2321      15.135951      15.135951      15.135951      0              0              0            
    616000   303.81382     -1225.7386      224.89347     -1000.8451      162.89137      14.799988      14.799988      14.799988      0              0              0            
    617000   276.18315     -1186.0311      204.44029     -981.59081     -718.42369      15.012707      15.012707      15.012707      0              0              0            
    618000   302.65645     -1205.3353      224.03675     -981.2986       1187.8077      14.865559      14.865559      14.865559      0              0              0            
    619000   318.21836     -1177.9601      235.55621     -942.40388     -655.18329      14.895964      14.895964      14.895964      0              0              0            
    620000   302.3504      -1186.3496      223.81019     -962.53941     -235.84872      14.979653      14.979653      14.979653      0              0              0            
    621000   282.30772     -1196.3857      208.97391     -987.41181     -423.26261      15.168446      15.168446      15.168446      0              0              0            
    622000   318.49356     -1169.8341      235.75992     -934.0742       453.09856      15.026388      15.026388      15.026388      0              0              0            
    623000   313.1824      -1215.5551      231.82842     -983.72667     -806.91716      14.846668      14.846668      14.846668      0              0              0            
    624000   307.94689     -1217.4924      227.95291     -989.53952     -242.7434       14.900501      14.900501      14.900501      0              0              0            
    625000   297.01069     -1191.4673      219.85756     -971.60972     -1635.4832      15.095219      15.095219      15.095219      0              0              0            
    626000   261.80337     -1194.827       193.79589     -1001.0311     -753.94154      15.058944      15.058944      15.058944      0              0              0            
    627000   271.53874     -1230.0893      201.00234     -1029.0869     -380.80567      14.835772      14.835772      14.835772      0              0              0            
    628000   285.82914     -1211.1527      211.58059     -999.57207      1035.3495      14.879337      14.879337      14.879337      0              0              0            
    629000   291.02742     -1221.2809      215.42854     -1005.8523     -1363.9371      14.982705      14.982705      14.982705      0              0              0            
    630000   302.81018     -1192.1882      224.15054     -968.03767     -1840.1851      15.079346      15.079346      15.079346      0              0              0            
    631000   301.06633     -1203.6386      222.85968     -980.77895     -2542.8318      14.972989      14.972989      14.972989      0              0              0            
    632000   303.72994     -1238.8876      224.83138     -1014.0562     -1401.3458      14.987534      14.987534      14.987534      0              0              0            
    633000   306.39931     -1219.0046      226.80734     -992.19724      636.39409      14.669122      14.669122      14.669122      0              0              0            
    634000   304.67862     -1175.3826      225.53362     -949.84902      88.485386      15.240621      15.240621      15.240621      0              0              0            
    635000   283.04597     -1190.0813      209.52039     -980.56096     -153.41772      14.924714      14.924714      14.924714      0              0              0            
    636000   327.55281     -1214.9692      242.46589     -972.50334     -1162.078       15.205802      15.205802      15.205802      0              0              0            
    637000   298.18944     -1184.0881      220.73011     -963.35803      334.65419      14.935922      14.935922      14.935922      0              0              0            
    638000   281.14859     -1203.8059      208.11589     -995.69         559.67703      14.974222      14.974222      14.974222      0              0              0            
    639000   275.68927     -1207.2055      204.07471     -1003.1308      867.05961      15.151047      15.151047      15.151047      0              0              0            
    640000   291.75832     -1200.0463      215.96957     -984.07672     -1148.538       15.100014      15.100014      15.100014      0              0              0            
    641000   317.64987     -1196.1799      235.13539     -961.04454     -198.21902      15.043803      15.043803      15.043803      0              0              0            
    642000   285.0121      -1194.5369      210.97578     -983.56114     -580.06762      15.187361      15.187361      15.187361      0              0              0            
    643000   305.0288      -1177.338       225.79284     -951.54513     -447.78028      15.042603      15.042603      15.042603      0              0              0            
    644000   314.04037     -1192.8754      232.46351     -960.41194      105.25206      14.83167       14.83167       14.83167       0              0              0            
    645000   307.65695     -1245.5982      227.73829     -1017.8599      384.07488      14.843796      14.843796      14.843796      0              0              0            
    646000   296.95452     -1194.4988      219.81598     -974.68281     -923.06676      15.161092      15.161092      15.161092      0              0              0            
    647000   293.36851     -1179.3245      217.16149     -962.16298     -1383.3389      15.049905      15.049905      15.049905      0              0              0            
    648000   291.34868     -1206.0393      215.66635     -990.373       -984.43418      14.89021       14.89021       14.89021       0              0              0            
    649000   308.99412     -1204.4453      228.72811     -975.71719      895.71781      14.896655      14.896655      14.896655      0              0              0            
    650000   320.34051     -1204.6228      237.1271      -967.49569      564.21739      14.989574      14.989574      14.989574      0              0              0            
    651000   329.55762     -1227.3899      243.94992     -983.43999      971.24679      15.048426      15.048426      15.048426      0              0              0            
    652000   320.99519     -1206.9582      237.61171     -969.34653      909.07604      14.835799      14.835799      14.835799      0              0              0            
    653000   312.62857     -1194.4649      231.41845     -963.04646     -1040.6866      15.067268      15.067268      15.067268      0              0              0            
    654000   287.42931     -1220.3138      212.76509     -1007.5487     -615.55104      15.070421      15.070421      15.070421      0              0              0            
    655000   312.58966     -1207.546       231.38965     -976.15635     -226.96955      15.050117      15.050117      15.050117      0              0              0            
    656000   288.12286     -1192.9131      213.27848     -979.6346      -1249.4237      15.024966      15.024966      15.024966      0              0              0            
    657000   303.62901     -1212.3995      224.75667     -987.64283      647.80902      15.090245      15.090245      15.090245      0              0              0            
    658000   298.07573     -1216.8743      220.64594     -996.22832     -159.23456      15.044379      15.044379      15.044379      0              0              0            
    659000   312.42223     -1218.1136      231.26571     -986.8479      -3013.3569      15.054768      15.054768      15.054768      0              0              0            
    660000   297.76011     -1190.6348      220.4123      -970.22252      270.78655      14.862029      14.862029      14.862029      0              0              0            
    661000   299.37145     -1196.0821      221.60508     -974.47699     -247.50841      15.014791      15.014791      15.014791      0              0              0            
    662000   284.07762     -1182.2983      210.28406     -972.0142       1551.4615      14.775558      14.775558      14.775558      0              0              0            
    663000   311.25034     -1196.8906      230.39824     -966.49238      1187.046       14.928418      14.928418      14.928418      0              0              0            
    664000   290.8663      -1202.3776      215.30927     -987.0683      -1695.8288      15.089179      15.089179      15.089179      0              0              0            
    665000   304.43536     -1212.9522      225.35355     -987.59868     -1251.7522      14.742394      14.742394      14.742394      0              0              0            
    666000   305.03609     -1193.435       225.79823     -967.63675     -2702.7052      14.984759      14.984759      14.984759      0              0              0            
    667000   305.69556     -1204.6854      226.2864      -978.399       -1375.0291      14.898626      14.898626      14.898626      0              0              0            
    668000   318.01806     -1220.8399      235.40794     -985.43196     -1380.4761      15.214896      15.214896      15.214896      0              0              0            
    669000   283.01491     -1195.0016      209.4974      -985.50424     -2380.4         15.002928      15.002928      15.002928      0              0              0            
    670000   342.35247     -1203.5821      253.42111     -950.16102      2194.9656      15.064209      15.064209      15.064209      0              0              0            
    671000   273.86862     -1200.0038      202.727       -997.27678     -1072.7707      15.203417      15.203417      15.203417      0              0              0            
    672000   289.88768     -1175.2284      214.58486     -960.6435      -26.068317      15.1303        15.1303        15.1303        0              0              0            
    673000   317.87322     -1208.6962      235.30072     -973.39547     -604.65619      14.989615      14.989615      14.989615      0              0              0            
    674000   291.78385     -1172.1364      215.98847     -956.14788     -2438.428       15.520087      15.520087      15.520087      0              0              0            
    675000   292.58902     -1219.1602      216.58448     -1002.5757      996.98957      14.871211      14.871211      14.871211      0              0              0            
    676000   275.64493     -1213.2848      204.04188     -1009.243      -1096.5318      14.994106      14.994106      14.994106      0              0              0            
    677000   313.4152      -1193.5305      232.00074     -961.52974     -2690.9719      15.141448      15.141448      15.141448      0              0              0            
    678000   315.37041     -1212.5041      233.44806     -979.05604     -324.62996      14.799392      14.799392      14.799392      0              0              0            
    679000   285.97092     -1195.7522      211.68554     -984.06667     -2519.5726      14.946129      14.946129      14.946129      0              0              0            
    680000   316.21352     -1209.0009      234.07215     -974.92879     -594.82521      14.811904      14.811904      14.811904      0              0              0            
    681000   293.02932     -1184.753       216.91041     -967.8426       2674.8973      14.954493      14.954493      14.954493      0              0              0            
    682000   317.20893     -1193.564       234.80899     -958.75496      197.62209      15.027141      15.027141      15.027141      0              0              0            
    683000   281.26202     -1186.9069      208.19985     -978.70706     -711.51445      14.84386       14.84386       14.84386       0              0              0            
    684000   303.36777     -1191.9923      224.56329     -967.42903      216.69704      15.005284      15.005284      15.005284      0              0              0            
    685000   306.00159     -1175.1551      226.51293     -948.64217      1194.3163      15.189135      15.189135      15.189135      0              0              0            
    686000   305.38195     -1185.0787      226.05425     -959.02449     -69.852689      15.309177      15.309177      15.309177      0              0              0            
    687000   316.43047     -1181.541       234.23275     -947.30824     -405.91555      15.022035      15.022035      15.022035      0              0              0            
    688000   282.71522     -1201.9016      209.27556     -992.62605     -748.95927      14.918463      14.918463      14.918463      0              0              0            
    689000   268.78778     -1232.1348      198.96598     -1033.1688     -1723.8538      14.945169      14.945169      14.945169      0              0              0            
    690000   287.08707     -1214.1847      212.51175     -1001.673      -2194.9206      15.106782      15.106782      15.106782      0              0              0            
    691000   288.63988     -1200.9898      213.6612      -987.32858     -1991.8688      15.067695      15.067695      15.067695      0              0              0            
    692000   301.82583     -1227.4734      223.42189     -1004.0515     -2687.1745      15.123078      15.123078      15.123078      0              0              0            
    693000   287.06255     -1241.3107      212.4936      -1028.8171      1182.5096      14.925434      14.925434      14.925434      0              0              0            
    694000   276.5053      -1220.2328      204.67876     -1015.554       1659.878       14.962992      14.962992      14.962992      0              0              0            
    695000   300.43537     -1169.4244      222.39263     -947.03174      2547.9482      15.379377      15.379377      15.379377      0              0              0            
    696000   299.33698     -1217.3428      221.57956     -995.76323      562.45658      15.240856      15.240856      15.240856      0              0              0            
    697000   299.11812     -1210.8802      221.41755     -989.46261     -452.33201      14.955265      14.955265      14.955265      0              0              0            
    698000   313.28543     -1224.2093      231.90468     -992.30458      1004.752       14.671038      14.671038      14.671038      0              0              0            
    699000   296.85779     -1210.188       219.74438     -990.44361      2349.5863      14.705588      14.705588      14.705588      0              0              0            
    700000   282.61633     -1197.2504      209.20235     -988.04803     -2053.3548      15.026006      15.026006      15.026006      0              0              0            
    701000   295.87685     -1204.1157      219.01825     -985.0975      -2046.694       14.787991      14.787991      14.787991      0              0              0            
    702000   300.72105     -1201.1318      222.6041      -978.52771      1530.5051      14.879964      14.879964      14.879964      0              0              0            
    703000   295.43438     -1224.3019      218.69072     -1005.6111     -13.750437      14.735006      14.735006      14.735006      0              0              0            
    704000   296.30067     -1209.0006      219.33197     -989.66861     -1279.5598      14.947771      14.947771      14.947771      0              0              0            
    705000   301.3023      -1187.1526      223.03435     -964.11826      1167.0737      15.032254      15.032254      15.032254      0              0              0            
    706000   331.00147     -1207.0106      245.01871     -961.99188      2144.7468      14.905317      14.905317      14.905317      0              0              0            
    707000   314.11864     -1233.0003      232.52145     -1000.4789      70.647016      15.113264      15.113264      15.113264      0              0              0            
    708000   323.19355     -1195.0452      239.23901     -955.80619     -840.08491      15.130224      15.130224      15.130224      0              0              0            
    709000   289.76796     -1216.5057      214.49624     -1002.0095     -190.69884      15.089978      15.089978      15.089978      0              0              0            
    710000   341.53453     -1233.6797      252.81564     -980.86408      579.67781      15.112765      15.112765      15.112765      0              0              0            
    711000   318.47717     -1216.9773      235.74779     -981.22953      1444.1995      14.974579      14.974579      14.974579      0              0              0            
    712000   294.93766     -1194.3283      218.32303     -976.00527     -1193.6795      15.057135      15.057135      15.057135      0              0              0            
    713000   328.16664     -1223.6638      242.92027     -980.74353     -208.14288      14.804669      14.804669      14.804669      0              0              0            
    714000   331.10563     -1228.3048      245.09581     -983.20903      56.571047      15.053546      15.053546      15.053546      0              0              0            
    715000   284.79873     -1199.2063      210.81784     -988.38844      482.15791      14.973698      14.973698      14.973698      0              0              0            
    716000   297.57906     -1199.8438      220.27829     -979.5655      -103.77059      15.108825      15.108825      15.108825      0              0              0            
    717000   305.29356     -1192.7653      225.98883     -966.77642     -2322.1922      15.236766      15.236766      15.236766      0              0              0            
    718000   301.8125      -1197.7409      223.41202     -974.32885      246.37226      15.173286      15.173286      15.173286      0              0              0            
    719000   309.53603     -1213.3619      229.12925     -984.23262     -851.39919      15.042292      15.042292      15.042292      0              0              0            
    720000   317.99368     -1223.0982      235.38989     -987.70836     -408.81644      14.810248      14.810248      14.810248      0              0              0            
    721000   338.06343     -1181.3165      250.24621     -931.07031     -1439.6478      15.139216      15.139216      15.139216      0              0              0            
    722000   289.69706     -1212.0189      214.44376     -997.57514      517.52789      14.725174      14.725174      14.725174      0              0              0            
    723000   281.05828     -1242.9088      208.04904     -1034.8598     -718.27239      14.954964      14.954964      14.954964      0              0              0            
    724000   299.03897     -1218.4085      221.35896     -997.04951     -967.67288      15.102764      15.102764      15.102764      0              0              0            
    725000   290.45391     -1195.7262      215.004       -980.72216      625.65881      15.121383      15.121383      15.121383      0              0              0            
    726000   306.89137     -1187.7117      227.17158     -960.54016     -853.71379      15.120896      15.120896      15.120896      0              0              0            
    727000   295.34092     -1218.1636      218.62154     -999.54204     -99.774051      15.017812      15.017812      15.017812      0              0              0            
    728000   295.20204     -1193.0709      218.51873     -974.55213      1340.1472      15.207328      15.207328      15.207328      0              0              0            
    729000   311.12499     -1231.2572      230.30545     -1000.9517      1325.1749      14.708554      14.708554      14.708554      0              0              0            
    730000   290.60259     -1181.6863      215.11406     -966.57221     -1659.847       15.054107      15.054107      15.054107      0              0              0            
    731000   300.45567     -1196.2529      222.40765     -973.84525      1260.0867      14.944753      14.944753      14.944753      0              0              0            
    732000   319.00379     -1213.2058      236.13761     -977.06822     -326.53486      15.255316      15.255316      15.255316      0              0              0            
    733000   298.57972     -1195.4335      221.01901     -974.41448      298.27373      15.109805      15.109805      15.109805      0              0              0            
    734000   326.84121     -1215.555       241.93914     -973.61586      1871.8329      14.827508      14.827508      14.827508      0              0              0            
    735000   317.74993     -1201.2689      235.20946     -966.05948     -223.25461      14.977117      14.977117      14.977117      0              0              0            
    736000   285.49881     -1178.5289      211.33607     -967.19284     -263.98837      15.214634      15.214634      15.214634      0              0              0            
    737000   281.35365     -1209.0578      208.26768     -1000.7902     -1020.4032      14.94747       14.94747       14.94747       0              0              0            
    738000   291.21515     -1210.3888      215.5675      -994.82134     -1107.5452      14.980983      14.980983      14.980983      0              0              0            
    739000   299.42045     -1207.0536      221.64135     -985.41222      363.58399      14.837912      14.837912      14.837912      0              0              0            
    740000   294.27434     -1190.1304      217.83202     -972.29839      1807.7741      14.670107      14.670107      14.670107      0              0              0            
    741000   342.92045     -1184.0163      253.84155     -930.17478     -56.09946       15.175213      15.175213      15.175213      0              0              0            
    742000   297.37765     -1220.1571      220.12919     -1000.0279      328.09102      15.118698      15.118698      15.118698      0              0              0            
    743000   294.93782     -1186.2387      218.32315     -967.91558      718.33587      15.358276      15.358276      15.358276      0              0              0            
    744000   308.59169     -1225.8686      228.43021     -997.43837     -1787.4272      14.862445      14.862445      14.862445      0              0              0            
    745000   304.00589     -1195.8169      225.03564     -970.78125      1361.7016      14.772426      14.772426      14.772426      0              0              0            
    746000   275.33888     -1181.5232      203.81534     -977.70788     -903.07505      14.955801      14.955801      14.955801      0              0              0            
    747000   311.07166     -1174.7997      230.26598     -944.53372      2114.5824      15.086518      15.086518      15.086518      0              0              0            
    748000   325.18572     -1215.4216      240.71369     -974.70794     -1233.626       14.867875      14.867875      14.867875      0              0              0            
    749000   288.93442     -1215.7099      213.87922     -1001.8307     -1909.4211      15.114615      15.114615      15.114615      0              0              0            
    750000   283.33343     -1221.3964      209.73318     -1011.6632     -810.54455      15.157625      15.157625      15.157625      0              0              0            
    751000   287.40597     -1246.9741      212.74782     -1034.2262     -837.3995       15.020493      15.020493      15.020493      0              0              0            
    752000   294.15129     -1204.9702      217.74093     -987.2293      -870.81938      14.96492       14.96492       14.96492       0              0              0            
    753000   281.29382     -1213.8001      208.22339     -1005.5767     -1194.2771      14.974431      14.974431      14.974431      0              0              0            
    754000   298.542       -1175.8881      220.99109     -954.89703      895.17463      15.225395      15.225395      15.225395      0              0              0            
    755000   317.66847     -1184.0082      235.14916     -948.85907      1087.1495      15.335663      15.335663      15.335663      0              0              0            
    756000   315.4375      -1192.8653      233.49772     -959.36757     -330.42576      15.267513      15.267513      15.267513      0              0              0            
    757000   284.27371     -1200.5489      210.42921     -990.11972     -691.05294      14.956157      14.956157      14.956157      0              0              0            
    758000   311.60759     -1206.344       230.66268     -975.68136      2433.243       14.727426      14.727426      14.727426      0              0              0            
    759000   280.2687      -1228.0422      207.46456     -1020.5776      794.89015      14.831016      14.831016      14.831016      0              0              0            
    760000   307.62698     -1191.0562      227.71611     -963.34011      1150.8913      14.940965      14.940965      14.940965      0              0              0            
    761000   343.87264     -1211.9263      254.54639     -957.37992     -1032.1946      14.787514      14.787514      14.787514      0              0              0            
    762000   282.29597     -1185.1118      208.96522     -976.1466      -345.38218      15.023843      15.023843      15.023843      0              0              0            
    763000   278.98878     -1211.422       206.51712     -1004.9049     -1656.2457      15.213732      15.213732      15.213732      0              0              0            
    764000   300.7506      -1234.7937      222.62597     -1012.1677      79.933737      14.884812      14.884812      14.884812      0              0              0            
    765000   309.62564     -1209.9378      229.19558     -980.74223     -1632.2699      14.796452      14.796452      14.796452      0              0              0            
    766000   309.68196     -1185.2638      229.23727     -956.02652      1115.5183      14.862583      14.862583      14.862583      0              0              0            
    767000   315.91863     -1182.4679      233.85387     -948.61402      651.58754      15.183316      15.183316      15.183316      0              0              0            
    768000   306.80691     -1189.9072      227.10906     -962.79815      55.7133        15.162034      15.162034      15.162034      0              0              0            
    769000   291.49706     -1232.4919      215.77618     -1016.7157      323.31424      15.089141      15.089141      15.089141      0              0              0            
    770000   285.72161     -1209.7623      211.50099     -998.26131     -340.72541      14.885684      14.885684      14.885684      0              0              0            
    771000   293.0614      -1230.8974      216.93416     -1013.9632      1238.9234      14.807543      14.807543      14.807543      0              0              0            
    772000   319.09703     -1233.8245      236.20663     -997.61786     -225.64175      14.883161      14.883161      14.883161      0              0              0            
    773000   294.31795     -1209.1475      217.8643      -991.28321      1350.211       14.949424      14.949424      14.949424      0              0              0            
    774000   297.01651     -1213.4867      219.86186     -993.62486      655.83315      15.082566      15.082566      15.082566      0              0              0            
    775000   307.43773     -1183.0379      227.57601     -955.46187     -17.937745      15.041351      15.041351      15.041351      0              0              0            
    776000   291.05682     -1189.65        215.4503      -974.19966     -1151.4578      15.186895      15.186895      15.186895      0              0              0            
    777000   297.07349     -1194.4083      219.90404     -974.50429      1132.628       15.123609      15.123609      15.123609      0              0              0            
    778000   283.46039     -1190.9761      209.82716     -981.14898      106.95531      15.123662      15.123662      15.123662      0              0              0            
    779000   292.94536     -1188.7262      216.84826     -971.87793     -826.51231      15.203406      15.203406      15.203406      0              0              0            
    780000   304.06064     -1254.8837      225.07617     -1029.8076     -772.78624      14.976383      14.976383      14.976383      0              0              0            
    781000   306.07828     -1206.5654      226.5697      -979.99567      233.38903      14.796185      14.796185      14.796185      0              0              0            
    782000   288.39238     -1215.5891      213.47799     -1002.1111      1172.0101      14.815954      14.815954      14.815954      0              0              0            
    783000   278.55557     -1196.167       206.19644     -989.97053     -671.93192      14.952416      14.952416      14.952416      0              0              0            
    784000   302.52604     -1189.6241      223.94021     -965.68392      2020.2978      14.869816      14.869816      14.869816      0              0              0            
    785000   288.19099     -1189.1733      213.32891     -975.84439     -455.73334      15.240176      15.240176      15.240176      0              0              0            
    786000   308.80611     -1194.204       228.58894     -965.61508     -2464.2009      15.044016      15.044016      15.044016      0              0              0            
    787000   295.88484     -1221.31        219.02416     -1002.2858      1721.9404      14.910012      14.910012      14.910012      0              0              0            
    788000   312.79963     -1246.6692      231.54508     -1015.1241      1270.6523      14.788204      14.788204      14.788204      0              0              0            
    789000   320.11625     -1221.4776      236.96109     -984.51652     -1222.5166      15.132497      15.132497      15.132497      0              0              0            
    790000   304.00663     -1200.1994      225.0362      -975.16317      1319.9816      14.904038      14.904038      14.904038      0              0              0            
    791000   300.1042      -1170.2419      222.14748     -948.09444     -1029.0983      15.067944      15.067944      15.067944      0              0              0            
    792000   320.1167      -1200.7504      236.96143     -963.78901     -935.18673      15.26586       15.26586       15.26586       0              0              0            
    793000   321.76564     -1192.1075      238.18203     -953.92548     -505.30524      15.214606      15.214606      15.214606      0              0              0            
    794000   304.99293     -1196.3002      225.76629     -970.53388     -704.96548      14.872754      14.872754      14.872754      0              0              0            
    795000   306.53884     -1232.751       226.91062     -1005.8404     -335.76968      14.95794       14.95794       14.95794       0              0              0            
    796000   291.58626     -1229.6504      215.84221     -1013.8082      1907.9574      14.97958       14.97958       14.97958       0              0              0            
    797000   306.50968     -1225.2539      226.88904     -998.36486     -836.8391       14.835349      14.835349      14.835349      0              0              0            
    798000   318.24563     -1193.7049      235.57639     -958.12846      1559.1617      14.98368       14.98368       14.98368       0              0              0            
    799000   307.49302     -1229.8012      227.61694     -1002.1843      2283.7398      14.684261      14.684261      14.684261      0              0              0            
    800000   291.35895     -1195.9578      215.67394     -980.28381      1718.3457      14.906108      14.906108      14.906108      0              0              0            
    801000   285.29709     -1208.5106      211.18674     -997.32387     -1689.9378      15.092726      15.092726      15.092726      0              0              0            
    802000   286.84004     -1227.6485      212.32889     -1015.3196      192.51223      14.701129      14.701129      14.701129      0              0              0            
    803000   326.38322     -1224.4702      241.60012     -982.87009     -48.605793      14.801845      14.801845      14.801845      0              0              0            
    804000   310.2409      -1211.6419      229.65102     -981.99089      1821.9646      14.865131      14.865131      14.865131      0              0              0            
    805000   288.3699      -1229.9133      213.46134     -1016.452      -399.86688      14.942618      14.942618      14.942618      0              0              0            
    806000   314.0039      -1202.0521      232.43652     -969.61554      1226.3127      14.963942      14.963942      14.963942      0              0              0            
    807000   294.40935     -1220.016       217.93196     -1002.0841     -424.58513      15.083849      15.083849      15.083849      0              0              0            
    808000   308.48857     -1201.4184      228.35388     -973.06451      1429.7405      14.840206      14.840206      14.840206      0              0              0            
    809000   300.12171     -1211.0663      222.16044     -988.90582     -1759.0677      15.061134      15.061134      15.061134      0              0              0            
    810000   293.05993     -1220.2999      216.93307     -1003.3669      4401.5776      14.729059      14.729059      14.729059      0              0              0            
    811000   304.57369     -1214.0852      225.45595     -988.62929     -1026.7693      14.950169      14.950169      14.950169      0              0              0            
    812000   295.94208     -1198.4316      219.06653     -979.36507      167.82039      15.016791      15.016791      15.016791      0              0              0            
    813000   315.73858     -1182.9962      233.72059     -949.27558      453.89489      15.137183      15.137183      15.137183      0              0              0            
    814000   298.04669     -1227.7949      220.62444     -1007.1705      37.380993      14.906214      14.906214      14.906214      0              0              0            
    815000   288.93996     -1180.761       213.88333     -966.87772     -1055.2223      15.039124      15.039124      15.039124      0              0              0            
    816000   311.45071     -1191.8714      230.54656     -961.32484     -992.8458       15.226669      15.226669      15.226669      0              0              0            
    817000   321.76531     -1191.0368      238.18178     -952.85498     -1473.2132      15.089113      15.089113      15.089113      0              0              0            
    818000   292.90443     -1237.8896      216.81796     -1021.0717     -10.490226      14.914979      14.914979      14.914979      0              0              0            
    819000   297.04096     -1210.7601      219.87996     -990.88018     -1166.7875      14.982724      14.982724      14.982724      0              0              0            
    820000   290.71853     -1188.6538      215.19988     -973.45393     -46.262132      14.884398      14.884398      14.884398      0              0              0            
    821000   285.93765     -1185.7595      211.66091     -974.09855      583.69193      15.248757      15.248757      15.248757      0              0              0            
    822000   299.88458     -1190.4613      221.98491     -968.4764       3747.6742      15.098504      15.098504      15.098504      0              0              0            
    823000   297.13812     -1228.7148      219.95189     -1008.7629      1468.2444      14.932002      14.932002      14.932002      0              0              0            
    824000   296.73507     -1203.2815      219.65354     -983.62795     -834.75199      14.918969      14.918969      14.918969      0              0              0            
    825000   294.54654     -1229.6422      218.03351     -1011.6087      442.77921      14.886509      14.886509      14.886509      0              0              0            
    826000   307.45057     -1217.8483      227.58552     -990.26276     -828.06844      14.94883       14.94883       14.94883       0              0              0            
    827000   281.15824     -1230.8893      208.12303     -1022.7662      1266.1208      14.749484      14.749484      14.749484      0              0              0            
    828000   274.85319     -1206.5488      203.45581     -1003.093      -2293.9362      15.082362      15.082362      15.082362      0              0              0            
    829000   270.8149      -1201.6046      200.46653     -1001.1381     -2313.6857      15.235421      15.235421      15.235421      0              0              0            
    830000   304.48518     -1218.0957      225.39043     -992.70531     -936.01038      15.236657      15.236657      15.236657      0              0              0            
    831000   291.16158     -1230.29        215.52784     -1014.7622      1731.8887      14.616531      14.616531      14.616531      0              0              0            
    832000   327.41119     -1207.3244      242.36106     -964.96334      1707.828       15.020035      15.020035      15.020035      0              0              0            
    833000   323.30336     -1211.8701      239.3203      -972.54985      770.2295       14.860879      14.860879      14.860879      0              0              0            
    834000   301.48902     -1168.5997      223.17257     -945.42712      1263.1013      15.41317       15.41317       15.41317       0              0              0            
    835000   305.37404     -1199.3632      226.0484      -973.31483     -227.35415      15.035798      15.035798      15.035798      0              0              0            
    836000   287.67783     -1218.7278      212.94905     -1005.7788     -660.70851      14.960115      14.960115      14.960115      0              0              0            
    837000   314.42752     -1188.9434      232.7501      -956.19334      1911.3873      14.971337      14.971337      14.971337      0              0              0            
    838000   320.81276     -1202.5354      237.47667     -965.05872      463.89357      15.085065      15.085065      15.085065      0              0              0            
    839000   317.02669     -1203.7112      234.67409     -969.03713     -334.29618      14.911618      14.911618      14.911618      0              0              0            
    840000   277.81579     -1203.7309      205.64883     -998.08206     -1263.417       14.91342       14.91342       14.91342       0              0              0            
    841000   315.06009     -1181.6344      233.21835     -948.41601     -1120.6372      15.094972      15.094972      15.094972      0              0              0            
    842000   267.1356      -1178.8789      197.74299     -981.13594     -1210.0223      15.169173      15.169173      15.169173      0              0              0            
    843000   291.55653     -1217.3357      215.8202      -1001.5155      1962.6795      14.895328      14.895328      14.895328      0              0              0            
    844000   294.58525     -1217.9915      218.06216     -999.92929     -1502.7682      14.84132       14.84132       14.84132       0              0              0            
    845000   299.83107     -1194.9071      221.9453      -972.9618      -1111.3684      15.070201      15.070201      15.070201      0              0              0            
    846000   321.23397     -1217.0829      237.78847     -979.29445     -2701.5036      15.001262      15.001262      15.001262      0              0              0            
    847000   279.89322     -1198.3861      207.18661     -991.19947      204.36515      14.886646      14.886646      14.886646      0              0              0            
    848000   292.30274     -1194.2508      216.37257     -977.87819     -435.5502       14.959573      14.959573      14.959573      0              0              0            
    849000   312.26818     -1211.4062      231.15168     -980.25455      186.55108      15.063942      15.063942      15.063942      0              0              0            
    850000   324.50413     -1190.9416      240.20915     -950.73249     -66.005773      14.986648      14.986648      14.986648      0              0              0            
    851000   313.31269     -1207.0876      231.92486     -975.16275      651.30488      14.891501      14.891501      14.891501      0              0              0            
    852000   312.55354     -1221.3655      231.36291     -990.00263     -917.07158      15.180607      15.180607      15.180607      0              0              0            
    853000   302.54934     -1237.6759      223.95746     -1013.7185      268.08907      14.903982      14.903982      14.903982      0              0              0            
    854000   301.12092     -1223.9628      222.90009     -1001.0627      1234.6108      14.826953      14.826953      14.826953      0              0              0            
    855000   322.78841     -1198.8731      238.93912     -959.934       -628.99999      14.865829      14.865829      14.865829      0              0              0            
    856000   294.71826     -1183.1641      218.16062     -965.00349     -859.23403      15.307797      15.307797      15.307797      0              0              0            
    857000   286.78298     -1160.6395      212.28665     -948.35281     -960.80133      15.356344      15.356344      15.356344      0              0              0            
    858000   321.42895     -1218.4896      237.9328      -980.5568      -462.03359      15.043936      15.043936      15.043936      0              0              0            
    859000   306.20533     -1197.0286      226.66375     -970.36489     -2707.3137      14.965788      14.965788      14.965788      0              0              0            
    860000   296.83838     -1165.9283      219.73001     -946.19833     -1458.2753      14.961613      14.961613      14.961613      0              0              0            
    861000   305.09036     -1190.1767      225.83841     -964.33831     -991.73129      15.171377      15.171377      15.171377      0              0              0            
    862000   303.29109     -1183.786       224.50653     -959.27945     -447.76842      14.924049      14.924049      14.924049      0              0              0            
    863000   293.81212     -1166.4962      217.48987     -949.00633     -306.0835       15.12585       15.12585       15.12585       0              0              0            
    864000   291.71563     -1209.1596      215.93797     -993.2216      -1261.9543      15.174579      15.174579      15.174579      0              0              0            
    865000   334.0984      -1168.7839      247.31116     -921.47277      1885.7163      15.201141      15.201141      15.201141      0              0              0            
    866000   345.31661     -1174.2286      255.61526     -918.61337      710.2744       15.08689       15.08689       15.08689       0              0              0            
    867000   303.67489     -1224.7896      224.79063     -999.99894     -284.50151      14.919235      14.919235      14.919235      0              0              0            
    868000   302.59539     -1206.1494      223.99154     -982.15783     -1233.1697      15.220584      15.220584      15.220584      0              0              0            
    869000   302.71985     -1184.941       224.08367     -960.85732     -536.11729      15.114303      15.114303      15.114303      0              0              0            
    870000   305.403       -1183.8194      226.06984     -957.74959     -535.63601      15.128073      15.128073      15.128073      0              0              0            
    871000   303.49654     -1190.7517      224.65861     -966.09306     -1059.3527      15.17492       15.17492       15.17492       0              0              0            
    872000   329.21213     -1226.0463      243.69417     -982.35217      165.80173      14.820882      14.820882      14.820882      0              0              0            
    873000   299.4107      -1202.0043      221.63413     -980.37014      546.65491      14.984275      14.984275      14.984275      0              0              0            
    874000   274.60638     -1188.4828      203.27311     -985.20966      926.23146      15.135171      15.135171      15.135171      0              0              0            
    875000   302.16682     -1189.1948      223.67431     -965.52049      794.72432      15.016917      15.016917      15.016917      0              0              0            
    876000   285.00691     -1210.016       210.97195     -999.04406     -1227.0903      14.874423      14.874423      14.874423      0              0              0            
    877000   295.38492     -1210.7239      218.65411     -992.06979     -1365.0063      15.046558      15.046558      15.046558      0              0              0            
    878000   319.10911     -1192.2853      236.21557     -956.06976      631.53256      15.179971      15.179971      15.179971      0              0              0            
    879000   330.95947     -1204.2466      244.98761     -959.25895      325.21285      14.926469      14.926469      14.926469      0              0              0            
    880000   298.2856      -1202.6284      220.80129     -981.82711     -208.45575      14.935809      14.935809      14.935809      0              0              0            
    881000   271.74711     -1188.226       201.15658     -987.0694      -709.22044      14.991921      14.991921      14.991921      0              0              0            
    882000   283.59649     -1199.4367      209.9279      -989.50882      51.403354      14.982744      14.982744      14.982744      0              0              0            
    883000   298.56925     -1181.9749      221.01126     -960.96366     -802.55456      15.02388       15.02388       15.02388       0              0              0            
    884000   309.34857     -1208.49        228.99048     -979.49949      1992.3125      14.949933      14.949933      14.949933      0              0              0            
    885000   281.72577     -1195.8346      208.54313     -987.29145     -810.0565       14.914813      14.914813      14.914813      0              0              0            
    886000   302.27485     -1224.0743      223.75427     -1000.32       -1150.0322      14.817076      14.817076      14.817076      0              0              0            
    887000   292.06693     -1219.7558      216.19802     -1003.5577     -440.84798      14.965589      14.965589      14.965589      0              0              0            
    888000   267.91549     -1195.8087      198.32029     -997.48839     -919.26387      14.984678      14.984678      14.984678      0              0              0            
    889000   283.27588     -1220.8695      209.69058     -1011.179      -149.59822      14.980131      14.980131      14.980131      0              0              0            
    890000   298.06735     -1240.8767      220.63973     -1020.2369     -395.67257      14.854866      14.854866      14.854866      0              0              0            
    891000   304.00806     -1185.2819      225.03725     -960.24469     -432.18655      14.781367      14.781367      14.781367      0              0              0            
    892000   313.16982     -1233.7636      231.8191      -1001.9444      520.35553      14.896938      14.896938      14.896938      0              0              0            
    893000   327.11292     -1190.8821      242.14027     -948.74178      1317.3452      14.986269      14.986269      14.986269      0              0              0            
    894000   285.14541     -1187.4898      211.07447     -976.41537      738.79714      15.029089      15.029089      15.029089      0              0              0            
    895000   307.43637     -1176.4379      227.575       -948.86285      528.81187      15.067894      15.067894      15.067894      0              0              0            
    896000   300.12976     -1215.6719      222.1664      -993.50549      369.02894      14.95866       14.95866       14.95866       0              0              0            
    897000   309.60274     -1211.8478      229.17863     -982.66917     -491.60554      14.973439      14.973439      14.973439      0              0              0            
    898000   270.32155     -1233.9549      200.10133     -1033.8536      421.56929      15.015266      15.015266      15.015266      0              0              0            
    899000   293.97254     -1211.2546      217.60861     -993.64597     -1653.3573      14.827669      14.827669      14.827669      0              0              0            
    900000   310.22394     -1200.2044      229.63846     -970.56595      174.12994      15.170375      15.170375      15.170375      0              0              0            
    901000   302.35283     -1215.2827      223.812       -991.4707       412.94289      14.876506      14.876506      14.876506      0              0              0            
    902000   297.66364     -1163.4017      220.34089     -943.0608      -1068.5052      15.085417      15.085417      15.085417      0              0              0            
    903000   297.63081     -1236.3222      220.3166      -1016.0056     -588.98696      14.702209      14.702209      14.702209      0              0              0            
    904000   280.05661     -1195.7606      207.30756     -988.45302     -147.97034      14.833263      14.833263      14.833263      0              0              0            
    905000   294.59245     -1163.9794      218.06749     -945.91189     -140.76851      15.295978      15.295978      15.295978      0              0              0            
    906000   317.33513     -1205.4721      234.90241     -970.56964     -678.18292      15.047459      15.047459      15.047459      0              0              0            
    907000   297.08099     -1189.0581      219.9096      -969.14852      1160.832       15.135095      15.135095      15.135095      0              0              0            
    908000   314.39039     -1204.6333      232.72261     -971.91074      1339.946       15.049793      15.049793      15.049793      0              0              0            
    909000   301.56875     -1200.1255      223.23159     -976.89392      2056.9088      15.089635      15.089635      15.089635      0              0              0            
    910000   316.99411     -1169.4582      234.64997     -934.80825      1283.4743      14.970236      14.970236      14.970236      0              0              0            
    911000   311.80643     -1202.7398      230.80988     -971.9299       2140.5313      15.00348       15.00348       15.00348       0              0              0            
    912000   301.47589     -1196.4609      223.16285     -973.29809      1054.9386      14.997811      14.997811      14.997811      0              0              0            
    913000   307.8743      -1185.5027      227.89918     -957.6035      -260.96968      15.124026      15.124026      15.124026      0              0              0            
    914000   292.08425     -1155.3411      216.21084     -939.13031     -600.66906      15.292155      15.292155      15.292155      0              0              0            
    915000   300.97357     -1177.3565      222.79102     -954.5655       620.67525      15.247225      15.247225      15.247225      0              0              0            
    916000   292.23104     -1178.5671      216.3195      -962.24758     -350.9042       15.300509      15.300509      15.300509      0              0              0            
    917000   286.59642     -1202.8604      212.14856     -990.7118       1836.3103      14.743277      14.743277      14.743277      0              0              0            
    918000   307.58031     -1211.9818      227.68156     -984.30021      1248.1919      14.636675      14.636675      14.636675      0              0              0            
    919000   283.10926     -1202.885       209.56724     -993.31775     -1985.4677      15.127887      15.127887      15.127887      0              0              0            
    920000   305.97196     -1225.1867      226.491       -998.69567      1873.2621      14.759204      14.759204      14.759204      0              0              0            
    921000   269.11461     -1226.7973      199.20791     -1027.5894      3505.3974      14.6875        14.6875        14.6875        0              0              0            
    922000   298.17375     -1231.1016      220.7185      -1010.3831      1073.7675      14.800396      14.800396      14.800396      0              0              0            
    923000   300.2521      -1224.1314      222.25696     -1001.8745     -918.35392      15.088293      15.088293      15.088293      0              0              0            
    924000   307.60927     -1233.3193      227.70299     -1005.6163      130.91782      14.950557      14.950557      14.950557      0              0              0            
    925000   311.17756     -1222.8565      230.34436     -992.51215     -51.763389      15.131426      15.131426      15.131426      0              0              0            
    926000   300.92452     -1208.4292      222.75471     -985.67448      741.43119      15.021018      15.021018      15.021018      0              0              0            
    927000   259.34918     -1171.1914      191.97921     -979.21219      466.17369      15.047183      15.047183      15.047183      0              0              0            
    928000   301.79562     -1183.9571      223.39953     -960.55757      1498.9042      15.265396      15.265396      15.265396      0              0              0            
    929000   299.67502     -1203.9193      221.82979     -982.08956     -1509.9069      15.013272      15.013272      15.013272      0              0              0            
    930000   282.26344     -1214.8205      208.94114     -1005.8793      1715.8103      15.016776      15.016776      15.016776      0              0              0            
    931000   279.3768      -1195.3159      206.80435     -988.5116      -364.91462      14.984736      14.984736      14.984736      0              0              0            
    932000   311.37489     -1161.5906      230.49043     -931.10013      1364.8852      15.072195      15.072195      15.072195      0              0              0            
    933000   312.251       -1216.7649      231.13896     -985.62592     -274.3748       14.952276      14.952276      14.952276      0              0              0            
    934000   287.762       -1215.5875      213.01136     -1002.5762      472.57605      14.934363      14.934363      14.934363      0              0              0            
    935000   311.67901     -1210.5654      230.71555     -979.84982     -1231.2629      15.176102      15.176102      15.176102      0              0              0            
    936000   288.74839     -1191.7491      213.74152     -978.0076      -1019.7977      15.08488       15.08488       15.08488       0              0              0            
    937000   306.97932     -1183.5659      227.23668     -956.32925      650.96789      15.183681      15.183681      15.183681      0              0              0            
    938000   299.24653     -1225.5252      221.51261     -1004.0126      805.03326      15.073459      15.073459      15.073459      0              0              0            
    939000   319.46586     -1169.7017      236.47965     -933.22202      688.97339      14.977244      14.977244      14.977244      0              0              0            
    940000   296.55255     -1206.2615      219.51842     -986.74312      78.270844      14.712024      14.712024      14.712024      0              0              0            
    941000   304.89355     -1233.9735      225.69272     -1008.2807     -960.13647      14.76219       14.76219       14.76219       0              0              0            
    942000   294.01874     -1212.4654      217.64281     -994.8226       1999.6459      14.78097       14.78097       14.78097       0              0              0            
    943000   313.93077     -1214.3447      232.38239     -981.96226     -183.29597      14.958185      14.958185      14.958185      0              0              0            
    944000   301.41218     -1203.825       223.1157      -980.70935      1205.7231      14.830667      14.830667      14.830667      0              0              0            
    945000   303.77096     -1210.7883      224.86175     -985.9266       581.87165      14.842651      14.842651      14.842651      0              0              0            
    946000   323.49294     -1201.0505      239.46063     -961.5899       1057.9509      15.056077      15.056077      15.056077      0              0              0            
    947000   290.61139     -1206.7659      215.12057     -991.64529      490.75121      14.975113      14.975113      14.975113      0              0              0            
    948000   309.75275     -1192.0264      229.28967     -962.7367      -1221.0431      15.113744      15.113744      15.113744      0              0              0            
    949000   281.17218     -1223.0679      208.13334     -1014.9345      151.95363      14.716496      14.716496      14.716496      0              0              0            
    950000   300.36894     -1194.7118      222.34345     -972.36835     -1028.7577      14.88377       14.88377       14.88377       0              0              0            
    951000   300.33263     -1205.2461      222.31657     -982.92957     -91.514946      14.80487       14.80487       14.80487       0              0              0            
    952000   298.5037      -1193.5799      220.96273     -972.61721      687.27001      14.964787      14.964787      14.964787      0              0              0            
    953000   299.21335     -1178.384       221.48804     -956.89592     -203.52587      15.089689      15.089689      15.089689      0              0              0            
    954000   300.061       -1208.564       222.11551     -986.44845     -127.85776      14.961111      14.961111      14.961111      0              0              0            
    955000   320.61731     -1246.0073      237.33199     -1008.6753     -629.66278      14.771866      14.771866      14.771866      0              0              0            
    956000   300.81304     -1213.9901      222.67219     -991.31793      1649.2257      14.862667      14.862667      14.862667      0              0              0            
    957000   278.212       -1221.3502      205.94212     -1015.4081      854.73225      14.707772      14.707772      14.707772      0              0              0            
    958000   282.27866     -1248.0243      208.9524      -1039.0719     -794.91688      14.880663      14.880663      14.880663      0              0              0            
    959000   328.96879     -1225.9897      243.51405     -982.47567     -760.97058      15.161487      15.161487      15.161487      0              0              0            
    960000   303.20691     -1177.5106      224.44421     -953.06643      118.1372       15.023247      15.023247      15.023247      0              0              0            
    961000   296.156       -1190.2138      219.22489     -970.98891      958.21821      15.112329      15.112329      15.112329      0              0              0            
    962000   339.1549      -1198.1152      251.05415     -947.06101      638.73555      15.211638      15.211638      15.211638      0              0              0            
    963000   312.93651     -1204.9618      231.6464      -973.31544     -2145.38        15.062045      15.062045      15.062045      0              0              0            
    964000   284.31127     -1199.8802      210.45701     -989.4232      -365.62337      14.817316      14.817316      14.817316      0              0              0            
    965000   306.3028      -1172.7841      226.7359      -946.04823      13.725113      15.045546      15.045546      15.045546      0              0              0            
    966000   306.40494     -1180.2965      226.8115      -953.485        1356.7709      15.231912      15.231912      15.231912      0              0              0            
    967000   319.20801     -1217.1636      236.28878     -980.87478      649.03892      15.053566      15.053566      15.053566      0              0              0            
    968000   303.15555     -1203.2539      224.40619     -978.84771     -376.05603      14.964469      14.964469      14.964469      0              0              0            
    969000   293.40593     -1203.2517      217.18919     -986.06251      1544.7202      14.860541      14.860541      14.860541      0              0              0            
    970000   296.46131     -1192.4025      219.45089     -972.9516      -501.61314      15.21932       15.21932       15.21932       0              0              0            
    971000   291.60144     -1213.305       215.85344     -997.45161     -756.10464      14.936867      14.936867      14.936867      0              0              0            
    972000   299.37804     -1199.1606      221.60995     -977.55064     -1514.6215      14.918288      14.918288      14.918288      0              0              0            
    973000   319.98373     -1208.0203      236.863       -971.15726      1339.9123      15.048465      15.048465      15.048465      0              0              0            
    974000   289.03159     -1199.3409      213.95116     -985.38973      745.75231      14.960352      14.960352      14.960352      0              0              0            
    975000   338.17636     -1182.3661      250.32981     -932.03626      2088.2137      14.882867      14.882867      14.882867      0              0              0            
    976000   291.23607     -1204.1457      215.58298     -988.56271     -1986.7163      14.981843      14.981843      14.981843      0              0              0            
    977000   285.11874     -1206.0698      211.05472     -995.01511     -2473.5043      15.003056      15.003056      15.003056      0              0              0            
    978000   317.89335     -1218.2289      235.31562     -982.91332      2415.7141      14.865414      14.865414      14.865414      0              0              0            
    979000   315.98888     -1206.2959      233.90587     -972.39007      856.5358       14.871161      14.871161      14.871161      0              0              0            
    980000   272.33776     -1201.865       201.5938      -1000.2712     -748.56002      15.072105      15.072105      15.072105      0              0              0            
    981000   268.5614      -1175.2879      198.79841     -976.48944     -324.48522      15.184335      15.184335      15.184335      0              0              0            
    982000   308.58235     -1230.2557      228.4233      -1001.8324      1153.7693      15.022005      15.022005      15.022005      0              0              0            
    983000   295.03182     -1231.4715      218.39273     -1013.0788      2056.3216      14.847643      14.847643      14.847643      0              0              0            
    984000   299.54936     -1228.0881      221.73677     -1006.3513     -200.46591      15.083117      15.083117      15.083117      0              0              0            
    985000   302.59877     -1197.794       223.99405     -973.79995      318.9801       14.920359      14.920359      14.920359      0              0              0            
    986000   308.52116     -1171.2141      228.378       -942.83611     -211.27178      15.349997      15.349997      15.349997      0              0              0            
    987000   297.08661     -1198.592       219.91376     -978.67821     -492.75891      15.096274      15.096274      15.096274      0              0              0            
    988000   315.57614     -1242.857       233.60035     -1009.2567     -93.049461      15.00593       15.00593       15.00593       0              0              0            
    989000   294.52768     -1177.6852      218.01955     -959.66565      31.567941      15.057477      15.057477      15.057477      0              0              0            
    990000   310.26788     -1203.1668      229.67099     -973.49584      2217.4936      15.075753      15.075753      15.075753      0              0              0            
    991000   323.91271     -1224.6891      239.77136     -984.91778      2074.3058      14.96915       14.96915       14.96915       0              0              0            
    992000   304.34781     -1207.2998      225.28874     -982.01109     -537.10127      15.065394      15.065394      15.065394      0              0              0            
    993000   281.41059     -1199.6688      208.30983     -991.35895      961.83067      15.103328      15.103328      15.103328      0              0              0            
    994000   301.33187     -1228.2524      223.05625     -1005.1962      439.21202      15.070882      15.070882      15.070882      0              0              0            
    995000   306.96966     -1204.6586      227.22953     -977.4291      -828.33238      14.847059      14.847059      14.847059      0              0              0            
    996000   302.5205      -1219.772       223.93611     -995.83588     -435.95673      15.006414      15.006414      15.006414      0              0              0            
    997000   292.24174     -1192.409       216.32742     -976.08158     -211.63249      14.969736      14.969736      14.969736      0              0              0            
    998000   307.82758     -1204.6607      227.86459     -976.79612      536.57441      14.979795      14.979795      14.979795      0              0              0            
    999000   297.51701     -1196.0975      220.23235     -975.8651       919.89463      14.926408      14.926408      14.926408      0              0              0            
   1000000   310.5622      -1236.3582      229.88885     -1006.4693      1392.6186      14.886257      14.886257      14.886257      0              0              0            
Loop time of 212.12 on 12 procs for 1000000 steps with 320 atoms

Performance: 814.632 ns/day, 0.029 hours/ns, 4714.308 timesteps/s, 1.509 Matom-step/s
88.8% CPU use with 12 MPI tasks x 1 OpenMP threads

MPI task timing breakdown:
Section |  min time  |  avg time  |  max time  |%varavg| %total
---------------------------------------------------------------
Pair    | 22.53      | 24.534     | 26.037     |  22.6 | 11.57
Bond    | 0.62521    | 0.66379    | 0.69426    |   2.8 |  0.31
Kspace  | 81.683     | 83.521     | 86.023     |  15.4 | 39.37
Neigh   | 4.7111     | 4.8756     | 5.0183     |   5.3 |  2.30
Comm    | 23.711     | 25.392     | 27.715     |  22.7 | 11.97
Output  | 13.329     | 14.312     | 17.239     |  26.2 |  6.75
Modify  | 52.941     | 57.317     | 58.509     |  19.9 | 27.02
Other   |            | 1.503      |            |       |  0.71

Nlocal:        26.6667 ave          34 max          16 min
Histogram: 1 0 1 1 0 1 2 4 1 1
Nghost:        821.417 ave         867 max         781 min
Histogram: 1 0 3 2 1 0 2 2 0 1
Neighs:              0 ave           0 max           0 min
Histogram: 12 0 0 0 0 0 0 0 0 0

Total # of neighbors = 0
Ave neighs/atom = 0
Ave special neighs/atom = 1.9875
Neighbor list builds = 73985
Dangerous builds = 5273


Total wall time: 0:03:32
