LAMMPS Description

120  atoms
110  bonds
180  angles
160  dihedrals
20  impropers

98  atom types
935  bond types
5312  angle types
986  dihedral types
38  improper types

0.0 30 xlo xhi
0.0 30 ylo yhi
0.0 30 zlo zhi

Masses

1 12.01  # c
2 12.01  # cs
3 12.01  # c1
4 12.01  # c2
5 12.01  # c3
6 12.01  # ca
7 12.01  # cp
8 12.01  # cq
9 12.01  # cc
10 12.01  # cd
11 12.01  # ce
12 12.01  # cf
13 12.01  # cg
14 12.01  # ch
15 12.01  # cx
16 12.01  # cy
17 12.01  # cu
18 12.01  # cv
19 12.01  # cz
20 1.008  # h1
21 1.008  # h2
22 1.008  # h3
23 1.008  # h4
24 1.008  # h5
25 1.008  # ha
26 1.008  # hc
27 1.008  # hn
28 1.008  # ho
29 1.008  # hp
30 1.008  # hs
31 1.008  # hw
32 1.008  # hx
33 19.00  # f
34 35.45  # cl
35 79.90  # br
36 126.9  # i
37 14.01  # n
38 14.01  # n1
39 14.01  # n2
40 14.01  # n3
41 14.01  # n4
42 14.01  # na
43 14.01  # nb
44 14.01  # nc
45 14.01  # nd
46 14.01  # ne
47 14.01  # nf
48 14.01  # nh
49 14.01  # no
50 14.01  # ns
51 14.01  # nt
52 14.01  # nx
53 14.01  # ny
54 14.01  # nz
55 14.01  # n+
56 14.01  # nu
57 14.01  # nv
58 14.01  # n7
59 14.01  # n8
60 14.01  # n9
61 14.01  # ni
62 14.01  # nj
63 14.01  # nk
64 14.01  # nl
65 14.01  # nm
66 14.01  # nn
67 14.01  # np
68 14.01  # nq
69 14.01  # n5
70 14.01  # n6
71 16.00  # o
72 16.00  # oh
73 16.00  # os
74 16.00  # op
75 16.00  # oq
76 16.00  # ow
77 30.97  # p2
78 30.97  # p3
79 30.97  # p4
80 30.97  # p5
81 30.97  # pb
82 30.97  # pc
83 30.97  # pd
84 30.97  # pe
85 30.97  # pf
86 30.97  # px
87 30.97  # py
88 32.06  # s
89 32.06  # s2
90 32.06  # s4
91 32.06  # s6
92 32.06  # sh
93 32.06  # ss
94 32.06  # sp
95 32.06  # sq
96 32.06  # sx
97 32.06  # sy
98 63.010  # Cu

Atoms

1 1 5 0.0793 20.393 25.128 9.741
2 1 37 -0.4948 20.807 23.894 9.106
3 1 5 0.0793 21.318 23.966 7.750
4 1 1 0.6609 20.566 22.669 9.693
5 1 71 -0.6041 20.783 21.574 9.190
6 1 20 0.0417 21.235 25.825 9.749
7 1 20 0.0417 20.063 24.951 10.768
8 1 20 0.0417 19.565 25.558 9.170
9 1 20 0.0417 20.519 24.321 7.093
10 1 20 0.0417 22.154 24.670 7.723
11 1 20 0.0417 21.663 22.991 7.398
12 1 24 0.0282 20.150 22.757 10.711
13 2 5 0.0793 5.992 26.071 6.493
14 2 37 -0.4948 4.674 26.164 7.087
15 2 5 0.0793 3.668 26.938 6.386
16 2 1 0.6609 4.424 25.685 8.356
17 2 71 -0.6041 3.378 25.810 8.979
18 2 20 0.0417 5.902 25.651 5.488
19 2 20 0.0417 6.650 25.434 7.092
20 2 20 0.0417 6.424 27.074 6.435
21 2 20 0.0417 3.991 27.982 6.350
22 2 20 0.0417 3.566 26.550 5.369
23 2 20 0.0417 2.697 26.883 6.887
24 2 24 0.0282 5.282 25.141 8.785
25 3 5 0.0793 15.484 3.168 20.208
26 3 37 -0.4948 15.041 4.541 20.077
27 3 5 0.0793 15.883 5.582 20.633
28 3 1 0.6609 13.783 4.846 19.599
29 3 71 -0.6041 13.282 5.962 19.551
30 3 20 0.0417 16.471 3.067 19.748
31 3 20 0.0417 14.788 2.481 19.720
32 3 20 0.0417 15.547 2.917 21.271
33 3 20 0.0417 15.938 5.447 21.717
34 3 20 0.0417 16.884 5.496 20.202
35 3 20 0.0417 15.487 6.578 20.417
36 3 24 0.0282 13.237 3.959 19.235
37 4 5 0.0793 22.704 2.752 22.006
38 4 37 -0.4948 21.470 2.102 22.396
39 4 5 0.0793 21.276 0.720 21.999
40 4 1 0.6609 20.436 2.811 22.972
41 4 71 -0.6041 19.324 2.374 23.237
42 4 20 0.0417 23.549 2.180 22.401
43 4 20 0.0417 22.750 3.774 22.393
44 4 20 0.0417 22.758 2.782 20.915
45 4 20 0.0417 21.242 0.671 20.907
46 4 20 0.0417 22.116 0.124 22.366
47 4 20 0.0417 20.346 0.312 22.403
48 4 24 0.0282 20.707 3.856 23.195
49 5 5 0.0793 16.616 11.954 26.017
50 5 37 -0.4948 15.306 12.556 26.145
51 5 5 0.0793 15.217 13.861 26.773
52 5 1 0.6609 14.159 11.850 25.845
53 5 71 -0.6041 13.010 12.235 26.020
54 5 20 0.0417 17.266 12.629 25.453
55 5 20 0.0417 16.559 10.993 25.497
56 5 20 0.0417 17.031 11.794 27.016
57 5 20 0.0417 15.547 13.772 27.812
58 5 20 0.0417 15.871 14.556 26.239
59 5 20 0.0417 14.195 14.248 26.755
60 5 24 0.0282 14.369 10.863 25.401
61 6 5 0.0793 22.489 4.847 6.098
62 6 37 -0.4948 23.131 5.927 6.819
63 6 5 0.0793 22.412 7.181 6.944
64 6 1 0.6609 24.446 5.836 7.226
65 6 71 -0.6041 25.102 6.730 7.745
66 6 20 0.0417 21.528 4.625 6.570
67 6 20 0.0417 23.110 3.947 6.103
68 6 20 0.0417 22.327 5.162 5.063
69 6 20 0.0417 22.272 7.605 5.946
70 6 20 0.0417 21.437 6.987 7.399
71 6 20 0.0417 22.958 7.898 7.563
72 6 24 0.0282 24.881 4.839 7.047
73 7 5 0.0793 26.745 21.935 16.002
74 7 37 -0.4948 25.838 23.027 16.292
75 7 5 0.0793 24.588 22.712 16.957
76 7 1 0.6609 26.065 24.297 15.803
77 7 71 -0.6041 25.307 25.253 15.905
78 7 20 0.0417 26.995 21.422 16.935
79 7 20 0.0417 27.665 22.301 15.536
80 7 20 0.0417 26.252 21.238 15.320
81 7 20 0.0417 23.994 22.070 16.300
82 7 20 0.0417 24.805 22.182 17.888
83 7 20 0.0417 24.016 23.615 17.186
84 7 24 0.0282 27.038 24.392 15.294
85 8 5 0.0793 17.603 14.944 12.849
86 8 37 -0.4948 16.802 13.999 12.098
87 8 5 0.0793 15.580 14.483 11.484
88 8 1 0.6609 17.088 12.649 12.107
89 8 71 -0.6041 16.413 11.767 11.593
90 8 20 0.0417 17.877 15.777 12.196
91 8 20 0.0417 18.513 14.472 13.231
92 8 20 0.0417 17.013 15.315 13.692
93 8 20 0.0417 14.897 14.808 12.273
94 8 20 0.0417 15.821 15.330 10.836
95 8 20 0.0417 15.095 13.706 10.888
96 8 24 0.0282 18.029 12.415 12.632
97 9 5 0.0793 17.617 18.913 5.207
98 9 37 -0.4948 17.095 18.348 3.980
99 9 5 0.0793 17.627 17.073 3.539
100 9 1 0.6609 16.250 19.069 3.160
101 9 71 -0.6041 15.844 18.720 2.060
102 9 20 0.0417 17.464 18.199 6.021
103 9 20 0.0417 17.115 19.853 5.453
104 9 20 0.0417 18.687 19.103 5.081
105 9 20 0.0417 18.691 17.195 3.317
106 9 20 0.0417 17.503 16.340 4.341
107 9 20 0.0417 17.115 16.711 2.644
108 9 24 0.0282 15.945 20.032 3.603
109 10 5 0.0793 24.260 24.657 9.437
110 10 37 -0.4948 24.638 23.259 9.475
111 10 5 0.0793 26.017 22.920 9.178
112 10 1 0.6609 23.692 22.264 9.614
113 10 71 -0.6041 23.900 21.059 9.553
114 10 20 0.0417 24.889 25.215 10.137
115 10 20 0.0417 23.210 24.789 9.712
116 10 20 0.0417 24.413 25.036 8.423
117 10 20 0.0417 26.232 23.202 8.144
118 10 20 0.0417 26.672 23.477 9.854
119 10 20 0.0417 26.204 21.850 9.304
120 10 24 0.0282 22.681 22.660 9.806

Bonds

1 132 1 2
2 124 1 6
3 124 1 7
4 124 1 8
5 132 2 3
6 359 2 4
7 124 3 9
8 124 3 10
9 124 3 11
10 365 4 5
11 323 4 12
12 132 13 14
13 124 13 18
14 124 13 19
15 124 13 20
16 132 14 15
17 359 14 16
18 124 15 21
19 124 15 22
20 124 15 23
21 365 16 17
22 323 16 24
23 132 25 26
24 124 25 30
25 124 25 31
26 124 25 32
27 132 26 27
28 359 26 28
29 124 27 33
30 124 27 34
31 124 27 35
32 365 28 29
33 323 28 36
34 132 37 38
35 124 37 42
36 124 37 43
37 124 37 44
38 132 38 39
39 359 38 40
40 124 39 45
41 124 39 46
42 124 39 47
43 365 40 41
44 323 40 48
45 132 49 50
46 124 49 54
47 124 49 55
48 124 49 56
49 132 50 51
50 359 50 52
51 124 51 57
52 124 51 58
53 124 51 59
54 365 52 53
55 323 52 60
56 132 61 62
57 124 61 66
58 124 61 67
59 124 61 68
60 132 62 63
61 359 62 64
62 124 63 69
63 124 63 70
64 124 63 71
65 365 64 65
66 323 64 72
67 132 73 74
68 124 73 78
69 124 73 79
70 124 73 80
71 132 74 75
72 359 74 76
73 124 75 81
74 124 75 82
75 124 75 83
76 365 76 77
77 323 76 84
78 132 85 86
79 124 85 90
80 124 85 91
81 124 85 92
82 132 86 87
83 359 86 88
84 124 87 93
85 124 87 94
86 124 87 95
87 365 88 89
88 323 88 96
89 132 97 98
90 124 97 102
91 124 97 103
92 124 97 104
93 132 98 99
94 359 98 100
95 124 99 105
96 124 99 106
97 124 99 107
98 365 100 101
99 323 100 108
100 132 109 110
101 124 109 114
102 124 109 115
103 124 109 116
104 132 110 111
105 359 110 112
106 124 111 117
107 124 111 118
108 124 111 119
109 365 112 113
110 323 112 120

Angles

1 475 6 1 7
2 475 6 1 8
3 475 7 1 8
4 475 9 3 10
5 475 9 3 11
6 475 10 3 11
7 475 18 13 19
8 475 18 13 20
9 475 19 13 20
10 475 21 15 22
11 475 21 15 23
12 475 22 15 23
13 475 30 25 31
14 475 30 25 32
15 475 31 25 32
16 475 33 27 34
17 475 33 27 35
18 475 34 27 35
19 475 42 37 43
20 475 42 37 44
21 475 43 37 44
22 475 45 39 46
23 475 45 39 47
24 475 46 39 47
25 475 54 49 55
26 475 54 49 56
27 475 55 49 56
28 475 57 51 58
29 475 57 51 59
30 475 58 51 59
31 475 66 61 67
32 475 66 61 68
33 475 67 61 68
34 475 69 63 70
35 475 69 63 71
36 475 70 63 71
37 475 78 73 79
38 475 78 73 80
39 475 79 73 80
40 475 81 75 82
41 475 81 75 83
42 475 82 75 83
43 475 90 85 91
44 475 90 85 92
45 475 91 85 92
46 475 93 87 94
47 475 93 87 95
48 475 94 87 95
49 475 102 97 103
50 475 102 97 104
51 475 103 97 104
52 475 105 99 106
53 475 105 99 107
54 475 106 99 107
55 475 114 109 115
56 475 114 109 116
57 475 115 109 116
58 475 117 111 118
59 475 117 111 119
60 475 118 111 119
61 479 2 1 6
62 479 2 1 7
63 479 2 1 8
64 479 2 3 9
65 479 2 3 10
66 479 2 3 11
67 479 14 13 18
68 479 14 13 19
69 479 14 13 20
70 479 14 15 21
71 479 14 15 22
72 479 14 15 23
73 479 26 25 30
74 479 26 25 31
75 479 26 25 32
76 479 26 27 33
77 479 26 27 34
78 479 26 27 35
79 479 38 37 42
80 479 38 37 43
81 479 38 37 44
82 479 38 39 45
83 479 38 39 46
84 479 38 39 47
85 479 50 49 54
86 479 50 49 55
87 479 50 49 56
88 479 50 51 57
89 479 50 51 58
90 479 50 51 59
91 479 62 61 66
92 479 62 61 67
93 479 62 61 68
94 479 62 63 69
95 479 62 63 70
96 479 62 63 71
97 479 74 73 78
98 479 74 73 79
99 479 74 73 80
100 479 74 75 81
101 479 74 75 82
102 479 74 75 83
103 479 86 85 90
104 479 86 85 91
105 479 86 85 92
106 479 86 87 93
107 479 86 87 94
108 479 86 87 95
109 479 98 97 102
110 479 98 97 103
111 479 98 97 104
112 479 98 99 105
113 479 98 99 106
114 479 98 99 107
115 479 110 109 114
116 479 110 109 115
117 479 110 109 116
118 479 110 111 117
119 479 110 111 118
120 479 110 111 119
121 1340 2 4 12
122 1340 14 16 24
123 1340 26 28 36
124 1340 38 40 48
125 1340 50 52 60
126 1340 62 64 72
127 1340 74 76 84
128 1340 86 88 96
129 1340 98 100 108
130 1340 110 112 120
131 1341 5 4 12
132 1341 17 16 24
133 1341 29 28 36
134 1341 41 40 48
135 1341 53 52 60
136 1341 65 64 72
137 1341 77 76 84
138 1341 89 88 96
139 1341 101 100 108
140 1341 113 112 120
141 1379 2 4 5
142 1379 14 16 17
143 1379 26 28 29
144 1379 38 40 41
145 1379 50 52 53
146 1379 62 64 65
147 1379 74 76 77
148 1379 86 88 89
149 1379 98 100 101
150 1379 110 112 113
151 2346 1 2 3
152 2346 13 14 15
153 2346 25 26 27
154 2346 37 38 39
155 2346 49 50 51
156 2346 61 62 63
157 2346 73 74 75
158 2346 85 86 87
159 2346 97 98 99
160 2346 109 110 111
161 2380 1 2 4
162 2380 3 2 4
163 2380 13 14 16
164 2380 15 14 16
165 2380 25 26 28
166 2380 27 26 28
167 2380 37 38 40
168 2380 39 38 40
169 2380 49 50 52
170 2380 51 50 52
171 2380 61 62 64
172 2380 63 62 64
173 2380 73 74 76
174 2380 75 74 76
175 2380 85 86 88
176 2380 87 86 88
177 2380 97 98 100
178 2380 99 98 100
179 2380 109 110 112
180 2380 111 110 112

Dihedrals

1 16 1 2 4 5
2 16 3 2 4 5
3 16 13 14 16 17
4 16 15 14 16 17
5 16 25 26 28 29
6 16 27 26 28 29
7 16 37 38 40 41
8 16 39 38 40 41
9 16 49 50 52 53
10 16 51 50 52 53
11 16 61 62 64 65
12 16 63 62 64 65
13 16 73 74 76 77
14 16 75 74 76 77
15 16 85 86 88 89
16 16 87 86 88 89
17 16 97 98 100 101
18 16 99 98 100 101
19 16 109 110 112 113
20 16 111 110 112 113
21 16 1 2 4 12
22 16 3 2 4 12
23 16 13 14 16 24
24 16 15 14 16 24
25 16 25 26 28 36
26 16 27 26 28 36
27 16 37 38 40 48
28 16 39 38 40 48
29 16 49 50 52 60
30 16 51 50 52 60
31 16 61 62 64 72
32 16 63 62 64 72
33 16 73 74 76 84
34 16 75 74 76 84
35 16 85 86 88 96
36 16 87 86 88 96
37 16 97 98 100 108
38 16 99 98 100 108
39 16 109 110 112 120
40 16 111 110 112 120
41 166 3 2 1 6
42 166 3 2 1 7
43 166 3 2 1 8
44 166 1 2 3 9
45 166 1 2 3 10
46 166 1 2 3 11
47 166 15 14 13 18
48 166 15 14 13 19
49 166 15 14 13 20
50 166 13 14 15 21
51 166 13 14 15 22
52 166 13 14 15 23
53 166 27 26 25 30
54 166 27 26 25 31
55 166 27 26 25 32
56 166 25 26 27 33
57 166 25 26 27 34
58 166 25 26 27 35
59 166 39 38 37 42
60 166 39 38 37 43
61 166 39 38 37 44
62 166 37 38 39 45
63 166 37 38 39 46
64 166 37 38 39 47
65 166 51 50 49 54
66 166 51 50 49 55
67 166 51 50 49 56
68 166 49 50 51 57
69 166 49 50 51 58
70 166 49 50 51 59
71 166 63 62 61 66
72 166 63 62 61 67
73 166 63 62 61 68
74 166 61 62 63 69
75 166 61 62 63 70
76 166 61 62 63 71
77 166 75 74 73 78
78 166 75 74 73 79
79 166 75 74 73 80
80 166 73 74 75 81
81 166 73 74 75 82
82 166 73 74 75 83
83 166 87 86 85 90
84 166 87 86 85 91
85 166 87 86 85 92
86 166 85 86 87 93
87 166 85 86 87 94
88 166 85 86 87 95
89 166 99 98 97 102
90 166 99 98 97 103
91 166 99 98 97 104
92 166 97 98 99 105
93 166 97 98 99 106
94 166 97 98 99 107
95 166 111 110 109 114
96 166 111 110 109 115
97 166 111 110 109 116
98 166 109 110 111 117
99 166 109 110 111 118
100 166 109 110 111 119
101 833 4 2 1 6
102 833 4 2 1 7
103 833 4 2 1 8
104 833 4 2 3 9
105 833 4 2 3 10
106 833 4 2 3 11
107 833 16 14 13 18
108 833 16 14 13 19
109 833 16 14 13 20
110 833 16 14 15 21
111 833 16 14 15 22
112 833 16 14 15 23
113 833 28 26 25 30
114 833 28 26 25 31
115 833 28 26 25 32
116 833 28 26 27 33
117 833 28 26 27 34
118 833 28 26 27 35
119 833 40 38 37 42
120 833 40 38 37 43
121 833 40 38 37 44
122 833 40 38 39 45
123 833 40 38 39 46
124 833 40 38 39 47
125 833 52 50 49 54
126 833 52 50 49 55
127 833 52 50 49 56
128 833 52 50 51 57
129 833 52 50 51 58
130 833 52 50 51 59
131 833 64 62 61 66
132 833 64 62 61 67
133 833 64 62 61 68
134 833 64 62 63 69
135 833 64 62 63 70
136 833 64 62 63 71
137 833 76 74 73 78
138 833 76 74 73 79
139 833 76 74 73 80
140 833 76 74 75 81
141 833 76 74 75 82
142 833 76 74 75 83
143 833 88 86 85 90
144 833 88 86 85 91
145 833 88 86 85 92
146 833 88 86 87 93
147 833 88 86 87 94
148 833 88 86 87 95
149 833 100 98 97 102
150 833 100 98 97 103
151 833 100 98 97 104
152 833 100 98 99 105
153 833 100 98 99 106
154 833 100 98 99 107
155 833 112 110 109 114
156 833 112 110 109 115
157 833 112 110 109 116
158 833 112 110 111 117
159 833 112 110 111 118
160 833 112 110 111 119

Impropers

1 1 2 5 4 12
2 1 14 17 16 24
3 1 26 29 28 36
4 1 38 41 40 48
5 1 50 53 52 60
6 1 62 65 64 72
7 1 74 77 76 84
8 1 86 89 88 96
9 1 98 101 100 108
10 1 110 113 112 120
11 7 1 3 2 4
12 7 13 15 14 16
13 7 25 27 26 28
14 7 37 39 38 40
15 7 49 51 50 52
16 7 61 63 62 64
17 7 73 75 74 76
18 7 85 87 86 88
19 7 97 99 98 100
20 7 109 111 110 112

