LAMMPS (7 Feb 2024 - Update 1)
  using 1 OpenMP thread(s) per MPI task
echo both

# Define temperature parameters
variable	temperature equal 300.0 # Simulation temperature in Kelvin
variable	tempDamp equal 100.0 # Relaxation time of themostat - 0.1 ps

# Define pressure parameters
variable	pressure equal 1.0 # Pressure in bars
variable	pressureDamp equal 500.0 # Relaxation time of the barostat 0.5 ps

# Define random seed
variable	seed equal 98475

# Simulation setup
units		real
atom_style	full
variable	out_freq equal 1000 # Thermo output frequency
variable	out_freq2 equal 10 # Dump output frequency
neigh_modify    delay 10 every 1 # Neighbor list setup

### TIP4P/Ew and NaCl Potential Parameters ###
pair_style      hybrid lj/cut/coul/long 5.0 buck/coul/long 5.0 # This cutoff is too short for a real calculation
# Load configuration
read_data       data.nacl
Reading data file ...
  orthogonal box = (0 0 0) to (15.5 15.5 15.5)
  2 by 2 by 3 MPI processor grid
  reading atoms ...
  320 atoms
  scanning bonds ...
  2 = max bonds/atom
  scanning angles ...
  1 = max angles/atom
  reading bonds ...
  212 bonds
  reading angles ...
  106 angles
Finding 1-2 1-3 1-4 neighbors ...
  special bond factors lj:    0        0        0       
  special bond factors coul:  0        0        0       
     2 = max # of 1-2 neighbors
     1 = max # of 1-3 neighbors
     1 = max # of 1-4 neighbors
     2 = max # of special neighbors
  special bonds CPU = 0.001 seconds
  read_data CPU = 0.007 seconds

# create groups ###

group hy type 1
212 atoms in group hy
group ox type 2
106 atoms in group ox
group na type 3
1 atoms in group na
group cl type 4
1 atoms in group cl

## set charges - beside manually ###
set group ox charge -0.830
Setting atom values ...
  106 settings made for charge
set group hy charge 0.415
Setting atom values ...
  212 settings made for charge
set group na charge 1.0
Setting atom values ...
  1 settings made for charge
set group cl charge -1.0
Setting atom values ...
  1 settings made for charge

# Water TIP3P
pair_coeff      1 1 lj/cut/coul/long 0.0 0.0
pair_coeff      2 2 lj/cut/coul/long 0.102 3.188
pair_coeff      1 2 lj/cut/coul/long 0.0 0.0
# Mixed from Pettitt 86
pair_coeff      2 3 lj/cut/coul/long 0.1338549 2.72
pair_coeff      1 3 lj/cut/coul/long 0.1338549 1.31
pair_coeff      2 4 lj/cut/coul/long 0.359825 3.55
pair_coeff      1 4 lj/cut/coul/long 0.359825 2.14
# NaCl from Pettitt 86
pair_coeff      3 4 buck/coul/long 28929.93 0.317 161.2016
pair_coeff      3 3 buck/coul/long 9772.847 0.317 24.18024 # This is not used
pair_coeff      4 4 buck/coul/long 80312.94 0.317 1683.981 # This is not used
bond_style      harmonic
bond_coeff      1 450 0.9572
angle_style     harmonic
angle_coeff     1 55 104.52
kspace_style    pppm 1e-2 # This value is too large for a real calculation

timestep	2.0 # Timestep 2 fs
thermo          ${out_freq}
thermo          1000
thermo_style 	custom step temp pe ke etotal press lx ly lz xy xz yz
restart 	${out_freq} restart restart2
restart 	1000 restart restart2

velocity        all create ${temperature} ${seed} dist gaussian
velocity        all create 300 ${seed} dist gaussian
velocity        all create 300 98475 dist gaussian
# Perform minimization
minimize 1.0e-2 1.0e-3 100 1000
Switching to 'neigh_modify every 1 delay 0 check yes' setting during minimization
PPPM initialization ...
  using 12-bit tables for long-range coulomb (src/lammps-7Feb2024/src/kspace.cpp:342)
  G vector (1/distance) = 0.40023582
  grid = 8 8 8
  stencil order = 5
  estimated absolute RMS force accuracy = 0.7823365
  estimated relative force accuracy = 0.0023559831
  using double precision MKL FFT
  3d grid and FFT values/proc = 1089 48
Generated 0 of 6 mixed pair_coeff terms from geometric mixing rule
Neighbor list info ...
  update: every = 1 steps, delay = 0 steps, check = yes
  max neighbors/atom: 2000, page size: 100000
  master list distance cutoff = 7
  ghost atom cutoff = 7
  binsize = 3.5, bins = 5 5 5
  3 neighbor lists, perpetual/occasional/extra = 3 0 0
  (1) pair lj/cut/coul/long, perpetual, skip from (3)
      attributes: half, newton on
      pair build: skip
      stencil: none
      bin: none
  (2) pair buck/coul/long, perpetual, skip from (3)
      attributes: half, newton on
      pair build: skip
      stencil: none
      bin: none
  (3) neighbor class addition, perpetual
      attributes: half, newton on
      pair build: half/bin/newton
      stencil: half/bin/3d
      bin: standard
Per MPI rank memory allocation (min/avg/max) = 9.416 | 9.418 | 9.42 Mbytes
   Step          Temp          PotEng         KinEng         TotEng         Press            Lx             Ly             Lz             Xy             Xz             Yz      
         0   300            92556250       285.26352      92556536       6.8175783e+09  15.5           15.5           15.5           0              0              0            
        27   300           -1095.9406      285.26352     -810.67712     -2918.7587      15.5           15.5           15.5           0              0              0            
Loop time of 0.0463092 on 12 procs for 27 steps with 320 atoms

86.8% CPU use with 12 MPI tasks x 1 OpenMP threads

Minimization stats:
  Stopping criterion = energy tolerance
  Energy initial, next-to-last, final = 
       92556250.257805     -1089.35799481  -1095.94064566941
  Force two-norm initial, final = 1.8953089e+09 108.40957
  Force max component initial, final = 1.2163668e+09 24.333575
  Final line search alpha, max atom move = 0.0033714434 0.08203927
  Iterations, force evaluations = 27 35

MPI task timing breakdown:
Section |  min time  |  avg time  |  max time  |%varavg| %total
---------------------------------------------------------------
Pair    | 0.00048632 | 0.00068871 | 0.00085753 |   0.0 |  1.49
Bond    | 1.8265e-05 | 2.8153e-05 | 3.7582e-05 |   0.0 |  0.06
Kspace  | 0.0038956  | 0.0040913  | 0.0043065  |   0.2 |  8.83
Neigh   | 0.00017899 | 0.00019339 | 0.00020821 |   0.0 |  0.42
Comm    | 0.0010204  | 0.001091   | 0.0011694  |   0.1 |  2.36
Output  | 0          | 0          | 0          |   0.0 |  0.00
Modify  | 0          | 0          | 0          |   0.0 |  0.00
Other   |            | 0.04022    |            |       | 86.84

Nlocal:        26.6667 ave          32 max          19 min
Histogram: 1 0 2 1 0 1 1 2 2 2
Nghost:        766.167 ave         805 max         727 min
Histogram: 2 0 0 2 3 1 1 1 1 1
Neighs:              0 ave           0 max           0 min
Histogram: 12 0 0 0 0 0 0 0 0 0

Total # of neighbors = 0
Ave neighs/atom = 0
Ave special neighs/atom = 1.9875
Neighbor list builds = 3
Dangerous builds = 0

# Write trajectory to file
dump           	myDump all dcd ${out_freq2} out.dcd
dump           	myDump all dcd 10 out.dcd
#dump_modify    	myDump unwrap yes

# Start simulation

reset_timestep 	0


fix umb all plumed plumedfile plumed_0.dat outfile plumed.out
fix             1 all temp/csvr ${temperature} ${temperature} ${tempDamp} ${seed} # Bussi's thermostat
fix             1 all temp/csvr 300 ${temperature} ${tempDamp} ${seed} 
fix             1 all temp/csvr 300 300 ${tempDamp} ${seed} 
fix             1 all temp/csvr 300 300 100 ${seed} 
fix             1 all temp/csvr 300 300 100 98475 
fix             2 all shake 0.0001 20 0 t 1 2 # Shake algorithm
Finding SHAKE clusters ...
       0 = # of size 2 clusters
     106 = # of size 3 clusters
       0 = # of size 4 clusters
       0 = # of frozen angles
  find clusters CPU = 0.000 seconds
#fix             3 all nve
fix             3 all nph iso ${pressure} ${pressure} ${pressureDamp} # Isotropic barostat
fix             3 all nph iso 1 ${pressure} ${pressureDamp} 
fix             3 all nph iso 1 1 ${pressureDamp} 
fix             3 all nph iso 1 1 500 
fix 		4 all momentum 10000 linear 1 1 1 # Set total linear momentum to zero every 10000 steps

run 1000000
PPPM initialization ...
  using 12-bit tables for long-range coulomb (src/lammps-7Feb2024/src/kspace.cpp:342)
  G vector (1/distance) = 0.40023582
  grid = 8 8 8
  stencil order = 5
  estimated absolute RMS force accuracy = 0.7823365
  estimated relative force accuracy = 0.0023559831
  using double precision MKL FFT
  3d grid and FFT values/proc = 1089 48
Generated 0 of 6 mixed pair_coeff terms from geometric mixing rule
Per MPI rank memory allocation (min/avg/max) = 9.186 | 9.188 | 9.19 Mbytes
   Step          Temp          PotEng         KinEng         TotEng         Press            Lx             Ly             Lz             Xy             Xz             Yz      
         0   385.36913     -1127.6681      285.26352     -842.40459     -1840.8269      15.5           15.5           15.5           0              0              0            
      1000   293.99409     -1192.5334      217.62457     -974.90884      1077.453       14.964214      14.964214      14.964214      0              0              0            
      2000   307.95283     -1209.3706      227.95731     -981.4133      -1176.7955      14.78698       14.78698       14.78698       0              0              0            
      3000   305.92521     -1198.6793      226.4564      -972.22291     -766.88208      14.969014      14.969014      14.969014      0              0              0            
      4000   299.95941     -1161.3083      222.0403      -939.26802      1564.1696      14.902522      14.902522      14.902522      0              0              0            
      5000   276.82042     -1188.0569      204.91203     -983.14485      2101.8198      14.902025      14.902025      14.902025      0              0              0            
      6000   307.55941     -1207.477       227.66609     -979.81087     -420.55998      15.060625      15.060625      15.060625      0              0              0            
      7000   287.18389     -1218.8486      212.58342     -1006.2652     -1378.1791      15.051192      15.051192      15.051192      0              0              0            
      8000   296.31191     -1212.424       219.3403      -993.08375      277.87445      15.081531      15.081531      15.081531      0              0              0            
      9000   291.70201     -1232.8325      215.92789     -1016.9046      377.77223      15.050195      15.050195      15.050195      0              0              0            
     10000   293.33245     -1165.4287      217.1348      -948.29386     -195.16888      15.1871        15.1871        15.1871        0              0              0            
     11000   312.69381     -1198.3287      231.46674     -966.86194      527.92604      15.079421      15.079421      15.079421      0              0              0            
     12000   314.82206     -1188.6662      233.04215     -955.62407     -196.3703       15.135517      15.135517      15.135517      0              0              0            
     13000   294.49665     -1196.0709      217.99658     -978.07431      210.23716      15.107387      15.107387      15.107387      0              0              0            
     14000   278.51137     -1231.1471      206.16373     -1024.9834     -296.56775      14.734772      14.734772      14.734772      0              0              0            
     15000   269.05466     -1193.4993      199.16354     -994.33576     -1100.8675      15.007129      15.007129      15.007129      0              0              0            
     16000   289.61787     -1184.2922      214.38514     -969.90703     -1727.6959      15.070742      15.070742      15.070742      0              0              0            
     17000   334.90331     -1213.9232      247.90698     -966.01625      1747.6187      14.915029      14.915029      14.915029      0              0              0            
     18000   295.62869     -1208.9604      218.83455     -990.12589     -1272.6555      15.116743      15.116743      15.116743      0              0              0            
     19000   299.72809     -1201.4553      221.86907     -979.58624     -123.07913      15.063662      15.063662      15.063662      0              0              0            
     20000   297.57278     -1188.3343      220.27364     -968.06064     -129.03975      14.866252      14.866252      14.866252      0              0              0            
     21000   318.11523     -1199.1813      235.47987     -963.7014       162.30771      14.854583      14.854583      14.854583      0              0              0            
     22000   308.8883      -1167.7353      228.64978     -939.08551     -299.06868      14.980263      14.980263      14.980263      0              0              0            
     23000   271.13082     -1170.6866      200.70039     -969.98625     -104.128        15.030309      15.030309      15.030309      0              0              0            
     24000   305.62528     -1199.4162      226.23438     -973.18181     -84.838725      14.996658      14.996658      14.996658      0              0              0            
     25000   277.63855     -1167.0249      205.51763     -961.50728      1226.904       15.052383      15.052383      15.052383      0              0              0            
     26000   306.63557     -1224.419       226.98223     -997.43682     -981.89129      14.883346      14.883346      14.883346      0              0              0            
     27000   299.68905     -1187.381       221.84018     -965.54082      165.00808      15.043214      15.043214      15.043214      0              0              0            
     28000   296.76801     -1216.6895      219.67792     -997.01155      1660.3716      14.840852      14.840852      14.840852      0              0              0            
     29000   296.58234     -1226.082       219.54048     -1006.5416      657.39858      14.718106      14.718106      14.718106      0              0              0            
     30000   286.53928     -1213.081       212.10626     -1000.9747     -2053.2905      15.1547        15.1547        15.1547        0              0              0            
     31000   268.4708      -1188.6934      198.73135     -989.96209      407.77541      14.939109      14.939109      14.939109      0              0              0            
     32000   290.46572     -1194.8582      215.01275     -979.84549      608.56127      14.925709      14.925709      14.925709      0              0              0            
     33000   299.50384     -1193.6658      221.70308     -971.96272      762.60421      14.841902      14.841902      14.841902      0              0              0            
     34000   313.1571      -1208.6997      231.80969     -976.89001      470.21428      15.091373      15.091373      15.091373      0              0              0            
     35000   294.05673     -1191.4565      217.67093     -973.78554      379.41565      15.261766      15.261766      15.261766      0              0              0            
     36000   294.43694     -1182.1347      217.95238     -964.18234     -1489.2051      15.049775      15.049775      15.049775      0              0              0            
     37000   300.31922     -1177.5466      222.30665     -955.23996     -258.11238      15.142334      15.142334      15.142334      0              0              0            
     38000   334.58943     -1212.0213      247.67463     -964.34665     -674.20478      14.869155      14.869155      14.869155      0              0              0            
     39000   317.28073     -1204.208       234.86214     -969.34583      3162.161       14.766726      14.766726      14.766726      0              0              0            
     40000   307.37374     -1210.9381      227.52865     -983.40943      2654.818       14.792384      14.792384      14.792384      0              0              0            
     41000   318.95771     -1204.4807      236.1035      -968.37718      331.83431      15.044569      15.044569      15.044569      0              0              0            
     42000   304.59137     -1198.364       225.46904     -972.89492      1283.6655      15.233621      15.233621      15.233621      0              0              0            
     43000   312.47831     -1208.9976      231.30723     -977.69035     -1198.8771      14.89068       14.89068       14.89068       0              0              0            
     44000   306.06126     -1186.6928      226.55711     -960.13573      1322.4398      15.02593       15.02593       15.02593       0              0              0            
     45000   306.29032     -1202.3979      226.72666     -975.67128      619.74431      15.070058      15.070058      15.070058      0              0              0            
     46000   269.77082     -1205.1582      199.69366     -1005.4645      1766.9474      14.933633      14.933633      14.933633      0              0              0            
     47000   291.14123     -1186.322       215.51278     -970.80918      2283.1447      14.946934      14.946934      14.946934      0              0              0            
     48000   294.35418     -1186.9123      217.89112     -969.02117      368.17661      15.06569       15.06569       15.06569       0              0              0            
     49000   290.2827      -1184.4718      214.87727     -969.59458     -394.01123      15.111593      15.111593      15.111593      0              0              0            
     50000   298.2063      -1225.5104      220.74259     -1004.7679      1158.9784      14.868586      14.868586      14.868586      0              0              0            
     51000   280.41636     -1206.226       207.57386     -998.65209      711.12233      14.994555      14.994555      14.994555      0              0              0            
     52000   300.23354     -1187.7409      222.24323     -965.49767     -384.94771      15.106741      15.106741      15.106741      0              0              0            
     53000   294.33863     -1192.1336      217.87961     -974.254        1302.6108      15.02663       15.02663       15.02663       0              0              0            
     54000   315.11051     -1200.871       233.25567     -967.61537     -102.45338      15.052872      15.052872      15.052872      0              0              0            
     55000   299.90994     -1200.3835      222.00368     -978.3798       1675.4039      14.76658       14.76658       14.76658       0              0              0            
     56000   307.72166     -1190.6593      227.78619     -962.87308     -1533.4626      15.015787      15.015787      15.015787      0              0              0            
     57000   296.84881     -1189.0873      219.73773     -969.34958     -862.2372       15.191893      15.191893      15.191893      0              0              0            
     58000   290.50776     -1190.5201      215.04386     -975.47619     -24.600639      14.985905      14.985905      14.985905      0              0              0            
     59000   282.35152     -1196.0151      209.00634     -987.00876     -429.23166      15.094469      15.094469      15.094469      0              0              0            
     60000   322.91242     -1176.8704      239.03091     -937.83948     -1079.9786      15.075351      15.075351      15.075351      0              0              0            
     61000   274.09182     -1204.1115      202.89222     -1001.2193      2895.3023      14.781186      14.781186      14.781186      0              0              0            
     62000   304.17085     -1181.1436      225.15775     -955.98582      246.22783      14.737536      14.737536      14.737536      0              0              0            
     63000   290.04635     -1193.6534      214.70231     -978.95108      411.66643      14.899772      14.899772      14.899772      0              0              0            
     64000   288.46155     -1214.9569      213.52919     -1001.4278      796.86819      15.032716      15.032716      15.032716      0              0              0            
     65000   312.93477     -1233.4168      231.64511     -1001.7717      2855.6279      14.907229      14.907229      14.907229      0              0              0            
     66000   297.50669     -1202.1267      220.22471     -981.90197      985.27955      14.993021      14.993021      14.993021      0              0              0            
     67000   310.47605     -1154.5802      229.82508     -924.75508     -154.86669      15.098185      15.098185      15.098185      0              0              0            
     68000   263.5578      -1199.7308      195.09457     -1004.6362      246.97001      15.01029       15.01029       15.01029       0              0              0            
     69000   264.19969     -1192.5969      195.56973     -997.0272      -759.84919      14.80229       14.80229       14.80229       0              0              0            
     70000   317.88276     -1186.3535      235.30778     -951.04567      756.32867      15.082101      15.082101      15.082101      0              0              0            
     71000   312.23459     -1207.7368      231.12682     -976.61003      1743.6241      14.860144      14.860144      14.860144      0              0              0            
     72000   307.96353     -1181.5442      227.96523     -953.57896     -856.1439       15.150763      15.150763      15.150763      0              0              0            
     73000   262.10355     -1183.3397      194.01809     -989.32158      1267.2226      14.998195      14.998195      14.998195      0              0              0            
     74000   282.24421     -1200.2055      208.9269      -991.27863      181.44671      14.831806      14.831806      14.831806      0              0              0            
     75000   293.87113     -1201.8428      217.53355     -984.30925      1531.2105      15.004368      15.004368      15.004368      0              0              0            
     76000   289.86033     -1167.7208      214.56462     -953.15619     -421.14377      14.887069      14.887069      14.887069      0              0              0            
     77000   319.0436      -1205.743       236.16708     -969.57591      1006.5343      14.941343      14.941343      14.941343      0              0              0            
     78000   297.56699     -1210.4227      220.26935     -990.15333     -1003.0197      15.001192      15.001192      15.001192      0              0              0            
     79000   303.10926     -1211.6005      224.37193     -987.22855     -353.88356      14.949155      14.949155      14.949155      0              0              0            
     80000   301.9277      -1215.9418      223.4973      -992.44454     -421.30992      14.794782      14.794782      14.794782      0              0              0            
     81000   299.28389     -1226.775       221.54026     -1005.2347     -1126.1715      14.86784       14.86784       14.86784       0              0              0            
     82000   303.3768      -1206.715       224.56997     -982.14506      1597.5574      14.928674      14.928674      14.928674      0              0              0            
     83000   264.45426     -1195.6499      195.75816     -999.89172     -2731.2095      14.959773      14.959773      14.959773      0              0              0            
     84000   312.56094     -1192.0089      231.36839     -960.64048      715.66093      15.241019      15.241019      15.241019      0              0              0            
     85000   309.75138     -1190.5503      229.28866     -961.26166     -2906.0097      15.092932      15.092932      15.092932      0              0              0            
     86000   303.18011     -1211.4664      224.42438     -987.04206     -263.39779      14.86638       14.86638       14.86638       0              0              0            
     87000   320.00477     -1202.263       236.87857     -965.38439      2475.3628      14.999207      14.999207      14.999207      0              0              0            
     88000   293.77726     -1202.7969      217.46406     -985.33284     -1764.4187      15.360454      15.360454      15.360454      0              0              0            
     89000   317.0588      -1203.7747      234.69786     -969.0768       178.08827      14.88433       14.88433       14.88433       0              0              0            
     90000   312.35741     -1191.5821      231.21773     -960.36439      520.38008      15.035957      15.035957      15.035957      0              0              0            
     91000   309.30963     -1159.0117      228.96166     -930.05007     -687.98932      15.253576      15.253576      15.253576      0              0              0            
     92000   327.01556     -1186.4437      242.0682      -944.37554      781.98618      14.886074      14.886074      14.886074      0              0              0            
     93000   320.53979     -1205.2905      237.27461     -968.01586     -598.23918      14.777756      14.777756      14.777756      0              0              0            
     94000   318.99429     -1201.5931      236.13058     -965.46252      1446.0174      14.842644      14.842644      14.842644      0              0              0            
     95000   299.9103      -1215.1933      222.00395     -993.18935      1705.8488      14.789374      14.789374      14.789374      0              0              0            
     96000   285.97949     -1196.7031      211.69188     -985.01123      271.6667       14.972539      14.972539      14.972539      0              0              0            
     97000   302.89337     -1226.1058      224.21212     -1001.8936      1259.4023      14.581004      14.581004      14.581004      0              0              0            
     98000   278.62456     -1212.7621      206.24751     -1006.5146     -1442.2985      15.014322      15.014322      15.014322      0              0              0            
     99000   340.45245     -1233.7657      252.01465     -981.75106      2338.3869      14.973748      14.973748      14.973748      0              0              0            
    100000   274.58473     -1165.3395      203.25709     -962.0824      -2191.6264      15.16769       15.16769       15.16769       0              0              0            
    101000   298.1484      -1194.5484      220.69973     -973.84871     -981.56733      14.91311       14.91311       14.91311       0              0              0            
    102000   266.37074     -1174.7564      197.17681     -977.57961      415.92479      15.092501      15.092501      15.092501      0              0              0            
    103000   302.43734     -1209.2599      223.87455     -985.38534     -1216.8237      15.169505      15.169505      15.169505      0              0              0            
    104000   306.1117      -1216.0878      226.59444     -989.49331     -401.00928      14.904678      14.904678      14.904678      0              0              0            
    105000   297.80555     -1185.8565      220.44594     -965.41058     -1276.1871      15.032126      15.032126      15.032126      0              0              0            
    106000   321.94939     -1203.8408      238.31805     -965.52272     -670.96926      15.004096      15.004096      15.004096      0              0              0            
    107000   285.05651     -1187.2455      211.00867     -976.23684      1290.1753      14.988298      14.988298      14.988298      0              0              0            
    108000   300.0037      -1202.0766      222.07309     -980.00347      672.45309      15.048386      15.048386      15.048386      0              0              0            
    109000   299.29292     -1188.1871      221.54694     -966.64013      459.19015      14.89028       14.89028       14.89028       0              0              0            
    110000   298.65525     -1184.8522      221.07492     -963.77728     -120.53173      15.093528      15.093528      15.093528      0              0              0            
    111000   313.85021     -1203.6015      232.32275     -971.27873     -1408.8078      14.973529      14.973529      14.973529      0              0              0            
    112000   297.04276     -1198.2818      219.8813      -978.40045      782.01092      14.84889       14.84889       14.84889       0              0              0            
    113000   308.30866     -1204.7738      228.2207      -976.55307      2150.7229      14.846882      14.846882      14.846882      0              0              0            
    114000   288.16683     -1217.9673      213.31103     -1004.6563      596.08024      15.013643      15.013643      15.013643      0              0              0            
    115000   292.45923     -1208.5568      216.48841     -992.06841      1153.2008      14.914385      14.914385      14.914385      0              0              0            
    116000   289.69888     -1207.2018      214.4451      -992.75669      944.07618      15.100808      15.100808      15.100808      0              0              0            
    117000   333.90852     -1160.5023      247.17061     -913.33172      992.0728       14.964928      14.964928      14.964928      0              0              0            
    118000   313.9978      -1153.6897      232.43201     -921.25765     -220.18751      15.160113      15.160113      15.160113      0              0              0            
    119000   278.35712     -1203.7915      206.04954     -997.74191      3098.6145      14.916758      14.916758      14.916758      0              0              0            
    120000   315.19625     -1218.037       233.31914     -984.71785     -158.08619      14.919227      14.919227      14.919227      0              0              0            
    121000   285.6492      -1212.8931      211.44739     -1001.4457     -640.70381      14.738144      14.738144      14.738144      0              0              0            
    122000   313.14854     -1199.9914      231.80335     -968.18807     -1151.8936      15.245948      15.245948      15.245948      0              0              0            
    123000   298.96162     -1252.2109      221.3017      -1030.9092      1162.8997      14.835618      14.835618      14.835618      0              0              0            
    124000   276.53282     -1214.7441      204.69913     -1010.0449     -412.5656       14.985686      14.985686      14.985686      0              0              0            
    125000   292.77889     -1172.4737      216.72504     -955.74861      2636.522       15.047701      15.047701      15.047701      0              0              0            
    126000   305.19369     -1183.2712      225.9149      -957.35634      1594.5561      15.052276      15.052276      15.052276      0              0              0            
    127000   312.98391     -1212.4593      231.68148     -980.77784      1612.6182      15.075716      15.075716      15.075716      0              0              0            
    128000   311.09555     -1201.9255      230.28366     -971.64181     -367.06659      15.280122      15.280122      15.280122      0              0              0            
    129000   275.50938     -1209.1814      203.94154     -1005.2398     -1123.3502      15.023201      15.023201      15.023201      0              0              0            
    130000   275.3425      -1198.2769      203.81801     -994.45885     -639.73526      15.013774      15.013774      15.013774      0              0              0            
    131000   301.42989     -1194.121       223.12881     -970.9922      -854.87271      15.118887      15.118887      15.118887      0              0              0            
    132000   282.49175     -1210.2108      209.11014     -1001.1006     -2566.0109      15.195635      15.195635      15.195635      0              0              0            
    133000   322.8927      -1183.0119      239.01632     -943.9956       1502.1699      15.275534      15.275534      15.275534      0              0              0            
    134000   285.95484     -1165.2724      211.67364     -953.59879      1328.9974      15.041052      15.041052      15.041052      0              0              0            
    135000   279.85439     -1201.4587      207.15787     -994.30083     -186.35336      14.930707      14.930707      14.930707      0              0              0            
    136000   308.08746     -1199.0657      228.05697     -971.00869      1973.4122      14.980508      14.980508      14.980508      0              0              0            
    137000   299.01157     -1202.4069      221.33868     -981.06821      142.77748      15.112632      15.112632      15.112632      0              0              0            
    138000   308.88706     -1198.8769      228.64886     -970.22806     -1623.9858      15.103669      15.103669      15.103669      0              0              0            
    139000   282.65801     -1218.1882      209.23321     -1008.955       2677.1715      14.742975      14.742975      14.742975      0              0              0            
    140000   280.47069     -1195.9772      207.61408     -988.36311      84.556537      14.985821      14.985821      14.985821      0              0              0            
    141000   311.39841     -1201.094       230.50784     -970.58619      318.13316      15.108126      15.108126      15.108126      0              0              0            
    142000   309.22531     -1197.2352      228.89924     -968.33597     -1736.8227      14.96795       14.96795       14.96795       0              0              0            
    143000   304.88462     -1210.0075      225.68611     -984.32142     -1216.1896      14.754179      14.754179      14.754179      0              0              0            
    144000   274.94918     -1190.265       203.52687     -986.73813     -2242.6185      15.192466      15.192466      15.192466      0              0              0            
    145000   269.77403     -1206.617       199.69605     -1006.9209     -1337.3595      15.160055      15.160055      15.160055      0              0              0            
    146000   297.35936     -1244.5242      220.11566     -1024.4085      405.33177      14.857391      14.857391      14.857391      0              0              0            
    147000   327.92794     -1188.4371      242.74357     -945.69349      2753.1488      14.786937      14.786937      14.786937      0              0              0            
    148000   290.41144     -1181.2957      214.97256     -966.32313      1078.2         15.18808       15.18808       15.18808       0              0              0            
    149000   309.16633     -1215.8156      228.85558     -986.96003      1036.5779      14.774077      14.774077      14.774077      0              0              0            
    150000   294.75612     -1198.2957      218.18865     -980.10703      1101.9643      15.018663      15.018663      15.018663      0              0              0            
    151000   273.36622     -1194.0813      202.35511     -991.72615     -63.322869      15.128383      15.128383      15.128383      0              0              0            
    152000   274.85955     -1214.7121      203.46052     -1011.2515      1326.8439      14.778637      14.778637      14.778637      0              0              0            
    153000   283.60382     -1224.4747      209.93333     -1014.5413     -1706.3004      15.205437      15.205437      15.205437      0              0              0            
    154000   291.2289      -1164.9457      215.57768     -949.36798      1099.3444      15.275027      15.275027      15.275027      0              0              0            
    155000   286.10146     -1158.2371      211.78217     -946.45495     -1802.8685      15.341888      15.341888      15.341888      0              0              0            
    156000   310.1168      -1210.5585      229.55915     -980.99935     -1405.8894      15.188262      15.188262      15.188262      0              0              0            
    157000   314.51441     -1187.9724      232.81442     -955.15801      2295.3018      15.030796      15.030796      15.030796      0              0              0            
    158000   273.29324     -1194.6201      202.30109     -992.31903     -1766.2196      15.056221      15.056221      15.056221      0              0              0            
    159000   289.3079      -1185.3167      214.15568     -971.16105      11.666083      14.985212      14.985212      14.985212      0              0              0            
    160000   268.73103     -1211.9546      198.92398     -1013.0307     -1360.4035      15.159573      15.159573      15.159573      0              0              0            
    161000   337.13067     -1211.6457      249.55575     -962.08997      631.71456      14.974491      14.974491      14.974491      0              0              0            
    162000   308.92669     -1183.0557      228.67819     -954.37753      2675.3341      14.897577      14.897577      14.897577      0              0              0            
    163000   294.94035     -1182.7285      218.32502     -964.40352      647.78645      15.204368      15.204368      15.204368      0              0              0            
    164000   283.94735     -1184.5701      210.18763     -974.3825       848.8832       14.760887      14.760887      14.760887      0              0              0            
    165000   313.39922     -1194.8061      231.98891     -962.81722      63.311632      15.161593      15.161593      15.161593      0              0              0            
    166000   278.21693     -1201.0055      205.94577     -995.05978     -842.66257      15.12042       15.12042       15.12042       0              0              0            
    167000   304.83771     -1194.3305      225.65138     -968.67908     -1544.8373      15.261905      15.261905      15.261905      0              0              0            
    168000   301.67252     -1166.316       223.3084      -943.0076       1771.8418      15.154344      15.154344      15.154344      0              0              0            
    169000   304.76976     -1231.3529      225.60109     -1005.7518      274.71656      14.84849       14.84849       14.84849       0              0              0            
    170000   286.88104     -1199.0548      212.35924     -986.69553      491.76349      14.8711        14.8711        14.8711        0              0              0            
    171000   325.70167     -1170.7778      241.09561     -929.68215      755.51042      15.166609      15.166609      15.166609      0              0              0            
    172000   331.1245      -1199.9206      245.10977     -954.81086      1358.195       15.047601      15.047601      15.047601      0              0              0            
    173000   297.12213     -1221.6887      219.94005     -1001.7486      648.04385      14.957353      14.957353      14.957353      0              0              0            
    174000   279.10403     -1196.3994      206.60243     -989.79697     -1441.5401      15.018282      15.018282      15.018282      0              0              0            
    175000   331.2048      -1202.0717      245.16922     -956.9025       2061.227       14.946701      14.946701      14.946701      0              0              0            
    176000   302.84434     -1198.6348      224.17583     -974.45901      788.87113      14.972815      14.972815      14.972815      0              0              0            
    177000   300.77178     -1194.1428      222.64165     -971.50111     -641.68951      15.012682      15.012682      15.012682      0              0              0            
    178000   322.91727     -1216.456       239.0345      -977.42149     -309.91684      15.031591      15.031591      15.031591      0              0              0            
    179000   334.05472     -1212.0753      247.27883     -964.7965       971.39581      14.93349       14.93349       14.93349       0              0              0            
    180000   305.22104     -1232.2543      225.93515     -1006.3191     -819.19898      14.900945      14.900945      14.900945      0              0              0            
    181000   305.72205     -1182.1261      226.30601     -955.82013      82.777425      15.13184       15.13184       15.13184       0              0              0            
    182000   314.54433     -1194.346       232.83656     -961.50947      296.80783      15.190511      15.190511      15.190511      0              0              0            
    183000   256.49105     -1198.1539      189.86352     -1008.2904      338.74316      14.857479      14.857479      14.857479      0              0              0            
    184000   304.06933     -1219.3796      225.08261     -994.29703      1538.3122      14.890704      14.890704      14.890704      0              0              0            
    185000   308.69394     -1201.327       228.5059      -972.82109     -727.19049      14.961664      14.961664      14.961664      0              0              0            
    186000   274.80269     -1240.384       203.41843     -1036.9656      1955.8477      14.685388      14.685388      14.685388      0              0              0            
    187000   315.24672     -1210.5857      233.3565      -977.22918     -958.33918      15.0789        15.0789        15.0789        0              0              0            
    188000   297.11702     -1167.9893      219.93626     -948.05308      483.17274      14.898687      14.898687      14.898687      0              0              0            
    189000   307.8166      -1203.3406      227.85647     -975.48416      1702.9417      14.935303      14.935303      14.935303      0              0              0            
    190000   287.97872     -1191.2881      213.17178     -978.11636      476.86484      15.040479      15.040479      15.040479      0              0              0            
    191000   306.74592     -1155.9165      227.06391     -928.85259      37.937719      15.38584       15.38584       15.38584       0              0              0            
    192000   301.52331     -1178.1653      223.19796     -954.96737     -913.55034      15.155143      15.155143      15.155143      0              0              0            
    193000   305.41017     -1208.5511      226.07514     -982.47597      135.11675      15.023338      15.023338      15.023338      0              0              0            
    194000   304.73295     -1192.8028      225.57384     -967.22893      2763.8222      14.971072      14.971072      14.971072      0              0              0            
    195000   280.5296      -1208.0226      207.65769     -1000.3649      392.98437      14.99793       14.99793       14.99793       0              0              0            
    196000   298.34502     -1166.7389      220.84527     -945.89359     -1313.7731      15.28292       15.28292       15.28292       0              0              0            
    197000   286.4045      -1179.234       212.00649     -967.2275       567.33168      15.192386      15.192386      15.192386      0              0              0            
    198000   283.51024     -1174.0357      209.86406     -964.1716      -2068.2672      15.233011      15.233011      15.233011      0              0              0            
    199000   279.19039     -1182.2015      206.66636     -975.53512     -306.68685      15.254103      15.254103      15.254103      0              0              0            
    200000   281.17292     -1211.5158      208.13389     -1003.3819      44.133931      15.056996      15.056996      15.056996      0              0              0            
    201000   281.1008      -1197.0298      208.08051     -988.94925      2106.0133      14.880385      14.880385      14.880385      0              0              0            
    202000   325.53337     -1184.7188      240.97103     -943.74773      451.47767      14.981866      14.981866      14.981866      0              0              0            
    203000   284.54879     -1220.2594      210.63283     -1009.6266      1905.4675      14.796171      14.796171      14.796171      0              0              0            
    204000   321.56731     -1227.6607      238.03521     -989.62548     -1426.2342      14.79413       14.79413       14.79413       0              0              0            
    205000   275.79541     -1246.3572      204.15327     -1042.2039      55.591963      14.703645      14.703645      14.703645      0              0              0            
    206000   318.58954     -1195.683       235.83096     -959.85207     -610.75439      14.930791      14.930791      14.930791      0              0              0            
    207000   315.02236     -1192.3471      233.19042     -959.15663     -2003.0578      15.043751      15.043751      15.043751      0              0              0            
    208000   268.62746     -1220.321       198.84731     -1021.4737      293.01109      14.944647      14.944647      14.944647      0              0              0            
    209000   285.48335     -1177.8311      211.32462     -966.5065       124.88604      15.328461      15.328461      15.328461      0              0              0            
    210000   299.20709     -1190.1289      221.48341     -968.64552     -701.00791      14.958761      14.958761      14.958761      0              0              0            
    211000   303.95142     -1215.6248      224.99533     -990.62945      127.7373       14.894868      14.894868      14.894868      0              0              0            
    212000   323.61734     -1185.796       239.55272     -946.24328      1785.691       14.925946      14.925946      14.925946      0              0              0            
    213000   300.04201     -1143.4356      222.10145     -921.33417      1367.499       14.980205      14.980205      14.980205      0              0              0            
    214000   318.35007     -1180.4261      235.6537      -944.77243     -68.29374       14.723729      14.723729      14.723729      0              0              0            
    215000   294.40373     -1195.613       217.9278      -977.68517      2234.9091      14.797427      14.797427      14.797427      0              0              0            
    216000   298.62942     -1200.6493      221.0558      -979.59354     -691.73792      15.011143      15.011143      15.011143      0              0              0            
    217000   294.39768     -1200.3714      217.92332     -982.44809     -1529.1866      15.090294      15.090294      15.090294      0              0              0            
    218000   286.99204     -1216.6969      212.44141     -1004.2555      612.35618      15.091689      15.091689      15.091689      0              0              0            
    219000   290.11521     -1226.2934      214.75329     -1011.5401      981.6046       14.872708      14.872708      14.872708      0              0              0            
    220000   294.03925     -1194.9133      217.658       -977.25527      233.44576      15.000414      15.000414      15.000414      0              0              0            
    221000   326.85515     -1198.2029      241.94946     -956.25343     -442.55876      14.906939      14.906939      14.906939      0              0              0            
    222000   317.91359     -1217.9709      235.33061     -982.64028      1203.0116      14.856461      14.856461      14.856461      0              0              0            
    223000   319.72971     -1160.7228      236.67496     -924.04788      1021.9896      14.973045      14.973045      14.973045      0              0              0            
    224000   291.57481     -1198.7971      215.83373     -982.96341      611.95324      15.023512      15.023512      15.023512      0              0              0            
    225000   327.24609     -1199.4849      242.23885     -957.2461       2823.8324      14.87537       14.87537       14.87537       0              0              0            
    226000   319.69642     -1192.9839      236.65032     -956.33355      590.5912       15.033494      15.033494      15.033494      0              0              0            
    227000   286.3783      -1190.5569      211.9871      -978.56977      372.22969      15.008104      15.008104      15.008104      0              0              0            
    228000   311.19526     -1219.5717      230.35747     -989.21419     -1214.8063      14.756441      14.756441      14.756441      0              0              0            
    229000   290.88598     -1164.0486      215.32384     -948.72474      505.05703      15.172278      15.172278      15.172278      0              0              0            
    230000   310.26967     -1224.5808      229.67232     -994.90851     -351.80419      14.724036      14.724036      14.724036      0              0              0            
    231000   285.84447     -1227.9094      211.59193     -1016.3175     -1898.7843      15.040175      15.040175      15.040175      0              0              0            
    232000   302.14109     -1226.989       223.65526     -1003.3337      2124.4314      14.975873      14.975873      14.975873      0              0              0            
    233000   296.4656      -1174.1453      219.45406     -954.6912       1976.3433      15.042661      15.042661      15.042661      0              0              0            
    234000   281.99771     -1178.8431      208.74443     -970.09862     -681.92416      15.035207      15.035207      15.035207      0              0              0            
    235000   284.73716     -1220.7311      210.77227     -1009.9589     -428.55052      14.959153      14.959153      14.959153      0              0              0            
    236000   293.65735     -1204.3405      217.3753      -986.96525      3194.1323      14.741369      14.741369      14.741369      0              0              0            
    237000   296.13137     -1198.5953      219.20665     -979.38866     -2121.1551      14.91656       14.91656       14.91656       0              0              0            
    238000   328.14833     -1195.5684      242.90671     -952.66172      1726.9764      15.084078      15.084078      15.084078      0              0              0            
    239000   307.29788     -1187.6283      227.47249     -960.1558      -1728.8931      15.149663      15.149663      15.149663      0              0              0            
    240000   279.70004     -1202.906       207.04362     -995.86241      1679.4245      14.956604      14.956604      14.956604      0              0              0            
    241000   312.01056     -1243.2418      230.96098     -1012.2808     -659.53197      14.973444      14.973444      14.973444      0              0              0            
    242000   291.1636      -1227.4988      215.52934     -1011.9695     -335.79462      14.759124      14.759124      14.759124      0              0              0            
    243000   321.27998     -1232.7585      237.82253     -994.93593      1106.9187      14.916164      14.916164      14.916164      0              0              0            
    244000   273.17426     -1184.4471      202.21301     -982.23407      1201.9601      14.899062      14.899062      14.899062      0              0              0            
    245000   322.17797     -1205.0444      238.48724     -966.55717      293.49169      14.943707      14.943707      14.943707      0              0              0            
    246000   301.32779     -1201.4827      223.05323     -978.42946     -1328.6766      15.122086      15.122086      15.122086      0              0              0            
    247000   284.19296     -1209.6841      210.36943     -999.31467      137.0932       14.939482      14.939482      14.939482      0              0              0            
    248000   305.31122     -1232.2549      226.0019      -1006.253       845.63032      14.816071      14.816071      14.816071      0              0              0            
    249000   308.0549      -1196.7818      228.03286     -968.74898      1453.9674      15.049272      15.049272      15.049272      0              0              0            
    250000   291.54036     -1203.5532      215.80823     -987.74498      45.673798      15.249966      15.249966      15.249966      0              0              0            
    251000   291.85076     -1160.3129      216.038       -944.2749      -1545.1672      15.71969       15.71969       15.71969       0              0              0            
    252000   304.50326     -1212.5697      225.40382     -987.16584      57.682363      14.908445      14.908445      14.908445      0              0              0            
    253000   289.52041     -1200.5515      214.31299     -986.23855      703.3947       14.809314      14.809314      14.809314      0              0              0            
    254000   296.71191     -1192.7663      219.63639     -973.12994     -289.60158      15.262466      15.262466      15.262466      0              0              0            
    255000   295.97918     -1198.3989      219.094       -979.30487     -6.1698664      14.789105      14.789105      14.789105      0              0              0            
    256000   309.51713     -1198.0881      229.11526     -968.97285      27.388811      15.086417      15.086417      15.086417      0              0              0            
    257000   315.41664     -1186.1004      233.48228     -952.6181       519.23884      15.068698      15.068698      15.068698      0              0              0            
    258000   285.15474     -1175.8435      211.08137     -964.76213      165.21121      15.28749       15.28749       15.28749       0              0              0            
    259000   285.7506      -1206.0913      211.52245     -994.56886      1624.5031      14.876768      14.876768      14.876768      0              0              0            
    260000   283.80467     -1213.4243      210.08201     -1003.3423      192.34677      15.189246      15.189246      15.189246      0              0              0            
    261000   294.90927     -1183.8191      218.30201     -965.51705      1108.9908      15.087515      15.087515      15.087515      0              0              0            
    262000   264.56182     -1189.0372      195.83778     -993.19943      2537.6392      14.749452      14.749452      14.749452      0              0              0            
    263000   314.80408     -1205.2511      233.02884     -972.2223       920.26854      15.133696      15.133696      15.133696      0              0              0            
    264000   293.20524     -1183.9592      217.04063     -966.9186      -1176.9521      15.057781      15.057781      15.057781      0              0              0            
    265000   298.73567     -1213.8438      221.13444     -992.70935      3760.2735      14.605637      14.605637      14.605637      0              0              0            
    266000   271.15787     -1203.3512      200.72041     -1002.6308      1495.0815      14.874572      14.874572      14.874572      0              0              0            
    267000   298.43331     -1174.3714      220.91063     -953.46076     -656.88671      15.07387       15.07387       15.07387       0              0              0            
    268000   288.41586     -1180.9507      213.49537     -967.45533     -225.58633      15.137115      15.137115      15.137115      0              0              0            
    269000   296.46628     -1202.8178      219.45457     -983.36324      70.467152      15.432783      15.432783      15.432783      0              0              0            
    270000   350.44933     -1225.0797      259.41468     -965.66498      2113.0729      14.911914      14.911914      14.911914      0              0              0            
    271000   323.30282     -1206.0674      239.3199      -966.74746      1853.3369      15.073302      15.073302      15.073302      0              0              0            
    272000   330.78417     -1201.6694      244.85786     -956.8115      -610.67394      15.089579      15.089579      15.089579      0              0              0            
    273000   308.12536     -1196.2893      228.08502     -968.20432      26.036568      15.288753      15.288753      15.288753      0              0              0            
    274000   297.0845      -1176.6976      219.9122      -956.78544      558.24206      15.219187      15.219187      15.219187      0              0              0            
    275000   293.28343     -1197.5938      217.09852     -980.49527      1453.1587      14.628954      14.628954      14.628954      0              0              0            
    276000   299.55679     -1203.4252      221.74227     -981.68293      3840.0615      14.781053      14.781053      14.781053      0              0              0            
    277000   305.99394     -1203.5216      226.50727     -977.01429      1011.3278      14.952223      14.952223      14.952223      0              0              0            
    278000   317.19402     -1208.6358      234.79795     -973.83783      644.08236      14.702882      14.702882      14.702882      0              0              0            
    279000   283.21552     -1198.256       209.6459      -988.61013     -790.58361      14.985844      14.985844      14.985844      0              0              0            
    280000   284.89518     -1216.6059      210.88924     -1005.7166      672.76048      14.777675      14.777675      14.777675      0              0              0            
    281000   303.38277     -1203.985       224.57439     -979.41063     -896.32695      14.92033       14.92033       14.92033       0              0              0            
    282000   293.66659     -1170.117       217.38214     -952.73484     -308.88343      15.212549      15.212549      15.212549      0              0              0            
    283000   309.48553     -1212.3195      229.09187     -983.22761      578.07057      15.005592      15.005592      15.005592      0              0              0            
    284000   300.4122      -1216.0253      222.37547     -993.64985      428.26698      15.067555      15.067555      15.067555      0              0              0            
    285000   298.40801     -1169.0672      220.8919      -948.17533      928.01317      15.130004      15.130004      15.130004      0              0              0            
    286000   269.74422     -1178.5147      199.67398     -978.84072     -1154.3226      15.139889      15.139889      15.139889      0              0              0            
    287000   306.00458     -1222.0938      226.51515     -995.57869     -988.37095      14.742484      14.742484      14.742484      0              0              0            
    288000   314.94112     -1201.5347      233.13028     -968.40439     -1826.3762      15.090626      15.090626      15.090626      0              0              0            
    289000   307.09518     -1200.2945      227.32244     -972.97202      19.078153      15.24151       15.24151       15.24151       0              0              0            
    290000   316.78141     -1203.277       234.49252     -968.78445     -208.44801      15.050017      15.050017      15.050017      0              0              0            
    291000   293.26808     -1199.5643      217.08715     -982.47715      223.41738      15.049334      15.049334      15.049334      0              0              0            
    292000   305.95805     -1213.3951      226.4807      -986.91441     -1184.4349      15.019294      15.019294      15.019294      0              0              0            
    293000   304.40543     -1212.3354      225.3314      -987.00395      252.63207      15.116999      15.116999      15.116999      0              0              0            
    294000   272.0067      -1195.9141      201.34874     -994.56533      348.74015      15.081202      15.081202      15.081202      0              0              0            
    295000   335.54522     -1209.3723      248.38215     -960.99013     -55.858016      15.045572      15.045572      15.045572      0              0              0            
    296000   280.84683     -1214.3022      207.89251     -1006.4097     -772.38785      14.991684      14.991684      14.991684      0              0              0            
    297000   319.98819     -1223.1467      236.8663      -986.28043      332.40831      15.213859      15.213859      15.213859      0              0              0            
    298000   313.26898     -1209.638       231.89251     -977.74554     -469.45885      15.077325      15.077325      15.077325      0              0              0            
    299000   322.73866     -1193.2292      238.90229     -954.32688     -1718.8983      15.279902      15.279902      15.279902      0              0              0            
    300000   285.06719     -1156.7512      211.01657     -945.73466      557.35909      15.240624      15.240624      15.240624      0              0              0            
    301000   322.70328     -1189.5732      238.8761      -950.69709     -692.27853      15.170232      15.170232      15.170232      0              0              0            
    302000   278.66409     -1216.8448      206.27677     -1010.568       3904.4062      14.764488      14.764488      14.764488      0              0              0            
    303000   316.42634     -1223.5124      234.22969     -989.28267      2041.9219      15.020911      15.020911      15.020911      0              0              0            
    304000   304.85679     -1244.4121      225.66551     -1018.7466     -1614.9923      14.948599      14.948599      14.948599      0              0              0            
    305000   292.68791     -1209.542       216.65769     -992.88434     -966.48201      15.066915      15.066915      15.066915      0              0              0            
    306000   293.56374     -1208.7625      217.306       -991.4565       2632.1168      14.8885        14.8885        14.8885        0              0              0            
    307000   278.08987     -1197.4048      205.85172     -991.55304      921.74267      14.912859      14.912859      14.912859      0              0              0            
    308000   283.92897     -1214.9912      210.17401     -1004.8172     -1810.4417      14.933383      14.933383      14.933383      0              0              0            
    309000   317.25487     -1206.2262      234.843       -971.3832      -2016.7001      15.065967      15.065967      15.065967      0              0              0            
    310000   310.45799     -1194.5069      229.81171     -964.69515      1719.1559      14.889201      14.889201      14.889201      0              0              0            
    311000   301.558       -1193.3848      223.22364     -970.16116     -498.1334       15.05301       15.05301       15.05301       0              0              0            
    312000   340.56319     -1197.3073      252.09662     -945.21064     -651.36303      15.084208      15.084208      15.084208      0              0              0            
    313000   299.66067     -1212.1783      221.81917     -990.35914     -656.76287      14.902795      14.902795      14.902795      0              0              0            
    314000   272.70035     -1176.7147      201.8622      -974.85248     -748.27845      15.10776       15.10776       15.10776       0              0              0            
    315000   308.35831     -1208.4167      228.25746     -980.15926     -706.87099      15.070133      15.070133      15.070133      0              0              0            
    316000   300.27179     -1215.683       222.27154     -993.41144     -64.444783      14.822818      14.822818      14.822818      0              0              0            
    317000   290.88922     -1202.7966      215.32623     -987.47039      1394.8363      14.933909      14.933909      14.933909      0              0              0            
    318000   294.2256      -1207.6753      217.79594     -989.87933      343.90137      14.91765       14.91765       14.91765       0              0              0            
    319000   291.73506     -1204.8719      215.95236     -988.91951     -1321.1056      15.080748      15.080748      15.080748      0              0              0            
    320000   308.9139      -1221.178       228.66873     -992.50923     -923.7811       15.124532      15.124532      15.124532      0              0              0            
    321000   318.19834     -1194.7044      235.54139     -959.16301     -1545.4296      14.982086      14.982086      14.982086      0              0              0            
    322000   323.42163     -1203.0612      239.40784     -963.6534       1198.8356      14.930535      14.930535      14.930535      0              0              0            
    323000   300.68429     -1199.8754      222.57688     -977.29853     -1044.4738      15.098715      15.098715      15.098715      0              0              0            
    324000   291.21171     -1202.8086      215.56495     -987.24361     -60.38696       15.012532      15.012532      15.012532      0              0              0            
    325000   285.98526     -1163.3594      211.69615     -951.6632       2279.0583      14.83957       14.83957       14.83957       0              0              0            
    326000   264.99685     -1203.2234      196.15981     -1007.0636      1905.7015      14.882981      14.882981      14.882981      0              0              0            
    327000   287.3708      -1203.0846      212.72178     -990.36277     -886.32918      14.797769      14.797769      14.797769      0              0              0            
    328000   287.37619     -1158.2247      212.72577     -945.49889      919.64679      15.113258      15.113258      15.113258      0              0              0            
    329000   294.25545     -1210.0572      217.81804     -992.23916      210.50325      14.82922       14.82922       14.82922       0              0              0            
    330000   295.90054     -1201.7128      219.03579     -982.67703     -1851.6658      15.189003      15.189003      15.189003      0              0              0            
    331000   311.6931      -1200.224       230.72598     -969.498        3823.0084      14.673815      14.673815      14.673815      0              0              0            
    332000   322.00397     -1193.3818      238.35845     -955.02333     -698.0833       14.977125      14.977125      14.977125      0              0              0            
    333000   290.51832     -1227.0361      215.05168     -1011.9844     -396.54208      15.01958       15.01958       15.01958       0              0              0            
    334000   290.8959      -1175.846       215.33118     -960.51479     -267.63711      14.933151      14.933151      14.933151      0              0              0            
    335000   288.99314     -1209.6488      213.92269     -995.72612      466.1685       15.078207      15.078207      15.078207      0              0              0            
    336000   314.27227     -1195.0016      232.63518     -962.36642      1512.8981      14.96723       14.96723       14.96723       0              0              0            
    337000   332.54051     -1184.3433      246.15796     -938.1853      -676.99214      14.887829      14.887829      14.887829      0              0              0            
    338000   281.76327     -1217.1961      208.57089     -1008.6252     -906.60622      15.05885       15.05885       15.05885       0              0              0            
    339000   324.31186     -1172.5326      240.06682     -932.46573      5.5898927      14.766648      14.766648      14.766648      0              0              0            
    340000   289.85091     -1191.672       214.55764     -977.11435     -195.5144       15.141148      15.141148      15.141148      0              0              0            
    341000   278.46734     -1207.6255      206.13113     -1001.4944      307.45767      14.792274      14.792274      14.792274      0              0              0            
    342000   319.8448      -1240.7756      236.76016     -1004.0155     -615.39115      14.874447      14.874447      14.874447      0              0              0            
    343000   290.29515     -1185.0621      214.88648     -970.17566      1344.2622      14.931601      14.931601      14.931601      0              0              0            
    344000   297.48144     -1227.2353      220.20602     -1007.0293      915.91332      14.767172      14.767172      14.767172      0              0              0            
    345000   298.99838     -1204.5203      221.32891     -983.19142      779.76847      14.961728      14.961728      14.961728      0              0              0            
    346000   294.05268     -1227.8193      217.66794     -1010.1513      1273.7219      14.874708      14.874708      14.874708      0              0              0            
    347000   296.65732     -1177.1925      219.59598     -957.59652     -2915.6163      15.098405      15.098405      15.098405      0              0              0            
    348000   273.38536     -1205.482       202.36927     -1003.1127     -794.23535      15.137385      15.137385      15.137385      0              0              0            
    349000   324.81431     -1220.7789      240.43876     -980.34016     -1753.4744      15.080998      15.080998      15.080998      0              0              0            
    350000   301.52521     -1213.3662      223.19936     -990.16683     -77.867972      14.88559       14.88559       14.88559       0              0              0            
    351000   289.81538     -1184.9114      214.53134     -970.38009     -700.1336       14.785609      14.785609      14.785609      0              0              0            
    352000   271.65973     -1195.4845      201.0919      -994.39257     -981.73765      14.920399      14.920399      14.920399      0              0              0            
    353000   303.62875     -1174.7126      224.75648     -949.95609      627.29773      14.854313      14.854313      14.854313      0              0              0            
    354000   307.3976      -1208.4539      227.54631     -980.9076      -491.55164      15.07462       15.07462       15.07462       0              0              0            
    355000   311.51319     -1169.1929      230.59281     -938.60006      1719.1674      14.877424      14.877424      14.877424      0              0              0            
    356000   309.40833     -1210.6633      229.03472     -981.6286       852.58339      14.963953      14.963953      14.963953      0              0              0            
    357000   303.78303     -1185.0234      224.87068     -960.15268     -652.59459      14.845856      14.845856      14.845856      0              0              0            
    358000   296.1599      -1190.1929      219.22778     -970.96515      1205.8156      14.928715      14.928715      14.928715      0              0              0            
    359000   287.80792     -1183.7542      213.04535     -970.70883      23.478153      15.065514      15.065514      15.065514      0              0              0            
    360000   297.05125     -1226.2643      219.88758     -1006.3768     -1194.741       15.21468       15.21468       15.21468       0              0              0            
    361000   298.99726     -1194.4945      221.32809     -973.16644      945.60347      14.980518      14.980518      14.980518      0              0              0            
    362000   315.37144     -1220.0061      233.44882     -986.55729     -656.39617      14.86383       14.86383       14.86383       0              0              0            
    363000   301.89803     -1204.0559      223.47534     -980.58052     -461.1659       15.029025      15.029025      15.029025      0              0              0            
    364000   285.66275     -1208.9523      211.45743     -997.49487      1106.1678      14.860208      14.860208      14.860208      0              0              0            
    365000   279.27898     -1204.6475      206.73194     -997.91555     -1629.5285      14.77239       14.77239       14.77239       0              0              0            
    366000   303.94078     -1203.1109      224.98745     -978.12343     -1056.1706      14.839191      14.839191      14.839191      0              0              0            
    367000   290.65308     -1176.2288      215.15143     -961.07733     -19.88104       14.965695      14.965695      14.965695      0              0              0            
    368000   281.98075     -1218.0948      208.73188     -1009.3629     -653.94238      14.850102      14.850102      14.850102      0              0              0            
    369000   296.37251     -1220.9189      219.38516     -1001.5338     -47.252288      15.376334      15.376334      15.376334      0              0              0            
    370000   326.40163     -1206.741       241.61374     -965.12728     -260.6709       14.773607      14.773607      14.773607      0              0              0            
    371000   296.30598     -1182.6574      219.33591     -963.32146      1079.0774      14.940685      14.940685      14.940685      0              0              0            
    372000   319.67368     -1232.2722      236.63349     -995.6387      -395.51869      14.929436      14.929436      14.929436      0              0              0            
    373000   273.63164     -1168.4763      202.55158     -965.92472     -2067.7754      15.187334      15.187334      15.187334      0              0              0            
    374000   331.40754     -1220.3838      245.3193      -975.06449     -1222.7183      14.89634       14.89634       14.89634       0              0              0            
    375000   310.61127     -1214.5592      229.92518     -984.63397      296.91911      14.936519      14.936519      14.936519      0              0              0            
    376000   296.08296     -1194.7906      219.17082     -975.61978      418.06576      14.91438       14.91438       14.91438       0              0              0            
    377000   299.94292     -1219.1203      222.0281      -997.09223      1043.7093      14.757349      14.757349      14.757349      0              0              0            
    378000   297.91618     -1185.9539      220.52784     -965.42602     -473.53499      14.967185      14.967185      14.967185      0              0              0            
    379000   286.81257     -1149.0478      212.30856     -936.73926     -678.30965      15.343117      15.343117      15.343117      0              0              0            
    380000   271.12861     -1234.0559      200.69875     -1033.3571      367.24582      14.992956      14.992956      14.992956      0              0              0            
    381000   273.40557     -1231.5277      202.38423     -1029.1434     -1824.1028      14.995038      14.995038      14.995038      0              0              0            
    382000   318.57625     -1216.1672      235.82113     -980.34611     -638.47137      14.988233      14.988233      14.988233      0              0              0            
    383000   312.16447     -1210.6748      231.07491     -979.59985     -907.57724      15.24418       15.24418       15.24418       0              0              0            
    384000   324.76316     -1201.5802      240.40089     -961.17926     -2101.5883      14.917152      14.917152      14.917152      0              0              0            
    385000   314.86154     -1186.9831      233.07137     -953.91174      3339.5499      14.816137      14.816137      14.816137      0              0              0            
    386000   322.57224     -1159.8466      238.7791      -921.06752     -884.29485      15.353383      15.353383      15.353383      0              0              0            
    387000   279.56547     -1192.2985      206.94401     -985.35449     -354.22839      15.021639      15.021639      15.021639      0              0              0            
    388000   305.3158      -1177.7686      226.00528     -951.76333     -711.45713      15.361128      15.361128      15.361128      0              0              0            
    389000   297.86442     -1234.5102      220.48952     -1014.0206      438.88063      15.120377      15.120377      15.120377      0              0              0            
    390000   299.22742     -1190.0973      221.49846     -968.59886      958.88234      14.920962      14.920962      14.920962      0              0              0            
    391000   260.8021      -1207.4813      193.05471     -1014.4266     -1545.0219      15.058277      15.058277      15.058277      0              0              0            
    392000   289.59303     -1206.2238      214.36675     -991.85708     -483.85468      15.062253      15.062253      15.062253      0              0              0            
    393000   295.64285     -1179.8498      218.84504     -961.00475     -42.147639      15.062098      15.062098      15.062098      0              0              0            
    394000   286.37178     -1211.7722      211.98227     -999.78998      1782.8397      14.899427      14.899427      14.899427      0              0              0            
    395000   303.13336     -1234.9655      224.38977     -1010.5757      2646.3471      15.095696      15.095696      15.095696      0              0              0            
    396000   295.57279     -1215.4175      218.79317     -996.6243       1057.5915      14.940264      14.940264      14.940264      0              0              0            
    397000   334.25976     -1192.8284      247.4306      -945.39778      2293.9875      14.937419      14.937419      14.937419      0              0              0            
    398000   288.84215     -1217.2457      213.81092     -1003.4347     -799.18113      14.683025      14.683025      14.683025      0              0              0            
    399000   286.63885     -1218.7483      212.17996     -1006.5683     -935.27908      14.81388       14.81388       14.81388       0              0              0            
    400000   272.50231     -1205.2118      201.71561     -1003.4962     -1103.6552      15.121137      15.121137      15.121137      0              0              0            
    401000   293.29086     -1189.2313      217.10401     -972.12725     -1382.1436      15.028364      15.028364      15.028364      0              0              0            
    402000   312.79866     -1198.893       231.54436     -967.34864     -559.93341      15.150295      15.150295      15.150295      0              0              0            
    403000   305.29864     -1187.6336      225.99258     -961.64106      1394.4582      14.913486      14.913486      14.913486      0              0              0            
    404000   300.32281     -1190.9687      222.30931     -968.65939      1559.099       15.103682      15.103682      15.103682      0              0              0            
    405000   296.21539     -1188.8799      219.26885     -969.611        380.85301      15.046934      15.046934      15.046934      0              0              0            
    406000   276.99645     -1214.9019      205.04233     -1009.8596      334.52242      14.939439      14.939439      14.939439      0              0              0            
    407000   281.77436     -1241.827       208.5791      -1033.2479     -2122.5008      15.110389      15.110389      15.110389      0              0              0            
    408000   292.48743     -1224.8714      216.50928     -1008.3621     -119.98434      14.813323      14.813323      14.813323      0              0              0            
    409000   289.04248     -1197.3584      213.95922     -983.39915      2124.5691      14.850006      14.850006      14.850006      0              0              0            
    410000   284.14162     -1209.4119      210.33143     -999.08043      846.09985      14.929365      14.929365      14.929365      0              0              0            
    411000   278.07964     -1209.8425      205.84414     -1003.9984      1137.2262      14.943992      14.943992      14.943992      0              0              0            
    412000   296.40681     -1211.4942      219.41055     -992.08364      484.51233      14.836214      14.836214      14.836214      0              0              0            
    413000   304.25137     -1200.4922      225.21736     -975.27487     -1123.2604      14.996896      14.996896      14.996896      0              0              0            
    414000   281.32971     -1192.0306      208.24996     -983.78068      31.078894      14.978356      14.978356      14.978356      0              0              0            
    415000   314.14622     -1199.1215      232.54187     -966.57965      918.46535      15.230391      15.230391      15.230391      0              0              0            
    416000   247.70541     -1199.167       183.36009     -1015.8069      312.82305      15.030422      15.030422      15.030422      0              0              0            
    417000   301.98241     -1209.244       223.53779     -985.70622      356.35293      14.990473      14.990473      14.990473      0              0              0            
    418000   290.94058     -1209.9167      215.36425     -994.55249      883.1466       15.017908      15.017908      15.017908      0              0              0            
    419000   308.52119     -1176.4013      228.37803     -948.02329     -175.0986       15.06975       15.06975       15.06975       0              0              0            
    420000   302.60104     -1199.4773      223.99573     -975.48153      70.577675      15.170938      15.170938      15.170938      0              0              0            
    421000   331.61341     -1200.637       245.47168     -955.16528      233.56784      14.998183      14.998183      14.998183      0              0              0            
    422000   315.00462     -1228.659       233.17728     -995.48175      1631.2971      14.981947      14.981947      14.981947      0              0              0            
    423000   293.24666     -1212.107       217.0713      -995.03575      478.18692      14.839019      14.839019      14.839019      0              0              0            
    424000   314.81367     -1198.9749      233.03594     -965.93893     -1516.3269      15.029705      15.029705      15.029705      0              0              0            
    425000   293.91514     -1213.7054      217.56612     -996.13925      558.09457      14.841589      14.841589      14.841589      0              0              0            
    426000   274.37215     -1195.1447      203.09973     -992.04496      127.23115      14.686832      14.686832      14.686832      0              0              0            
    427000   325.48278     -1207.9962      240.93358     -967.0626      -571.34541      14.688414      14.688414      14.688414      0              0              0            
    428000   300.81865     -1174.4545      222.67634     -951.77818     -943.94103      15.214827      15.214827      15.214827      0              0              0            
    429000   289.98504     -1212.2463      214.65693     -997.58935     -949.77094      14.964053      14.964053      14.964053      0              0              0            
    430000   296.38501     -1173.6093      219.39441     -954.21484      96.408645      15.047843      15.047843      15.047843      0              0              0            
    431000   291.37322     -1200.4894      215.68451     -984.80493     -449.97189      14.993996      14.993996      14.993996      0              0              0            
    432000   292.90822     -1181.3042      216.82077     -964.48341      881.79467      15.016238      15.016238      15.016238      0              0              0            
    433000   299.44249     -1185.7138      221.65766     -964.0561       740.74183      15.062941      15.062941      15.062941      0              0              0            
    434000   313.32975     -1211.7547      231.93749     -979.81717      1003.9061      14.861394      14.861394      14.861394      0              0              0            
    435000   290.26439     -1193.3169      214.86371     -978.45314      1030.0152      14.799317      14.799317      14.799317      0              0              0            
    436000   284.21696     -1179.2705      210.3872      -968.88332      1841.4698      14.509263      14.509263      14.509263      0              0              0            
    437000   318.45863     -1177.1783      235.73406     -941.4442      -1864.3809      14.76652       14.76652       14.76652       0              0              0            
    438000   295.08886     -1174.9069      218.43495     -956.47197     -1186.9941      15.231624      15.231624      15.231624      0              0              0            
    439000   299.25007     -1201.5672      221.51522     -980.05196      1082.4936      14.959005      14.959005      14.959005      0              0              0            
    440000   277.06182     -1196.9217      205.09071     -991.831        611.17621      14.989835      14.989835      14.989835      0              0              0            
    441000   311.93471     -1200.2547      230.90484     -969.34984      794.53798      15.101335      15.101335      15.101335      0              0              0            
    442000   299.20802     -1194.4695      221.4841      -972.98539      182.30465      15.07053       15.07053       15.07053       0              0              0            
    443000   297.03143     -1194.8292      219.87291     -974.95634     -1869.6953      14.973741      14.973741      14.973741      0              0              0            
    444000   308.2309      -1192.3194      228.16314     -964.15627      197.3254       15.160971      15.160971      15.160971      0              0              0            
    445000   293.35408     -1208.4242      217.15081     -991.27339      429.32096      14.945369      14.945369      14.945369      0              0              0            
    446000   323.42786     -1186.3432      239.41246     -946.93072      271.64373      15.079397      15.079397      15.079397      0              0              0            
    447000   284.34408     -1180.432       210.4813      -969.95074      162.93254      15.075369      15.075369      15.075369      0              0              0            
    448000   279.90103     -1171.2423      207.1924      -964.04993     -948.41424      15.020726      15.020726      15.020726      0              0              0            
    449000   316.42785     -1201.9024      234.23081     -967.67158      669.31798      15.022849      15.022849      15.022849      0              0              0            
    450000   319.23855     -1195.7984      236.31139     -959.48703      89.701078      15.137005      15.137005      15.137005      0              0              0            
    451000   328.50067     -1202.2818      243.16753     -959.1143      -1385.0113      14.900515      14.900515      14.900515      0              0              0            
    452000   274.00015     -1183.7252      202.82436     -980.90081     -396.84677      15.160995      15.160995      15.160995      0              0              0            
    453000   297.72326     -1223.4742      220.38502     -1003.0892      269.07355      14.974823      14.974823      14.974823      0              0              0            
    454000   336.80743     -1227.1851      249.31648     -977.86864      856.681        14.994524      14.994524      14.994524      0              0              0            
    455000   287.71055     -1211.3468      212.97327     -998.37355     -2453.5905      15.078577      15.078577      15.078577      0              0              0            
    456000   281.82177     -1226.7133      208.61419     -1018.0991     -191.42042      14.892197      14.892197      14.892197      0              0              0            
    457000   292.83613     -1197.6338      216.7674      -980.86638     -1092.804       15.14618       15.14618       15.14618       0              0              0            
    458000   290.83476     -1202.4285      215.28592     -987.14256     -2353.0619      14.810522      14.810522      14.810522      0              0              0            
    459000   275.86464     -1190.4883      204.20452     -986.28378      155.55838      15.032045      15.032045      15.032045      0              0              0            
    460000   314.76418     -1170.9232      232.9993      -937.92387     -2041.1284      14.968726      14.968726      14.968726      0              0              0            
    461000   311.20051     -1164.2017      230.36135     -933.84033      1429.7293      15.000755      15.000755      15.000755      0              0              0            
    462000   289.75965     -1189.9592      214.49009     -975.46913      1529.4388      15.122577      15.122577      15.122577      0              0              0            
    463000   323.97511     -1203.2489      239.81755     -963.43133      1507.8813      14.821938      14.821938      14.821938      0              0              0            
    464000   336.44923     -1203.6958      249.05132     -954.64445     -706.07223      14.981963      14.981963      14.981963      0              0              0            
    465000   322.17327     -1205.8692      238.48377     -967.38543     -100.64758      15.133928      15.133928      15.133928      0              0              0            
    466000   271.50653     -1187.3841      200.9785      -986.40555     -1014.1585      15.361621      15.361621      15.361621      0              0              0            
    467000   307.83834     -1209.5792      227.87256     -981.70666      1270.869       15.190866      15.190866      15.190866      0              0              0            
    468000   302.01202     -1193.0635      223.55971     -969.50374     -332.30758      15.209969      15.209969      15.209969      0              0              0            
    469000   302.02846     -1150.0163      223.57189     -926.44437      763.2959       15.297231      15.297231      15.297231      0              0              0            
    470000   289.65856     -1186.616       214.41526     -972.20076      827.52074      15.154906      15.154906      15.154906      0              0              0            
    471000   295.12654     -1209.6339      218.46284     -991.17111      371.782        15.151874      15.151874      15.151874      0              0              0            
    472000   296.5543      -1145.9725      219.51973     -926.4528       620.92386      15.225017      15.225017      15.225017      0              0              0            
    473000   287.03009     -1234.2501      212.46957     -1021.7805      551.11481      15.05246       15.05246       15.05246       0              0              0            
    474000   283.31107     -1240.4178      209.71662     -1030.7011     -228.16867      15.144026      15.144026      15.144026      0              0              0            
    475000   290.15118     -1182.0484      214.77991     -967.26845      374.33321      14.89568       14.89568       14.89568       0              0              0            
    476000   293.168       -1186.7905      217.01306     -969.77741     -313.32587      14.946808      14.946808      14.946808      0              0              0            
    477000   292.67735     -1183.4631      216.64987     -966.81325      1216.3454      15.112699      15.112699      15.112699      0              0              0            
    478000   297.94294     -1209.8454      220.54765     -989.29779     -1208.5865      15.170534      15.170534      15.170534      0              0              0            
    479000   283.78549     -1206.2133      210.06781     -996.14549     -567.2514       15.067732      15.067732      15.067732      0              0              0            
    480000   285.46669     -1184.1399      211.31229     -972.82758      92.352127      15.057313      15.057313      15.057313      0              0              0            
    481000   304.64607     -1240.4336      225.50953     -1014.9241      1831.0159      14.814764      14.814764      14.814764      0              0              0            
    482000   287.49999     -1232.6601      212.81741     -1019.8426     -215.87144      14.706868      14.706868      14.706868      0              0              0            
    483000   287.76934     -1217.907       213.01679     -1004.8902     -1047.9925      15.010162      15.010162      15.010162      0              0              0            
    484000   293.23166     -1185.4765      217.06019     -968.41633     -2260.8299      15.061021      15.061021      15.061021      0              0              0            
    485000   293.11408     -1183.8559      216.97315     -966.88274     -599.45931      15.077322      15.077322      15.077322      0              0              0            
    486000   319.9783      -1193.2404      236.85897     -956.38142     -1338.8864      15.111297      15.111297      15.111297      0              0              0            
    487000   307.88178     -1198.3759      227.90472     -970.47114      581.59459      14.823039      14.823039      14.823039      0              0              0            
    488000   303.13072     -1209.7745      224.38782     -985.38669     -3530.4779      15.000611      15.000611      15.000611      0              0              0            
    489000   285.05926     -1195.6963      211.01069     -984.68565     -1399.3328      15.170397      15.170397      15.170397      0              0              0            
    490000   305.71313     -1176.7782      226.2994      -950.47883     -634.35575      15.056415      15.056415      15.056415      0              0              0            
    491000   315.4817      -1188.7992      233.53043     -955.26872      1883.7494      14.815359      14.815359      14.815359      0              0              0            
    492000   304.42786     -1221.519       225.34801     -996.17096      932.86014      14.945439      14.945439      14.945439      0              0              0            
    493000   305.32928     -1231.4941      226.01527     -1005.4788      661.14688      14.614481      14.614481      14.614481      0              0              0            
    494000   281.66256     -1227.2126      208.49634     -1018.7162      1423.5617      14.942874      14.942874      14.942874      0              0              0            
    495000   260.56664     -1221.9098      192.88042     -1029.0294      3048.9694      14.738011      14.738011      14.738011      0              0              0            
    496000   309.9399      -1208.0234      229.42821     -978.59516     -743.68797      14.988903      14.988903      14.988903      0              0              0            
    497000   305.90139     -1203.3758      226.43876     -976.93704     -1590.3082      15.215717      15.215717      15.215717      0              0              0            
    498000   296.12744     -1178.3388      219.20375     -959.13505     -1497.2963      15.139218      15.139218      15.139218      0              0              0            
    499000   304.11205     -1218.5346      225.11423     -993.42038     -608.51722      14.935284      14.935284      14.935284      0              0              0            
    500000   290.95135     -1198.3015      215.37223     -982.92928     -781.07931      14.971525      14.971525      14.971525      0              0              0            
    501000   292.04692     -1158.5358      216.18321     -942.35261     -2664.5168      15.122342      15.122342      15.122342      0              0              0            
    502000   264.11284     -1203.4482      195.50543     -1007.9427     -1977.4131      15.117108      15.117108      15.117108      0              0              0            
    503000   292.04502     -1215.3018      216.1818      -999.12001      822.25224      15.001227      15.001227      15.001227      0              0              0            
    504000   299.5026      -1198.0481      221.70216     -976.34595     -817.75013      15.061144      15.061144      15.061144      0              0              0            
    505000   290.95902     -1222.4091      215.37791     -1007.0312     -1947.543       14.872795      14.872795      14.872795      0              0              0            
    506000   302.36457     -1208.5609      223.82068     -984.74019      670.14556      14.782337      14.782337      14.782337      0              0              0            
    507000   319.00472     -1198.7432      236.1383      -962.60489     -98.44514       14.912109      14.912109      14.912109      0              0              0            
    508000   305.67209     -1174.243       226.26902     -947.974        986.90157      14.947863      14.947863      14.947863      0              0              0            
    509000   297.60596     -1192.0831      220.2982      -971.78488      510.06718      14.872742      14.872742      14.872742      0              0              0            
    510000   310.36922     -1180.296       229.746       -950.55002     -379.8052       15.264621      15.264621      15.264621      0              0              0            
    511000   310.3855      -1189.4659      229.75805     -959.70782     -193.54335      15.026067      15.026067      15.026067      0              0              0            
    512000   310.17785     -1170.4061      229.60435     -940.80179     -989.99427      14.929892      14.929892      14.929892      0              0              0            
    513000   285.90839     -1189.956       211.63926     -978.31676     -140.12189      14.928067      14.928067      14.928067      0              0              0            
    514000   275.89601     -1175.5293      204.22775     -971.30152      511.81113      15.023647      15.023647      15.023647      0              0              0            
    515000   287.44623     -1190.6402      212.77761     -977.86262     -1328.4111      15.303856      15.303856      15.303856      0              0              0            
    516000   279.97638     -1211.5364      207.24818     -1004.2883     -572.49099      15.093868      15.093868      15.093868      0              0              0            
    517000   317.03245     -1191.177       234.67836     -956.49865      1199.0521      15.480659      15.480659      15.480659      0              0              0            
    518000   275.65527     -1174.1229      204.04954     -970.07332      124.73197      15.211682      15.211682      15.211682      0              0              0            
    519000   289.55264     -1211.4347      214.33685     -997.09789     -494.89027      15.10992       15.10992       15.10992       0              0              0            
    520000   308.56992     -1204.2448      228.4141      -975.83072      8.3522674      14.752727      14.752727      14.752727      0              0              0            
    521000   311.65599     -1189.8537      230.69851     -959.15524      396.90186      14.902831      14.902831      14.902831      0              0              0            
    522000   294.54725     -1179.5845      218.03403     -961.55052      1216.781       15.109357      15.109357      15.109357      0              0              0            
    523000   278.99441     -1171.487       206.52129     -964.9657      -14.885736      15.245838      15.245838      15.245838      0              0              0            
    524000   277.48662     -1193.2355      205.40517     -987.8303      -854.19359      14.834163      14.834163      14.834163      0              0              0            
    525000   322.11193     -1213.8316      238.43836     -975.39322     -1187.0595      15.167349      15.167349      15.167349      0              0              0            
    526000   312.62949     -1229.6402      231.41913     -998.22104      2771.317       14.810931      14.810931      14.810931      0              0              0            
    527000   271.03373     -1217.3038      200.62851     -1016.6752      1403.6457      14.95987       14.95987       14.95987       0              0              0            
    528000   278.905       -1198.8136      206.4551      -992.35849      876.8882       15.036157      15.036157      15.036157      0              0              0            
    529000   316.95411     -1209.2659      234.62037     -974.6455      -317.31708      14.905589      14.905589      14.905589      0              0              0            
    530000   296.54658     -1194.8182      219.51401     -975.30421     -521.29699      15.087818      15.087818      15.087818      0              0              0            
    531000   297.39219     -1215.9171      220.13996     -995.77717     -1502.8432      15.027129      15.027129      15.027129      0              0              0            
    532000   286.12723     -1207.1503      211.80125     -995.34903     -1798.9327      15.053129      15.053129      15.053129      0              0              0            
    533000   331.69375     -1202.1192      245.53115     -956.58805      1014.8231      15.044666      15.044666      15.044666      0              0              0            
    534000   287.66177     -1203.1141      212.93716     -990.1769       906.97928      14.959092      14.959092      14.959092      0              0              0            
    535000   323.60422     -1189.2243      239.54301     -949.68131     -304.67493      15.207274      15.207274      15.207274      0              0              0            
    536000   313.51042     -1219.1401      232.07123     -987.0689       2126.6198      14.845522      14.845522      14.845522      0              0              0            
    537000   338.43943     -1172.8143      250.52454     -922.28974      934.33795      14.954827      14.954827      14.954827      0              0              0            
    538000   334.46112     -1197.4122      247.57966     -949.83255      1478.3343      15.084741      15.084741      15.084741      0              0              0            
    539000   310.0617      -1205.5944      229.51837     -976.07608     -1166.7818      15.085058      15.085058      15.085058      0              0              0            
    540000   301.96769     -1188.1239      223.5269      -964.59698     -424.50053      15.401332      15.401332      15.401332      0              0              0            
    541000   299.60782     -1176.929       221.78004     -955.14899      1230.6451      14.901151      14.901151      14.901151      0              0              0            
    542000   289.96557     -1173.3872      214.64252     -958.74467     -1071.0794      15.04686       15.04686       15.04686       0              0              0            
    543000   311.79562     -1184.1822      230.80187     -953.38031     -158.94399      15.024268      15.024268      15.024268      0              0              0            
    544000   336.63441     -1201.7392      249.1884      -952.55081      1175.5448      14.800232      14.800232      14.800232      0              0              0            
    545000   282.10994     -1163.6621      208.82751     -954.83462      1010.7766      15.15451       15.15451       15.15451       0              0              0            
    546000   270.40806     -1202.097       200.16538     -1001.9316     -1322.6862      14.980374      14.980374      14.980374      0              0              0            
    547000   319.34745     -1175.989       236.392       -939.59705     -1326.4363      15.096027      15.096027      15.096027      0              0              0            
    548000   273.39596     -1201.5837      202.37712     -999.20663      674.49502      14.905119      14.905119      14.905119      0              0              0            
    549000   290.11542     -1194.5449      214.75344     -979.79143      269.83596      15.002346      15.002346      15.002346      0              0              0            
    550000   309.67355     -1179.4006      229.23105     -950.16954     -2071.695       15.166469      15.166469      15.166469      0              0              0            
    551000   303.21706     -1204.2543      224.45173     -979.80258      1100.934       14.90718       14.90718       14.90718       0              0              0            
    552000   323.54918     -1170.2442      239.50226     -930.74191      435.55619      15.259472      15.259472      15.259472      0              0              0            
    553000   299.00471     -1196.7492      221.3336      -975.41556      325.84563      14.897679      14.897679      14.897679      0              0              0            
    554000   339.20924     -1216.3331      251.09438     -965.23872      239.93652      14.942944      14.942944      14.942944      0              0              0            
    555000   323.29738     -1193.0364      239.31587     -953.72051      2372.653       14.792576      14.792576      14.792576      0              0              0            
    556000   297.45269     -1214.2334      220.18474     -994.04869      1574.7451      14.849169      14.849169      14.849169      0              0              0            
    557000   295.86251     -1188.4917      219.00764     -969.48406      512.85194      14.893159      14.893159      14.893159      0              0              0            
    558000   313.3118      -1187.1822      231.9242      -955.25803     -474.70583      14.976737      14.976737      14.976737      0              0              0            
    559000   301.37759     -1188.8277      223.09009     -965.73763      1433.8932      14.994098      14.994098      14.994098      0              0              0            
    560000   266.56435     -1165.1149      197.32013     -967.79473     -611.8624       15.428671      15.428671      15.428671      0              0              0            
    561000   283.1396      -1167.3398      209.5897      -957.75006      1024.3997      14.8694        14.8694        14.8694        0              0              0            
    562000   307.97568     -1200.4107      227.97423     -972.43649     -503.43611      14.969924      14.969924      14.969924      0              0              0            
    563000   318.4547      -1182.2607      235.73115     -946.52957      383.05309      14.792398      14.792398      14.792398      0              0              0            
    564000   294.24092     -1192.5309      217.80728     -974.72364      1487.9408      14.944737      14.944737      14.944737      0              0              0            
    565000   292.49302     -1190.4407      216.51343     -973.92722      57.288762      15.027407      15.027407      15.027407      0              0              0            
    566000   291.5752      -1192.785       215.83402     -976.95093     -89.226413      15.18479       15.18479       15.18479       0              0              0            
    567000   300.75733     -1211.286       222.63095     -988.65506      840.08678      14.88145       14.88145       14.88145       0              0              0            
    568000   278.13611     -1189.269       205.88595     -983.38302      697.00499      15.112134      15.112134      15.112134      0              0              0            
    569000   312.03858     -1200.0774      230.98172     -969.09572     -710.13097      15.085444      15.085444      15.085444      0              0              0            
    570000   295.1352      -1197.4         218.46925     -978.93072      363.36388      15.302995      15.302995      15.302995      0              0              0            
    571000   312.9626      -1217.9898      231.66572     -986.32411      1613.4387      14.870875      14.870875      14.870875      0              0              0            
    572000   285.44583     -1195.8012      211.29685     -984.50437     -2064.6024      15.014379      15.014379      15.014379      0              0              0            
    573000   286.34618     -1192.5738      211.96332     -980.6105      -1493.5658      15.151946      15.151946      15.151946      0              0              0            
    574000   288.23334     -1192.5998      213.36026     -979.23949     -65.441629      15.08597       15.08597       15.08597       0              0              0            
    575000   283.66769     -1175.9626      209.98061     -965.98202     -1017.2596      15.155927      15.155927      15.155927      0              0              0            
    576000   305.59057     -1176.1593      226.20868     -949.95061      634.60134      14.935747      14.935747      14.935747      0              0              0            
    577000   276.48976     -1230.7069      204.66726     -1026.0397      931.44495      14.725361      14.725361      14.725361      0              0              0            
    578000   280.51853     -1188.444       207.64949     -980.79454     -1841.4305      14.938271      14.938271      14.938271      0              0              0            
    579000   309.70452     -1243.5458      229.25397     -1014.2918     -386.07974      14.920705      14.920705      14.920705      0              0              0            
    580000   298.69255     -1203.1197      221.10253     -982.01712     -842.09734      15.272187      15.272187      15.272187      0              0              0            
    581000   305.53664     -1224.9483      226.16876     -998.77954     -676.73624      14.970741      14.970741      14.970741      0              0              0            
    582000   302.93351     -1161.7314      224.24184     -937.48959     -808.73475      15.159653      15.159653      15.159653      0              0              0            
    583000   284.96423     -1168.1656      210.94035     -957.22525     -891.46124      15.098265      15.098265      15.098265      0              0              0            
    584000   293.32535     -1211.7629      217.12954     -994.63338      1282.4843      14.75614       14.75614       14.75614       0              0              0            
    585000   315.01929     -1184.998       233.18814     -951.8099       138.64033      15.249522      15.249522      15.249522      0              0              0            
    586000   311.02363     -1205.3232      230.23042     -975.09283     -889.22313      15.124887      15.124887      15.124887      0              0              0            
    587000   305.78577     -1176.9364      226.35318     -950.58326     -753.05916      15.009828      15.009828      15.009828      0              0              0            
    588000   315.74713     -1208.2486      233.72692     -974.52173      776.5142       14.878182      14.878182      14.878182      0              0              0            
    589000   306.53037     -1180.4923      226.90435     -953.58792      1415.1102      15.124256      15.124256      15.124256      0              0              0            
    590000   314.03182     -1203.8696      232.45719     -971.41243     -1239.6735      15.047122      15.047122      15.047122      0              0              0            
    591000   294.09836     -1215.3959      217.70175     -997.69414     -2544.3697      15.061113      15.061113      15.061113      0              0              0            
    592000   303.94213     -1175.4038      224.98845     -950.41535     -1232.2639      15.07845       15.07845       15.07845       0              0              0            
    593000   290.63066     -1192.6065      215.13484     -977.4717       1319.4373      14.90044       14.90044       14.90044       0              0              0            
    594000   286.60595     -1247.5274      212.15561     -1035.3718     -2090.0927      14.855353      14.855353      14.855353      0              0              0            
    595000   318.06313     -1193.4782      235.4413      -958.03694      1545.8096      14.974296      14.974296      14.974296      0              0              0            
    596000   302.17427     -1178.3542      223.67982     -954.67437      493.1624       15.165791      15.165791      15.165791      0              0              0            
    597000   278.89553     -1201.3977      206.44809     -994.94963      1259.0449      14.768521      14.768521      14.768521      0              0              0            
    598000   328.43027     -1204.526       243.11541     -961.41063      1825.6266      14.826107      14.826107      14.826107      0              0              0            
    599000   294.59508     -1175.4244      218.06944     -957.35492     -1675.1563      15.348977      15.348977      15.348977      0              0              0            
    600000   301.09218     -1199.2126      222.87882     -976.33377      125.40766      15.112882      15.112882      15.112882      0              0              0            
    601000   292.50547     -1207.0841      216.52264     -990.56141     -768.83391      14.755001      14.755001      14.755001      0              0              0            
    602000   273.15528     -1222.9696      202.19896     -1020.7706      2182.8501      14.679021      14.679021      14.679021      0              0              0            
    603000   291.11746     -1205.9558      215.49519     -990.46063      1523.1465      14.908808      14.908808      14.908808      0              0              0            
    604000   318.1926      -1208.0472      235.53714     -972.51003     -538.26741      15.050494      15.050494      15.050494      0              0              0            
    605000   279.48627     -1205.7944      206.88538     -998.90899     -1210.6263      15.040778      15.040778      15.040778      0              0              0            
    606000   326.04843     -1203.6664      241.35229     -962.31416      525.92569      14.847501      14.847501      14.847501      0              0              0            
    607000   303.48779     -1193.9648      224.65213     -969.31265     -156.41223      15.02496       15.02496       15.02496       0              0              0            
    608000   288.99976     -1159.5674      213.9276      -945.63977      546.80633      15.166734      15.166734      15.166734      0              0              0            
    609000   304.99061     -1188.5492      225.76457     -962.78461      401.58753      15.107041      15.107041      15.107041      0              0              0            
    610000   276.04146     -1203.8209      204.33541     -999.4855      -670.94939      14.963028      14.963028      14.963028      0              0              0            
    611000   286.25215     -1200.2106      211.89372     -988.31692      1303.5828      14.958529      14.958529      14.958529      0              0              0            
    612000   291.41781     -1216.7344      215.71752     -1001.0169      207.36198      14.708168      14.708168      14.708168      0              0              0            
    613000   294.4688      -1210.1144      217.97596     -992.13841     -535.36115      14.932536      14.932536      14.932536      0              0              0            
    614000   318.09737     -1203.6021      235.46665     -968.13544      1239.2213      14.801228      14.801228      14.801228      0              0              0            
    615000   300.35472     -1187.1721      222.33292     -964.83922      267.47299      14.858745      14.858745      14.858745      0              0              0            
    616000   277.2874      -1193.1358      205.2577      -987.87809     -204.28196      15.06204       15.06204       15.06204       0              0              0            
    617000   300.37399     -1220.0253      222.34719     -997.67814      297.99149      14.994813      14.994813      14.994813      0              0              0            
    618000   307.20431     -1222.0018      227.40323     -994.59853      1676.5981      14.955536      14.955536      14.955536      0              0              0            
    619000   326.90169     -1198.475       241.9839      -956.49108      538.75384      15.060288      15.060288      15.060288      0              0              0            
    620000   315.00162     -1189.5399      233.17507     -956.36483     -446.75666      15.252854      15.252854      15.252854      0              0              0            
    621000   298.55483     -1198.9236      221.00059     -977.92297      1002.7187      14.802137      14.802137      14.802137      0              0              0            
    622000   312.28161     -1171.8366      231.16162     -940.67502     -240.05161      15.099009      15.099009      15.099009      0              0              0            
    623000   301.90921     -1209.184       223.48361     -985.70035     -1132.5631      14.940035      14.940035      14.940035      0              0              0            
    624000   324.98437     -1221.4877      240.56464     -980.92306     -283.35202      14.586017      14.586017      14.586017      0              0              0            
    625000   307.76358     -1207.0522      227.81722     -979.23498     -1491.1497      15.048748      15.048748      15.048748      0              0              0            
    626000   279.05782     -1216.9702      206.56823     -1010.402      -1627.2728      15.068472      15.068472      15.068472      0              0              0            
    627000   281.36993     -1227.9466      208.27973     -1019.6669     -1639.9198      15.167979      15.167979      15.167979      0              0              0            
    628000   288.61438     -1207.7438      213.64232     -994.10152     -371.64418      15.080756      15.080756      15.080756      0              0              0            
    629000   306.55388     -1201.8321      226.92176     -974.91036     -313.90589      15.079585      15.079585      15.079585      0              0              0            
    630000   308.55236     -1211.5793      228.4011      -983.17818     -1338.7634      14.982691      14.982691      14.982691      0              0              0            
    631000   295.10984     -1183.539       218.45048     -965.08848      327.16888      14.945113      14.945113      14.945113      0              0              0            
    632000   307.62024     -1226.1948      227.71111     -998.48368      606.09698      14.852336      14.852336      14.852336      0              0              0            
    633000   285.8346      -1202.1794      211.58463     -990.59475      1005.1559      14.944402      14.944402      14.944402      0              0              0            
    634000   309.70189     -1160.4463      229.25202     -931.1943       1052.0492      14.94606       14.94606       14.94606       0              0              0            
    635000   286.23806     -1177.0393      211.88329     -965.15598     -226.59054      15.40513       15.40513       15.40513       0              0              0            
    636000   287.50249     -1194.5574      212.81926     -981.73811     -1127.3137      15.163324      15.163324      15.163324      0              0              0            
    637000   282.21843     -1174.7849      208.90782     -965.87709      491.0852       15.19364       15.19364       15.19364       0              0              0            
    638000   285.88947     -1201.0004      211.62525     -989.37518      1505.9539      14.971053      14.971053      14.971053      0              0              0            
    639000   291.90692     -1205.4774      216.07957     -989.39781     -1732.9319      15.151519      15.151519      15.151519      0              0              0            
    640000   284.54987     -1208.0679      210.63363     -997.43432      2128.4616      14.980955      14.980955      14.980955      0              0              0            
    641000   323.04057     -1193.6392      239.12577     -954.51345      17.917476      14.930736      14.930736      14.930736      0              0              0            
    642000   285.43628     -1213.8619      211.28978     -1002.5721      74.705118      15.017718      15.017718      15.017718      0              0              0            
    643000   331.66874     -1200.083       245.51264     -954.57037      445.09252      15.002195      15.002195      15.002195      0              0              0            
    644000   322.20004     -1190.6649      238.50359     -952.16127     -927.26381      15.186892      15.186892      15.186892      0              0              0            
    645000   272.58074     -1206.1187      201.77366     -1004.345       612.67505      14.957089      14.957089      14.957089      0              0              0            
    646000   297.42099     -1184.2168      220.16128     -964.0555       404.87139      14.791915      14.791915      14.791915      0              0              0            
    647000   308.12098     -1176.8973      228.08178     -948.81551      395.04103      15.106216      15.106216      15.106216      0              0              0            
    648000   308.50436     -1192.4285      228.36557     -964.06289      607.07322      15.055801      15.055801      15.055801      0              0              0            
    649000   305.62506     -1188.8427      226.23421     -962.60846     -993.93355      15.251242      15.251242      15.251242      0              0              0            
    650000   305.91581     -1187.8405      226.44943     -961.3911       923.93877      15.066463      15.066463      15.066463      0              0              0            
    651000   297.05274     -1177.8458      219.88868     -957.95716      2565.1333      14.829968      14.829968      14.829968      0              0              0            
    652000   304.77532     -1164.4188      225.60521     -938.81356      264.7154       14.888408      14.888408      14.888408      0              0              0            
    653000   306.53584     -1195.4397      226.90841     -968.53127     -10.530321      14.839479      14.839479      14.839479      0              0              0            
    654000   277.75067     -1209.6285      205.60063     -1004.0278      806.04164      14.989565      14.989565      14.989565      0              0              0            
    655000   307.5495      -1187.602       227.65875     -959.94321      1549.0674      15.078118      15.078118      15.078118      0              0              0            
    656000   293.07399     -1169.4744      216.94347     -952.5309      -224.85837      15.258116      15.258116      15.258116      0              0              0            
    657000   299.77692     -1172.6786      221.90521     -950.77337     -675.18794      15.258215      15.258215      15.258215      0              0              0            
    658000   283.62786     -1198.2877      209.95113     -988.33661      400.1103       14.802627      14.802627      14.802627      0              0              0            
    659000   294.68468     -1202.9662      218.13576     -984.83049     -1452.0569      15.03479       15.03479       15.03479       0              0              0            
    660000   307.36267     -1212.8202      227.52045     -985.29977      784.21161      14.766208      14.766208      14.766208      0              0              0            
    661000   307.03193     -1208.7306      227.27563     -981.45497      1042.5336      14.834633      14.834633      14.834633      0              0              0            
    662000   287.27201     -1186.3665      212.64865     -973.71782     -594.59731      15.127154      15.127154      15.127154      0              0              0            
    663000   297.40005     -1177.8496      220.14578     -957.70383     -2409.7342      15.148022      15.148022      15.148022      0              0              0            
    664000   293.17829     -1218.0787      217.02068     -1001.058       900.58121      15.074981      15.074981      15.074981      0              0              0            
    665000   306.97782     -1231.0623      227.23557     -1003.8268      1413.3375      15.006972      15.006972      15.006972      0              0              0            
    666000   311.72517     -1216.1265      230.74972     -985.37673     -2728.868       15.080742      15.080742      15.080742      0              0              0            
    667000   283.18528     -1187.6423      209.62351     -978.01877     -1063.5727      15.035343      15.035343      15.035343      0              0              0            
    668000   294.43872     -1215.9123      217.9537      -997.95857      1126.1362      14.725326      14.725326      14.725326      0              0              0            
    669000   296.56077     -1206.7966      219.52451     -987.27213      1060.1685      14.815316      14.815316      14.815316      0              0              0            
    670000   325.23675     -1192.8896      240.75146     -952.13817      1186.0641      15.257269      15.257269      15.257269      0              0              0            
    671000   289.76706     -1175.2771      214.49557     -960.78149     -871.05431      15.01424       15.01424       15.01424       0              0              0            
    672000   304.80006     -1198.3906      225.62352     -972.7671       50.028162      15.129008      15.129008      15.129008      0              0              0            
    673000   322.94084     -1170.4241      239.05195     -931.37216     -825.39193      15.009778      15.009778      15.009778      0              0              0            
    674000   297.42707     -1191.0318      220.16577     -970.866       -2618.9102      15.080955      15.080955      15.080955      0              0              0            
    675000   293.37163     -1210.0382      217.1638      -992.87438      361.81123      14.864407      14.864407      14.864407      0              0              0            
    676000   291.59205     -1237.6633      215.84649     -1021.8168     -1268.0446      14.786761      14.786761      14.786761      0              0              0            
    677000   297.27922     -1164.7138      220.05633     -944.65749     -969.47696      15.081016      15.081016      15.081016      0              0              0            
    678000   299.58387     -1211.2367      221.76232     -989.47434     -758.34847      14.920104      14.920104      14.920104      0              0              0            
    679000   298.84822     -1204.0733      221.21776     -982.85551     -854.90441      14.912437      14.912437      14.912437      0              0              0            
    680000   335.38365     -1204.877       248.26255     -956.61445      1310.0993      14.777681      14.777681      14.777681      0              0              0            
    681000   317.05479     -1221.1029      234.69489     -986.408        1936.1755      14.806881      14.806881      14.806881      0              0              0            
    682000   329.80695     -1211.777       244.13448     -967.64254     -236.79563      14.86481       14.86481       14.86481       0              0              0            
    683000   285.67253     -1201.2098      211.46466     -989.74518      464.82852      14.974143      14.974143      14.974143      0              0              0            
    684000   296.97275     -1194.9744      219.82947     -975.14492     -6.4361076      14.909959      14.909959      14.909959      0              0              0            
    685000   305.33393     -1179.2133      226.01871     -953.19463      1362.8877      14.856855      14.856855      14.856855      0              0              0            
    686000   303.78837     -1190.9494      224.87463     -966.07481     -860.96015      15.080145      15.080145      15.080145      0              0              0            
    687000   309.25521     -1198.3493      228.92137     -969.4279      -83.22586       14.837826      14.837826      14.837826      0              0              0            
    688000   282.65104     -1189.8382      209.22805     -980.61015     -2100.8288      15.181255      15.181255      15.181255      0              0              0            
    689000   271.22214     -1235.6388      200.76798     -1034.8708     -709.13758      15.018975      15.018975      15.018975      0              0              0            
    690000   302.79145     -1208.7116      224.13667     -984.57492      1316.2866      15.272966      15.272966      15.272966      0              0              0            
    691000   298.36798     -1201.8481      220.86227     -980.98585      989.44317      14.901424      14.901424      14.901424      0              0              0            
    692000   301.37137     -1207.5054      223.08548     -984.41989     -1448.4932      15.15201       15.15201       15.15201       0              0              0            
    693000   290.89277     -1196.4338      215.32887     -981.10496      1283.9713      15.021833      15.021833      15.021833      0              0              0            
    694000   270.85445     -1202.0144      200.49581     -1001.5186     -568.9271       15.239809      15.239809      15.239809      0              0              0            
    695000   289.58438     -1159.5388      214.36035     -945.17848      609.50177      14.981352      14.981352      14.981352      0              0              0            
    696000   284.052       -1178.597       210.26509     -968.33191     -126.22706      15.17842       15.17842       15.17842       0              0              0            
    697000   277.21286     -1181.2308      205.20252     -976.0283       796.88278      15.040157      15.040157      15.040157      0              0              0            
    698000   316.78018     -1204.4689      234.49162     -969.97728      1444.3468      15.021773      15.021773      15.021773      0              0              0            
    699000   303.78153     -1188.8943      224.86957     -964.02469     -1963.8305      15.001418      15.001418      15.001418      0              0              0            
    700000   296.18562     -1190.1907      219.24681     -970.94393      1809.0343      14.968326      14.968326      14.968326      0              0              0            
    701000   290.29565     -1175.6588      214.88686     -960.77191     -881.3499       15.225065      15.225065      15.225065      0              0              0            
    702000   307.71908     -1178.2719      227.78428     -950.48765      1255.337       15.186378      15.186378      15.186378      0              0              0            
    703000   300.33416     -1186.2375      222.31771     -963.91984     -1034.4159      15.063375      15.063375      15.063375      0              0              0            
    704000   280.87207     -1208.503       207.91119     -1000.5918     -2298.2058      14.927166      14.927166      14.927166      0              0              0            
    705000   298.433       -1194.3315      220.9104      -973.42106      1353.9843      15.006776      15.006776      15.006776      0              0              0            
    706000   332.8772      -1223.5428      246.40719     -977.13562     -2334.9067      15.117895      15.117895      15.117895      0              0              0            
    707000   287.13929     -1201.2258      212.55041     -988.67542      2723.5521      14.819755      14.819755      14.819755      0              0              0            
    708000   332.73167     -1183.3988      246.29946     -937.09936     -437.26765      15.107392      15.107392      15.107392      0              0              0            
    709000   313.55209     -1218.6289      232.10207     -986.52683      3543.9909      14.881537      14.881537      14.881537      0              0              0            
    710000   318.98018     -1214.627       236.12013     -978.50685      2113.6809      15.095011      15.095011      15.095011      0              0              0            
    711000   340.24504     -1242.7694      251.86112     -990.90829      1.369811       14.700296      14.700296      14.700296      0              0              0            
    712000   285.88487     -1186.1483      211.62184     -974.5265      -343.1229       14.868054      14.868054      14.868054      0              0              0            
    713000   297.36892     -1211.414       220.12273     -991.29129     -325.20511      14.914284      14.914284      14.914284      0              0              0            
    714000   284.90455     -1195.5373      210.89618     -984.64108     -1233.8774      15.014922      15.014922      15.014922      0              0              0            
    715000   316.88091     -1222.2382      234.56618     -987.67198      2086.4439      14.714271      14.714271      14.714271      0              0              0            
    716000   285.88798     -1197.1699      211.62415     -985.54579     -774.02708      14.897857      14.897857      14.897857      0              0              0            
    717000   301.85461     -1196.3445      223.4432      -972.90127     -1553.8517      14.958843      14.958843      14.958843      0              0              0            
    718000   294.16758     -1168.9872      217.75299     -951.23422     -675.19827      15.372481      15.372481      15.372481      0              0              0            
    719000   317.57799     -1215.9416      235.08218     -980.85943     -31.63153       14.879813      14.879813      14.879813      0              0              0            
    720000   290.73025     -1181.0014      215.20856     -965.79282      1485.8988      14.85544       14.85544       14.85544       0              0              0            
    721000   317.73338     -1189.0112      235.19721     -953.81404     -114.32164      14.912323      14.912323      14.912323      0              0              0            
    722000   300.58969     -1204.9773      222.50686     -982.47044     -1289.1823      15.117775      15.117775      15.117775      0              0              0            
    723000   271.89155     -1215.9327      201.2635      -1014.6692     -818.7459       15.057899      15.057899      15.057899      0              0              0            
    724000   296.12972     -1230.7269      219.20544     -1011.5214     -1197.921       15.010436      15.010436      15.010436      0              0              0            
    725000   291.74665     -1208.0563      215.96094     -992.09535      1910.8064      14.934949      14.934949      14.934949      0              0              0            
    726000   320.35506     -1228.0397      237.13787     -990.90184     -1252.2348      15.037408      15.037408      15.037408      0              0              0            
    727000   300.14038     -1241.8368      222.17426     -1019.6626      3130.6736      14.604761      14.604761      14.604761      0              0              0            
    728000   295.89715     -1209.1384      219.03328     -990.10513     -1851.6532      14.93936       14.93936       14.93936       0              0              0            
    729000   316.23266     -1211.8513      234.08633     -977.76498     -1715.4544      15.119491      15.119491      15.119491      0              0              0            
    730000   301.73721     -1192.7444      223.35629     -969.38815      845.37343      14.870277      14.870277      14.870277      0              0              0            
    731000   289.54617     -1200.4446      214.33206     -986.11254     -551.01101      15.075625      15.075625      15.075625      0              0              0            
    732000   304.68818     -1227.2196      225.5407      -1001.6789      588.32495      15.01862       15.01862       15.01862       0              0              0            
    733000   301.7957      -1188.3872      223.39959     -964.98757      243.8322       15.069034      15.069034      15.069034      0              0              0            
    734000   298.6785      -1180.7832      221.09213     -959.69107      1379.9505      15.243173      15.243173      15.243173      0              0              0            
    735000   329.1595      -1184.8803      243.65522     -941.22505     -397.44189      14.979987      14.979987      14.979987      0              0              0            
    736000   289.84984     -1190.0996      214.55685     -975.5427       651.76728      15.001414      15.001414      15.001414      0              0              0            
    737000   317.41587     -1235.7391      234.96217     -1000.777       875.74908      14.833065      14.833065      14.833065      0              0              0            
    738000   286.63629     -1205.5088      212.17807     -993.33078      95.250555      14.772223      14.772223      14.772223      0              0              0            
    739000   291.44303     -1195.3679      215.73618     -979.63173     -752.48136      14.881675      14.881675      14.881675      0              0              0            
    740000   306.89509     -1213.6483      227.17434     -986.47393      1465.7354      14.822596      14.822596      14.822596      0              0              0            
    741000   331.51413     -1176.2737      245.39819     -930.87553      1112.2058      15.118733      15.118733      15.118733      0              0              0            
    742000   290.61253     -1217.0271      215.12142     -1001.9057     -932.86843      15.095571      15.095571      15.095571      0              0              0            
    743000   292.22911     -1188.8863      216.31807     -972.5682       1173.9872      15.034724      15.034724      15.034724      0              0              0            
    744000   312.83663     -1206.4874      231.57246     -974.91491     -1191.0643      15.105442      15.105442      15.105442      0              0              0            
    745000   307.50388     -1221.6492      227.62498     -994.02419     -1074.74        15.35089       15.35089       15.35089       0              0              0            
    746000   312.50335     -1218.4002      231.32576     -987.07441      1207.7532      15.055672      15.055672      15.055672      0              0              0            
    747000   307.50989     -1176.886       227.62943     -949.25659      392.80005      15.030045      15.030045      15.030045      0              0              0            
    748000   319.94205     -1195.1559      236.83214     -958.32379     -1377.0593      15.102686      15.102686      15.102686      0              0              0            
    749000   284.8258      -1201.7686      210.83788     -990.93074      389.16185      14.814959      14.814959      14.814959      0              0              0            
    750000   271.25998     -1231.406       200.79599     -1030.61       -1405.067       14.992997      14.992997      14.992997      0              0              0            
    751000   286.57096     -1214.9458      212.12971     -1002.8161      1275.1586      14.834777      14.834777      14.834777      0              0              0            
    752000   296.73194     -1210.6087      219.65122     -990.95746     -1003.6447      14.962528      14.962528      14.962528      0              0              0            
    753000   305.45586     -1215.9841      226.10897     -989.87518     -2400.2574      15.070104      15.070104      15.070104      0              0              0            
    754000   325.35434     -1200.9879      240.83851     -960.14941     -110.85026      15.237271      15.237271      15.237271      0              0              0            
    755000   331.68877     -1213.3467      245.52747     -967.81923     -1553.2474      15.091851      15.091851      15.091851      0              0              0            
    756000   303.54404     -1189.157       224.69377     -964.46319     -1412.9228      15.012182      15.012182      15.012182      0              0              0            
    757000   281.03182     -1195.881       208.02944     -987.85157     -2703.7656      14.939373      14.939373      14.939373      0              0              0            
    758000   328.87721     -1222.505       243.44626     -979.05872      1901.3795      14.953542      14.953542      14.953542      0              0              0            
    759000   299.96174     -1215.649       222.04203     -993.60695     -390.2177       15.256536      15.256536      15.256536      0              0              0            
    760000   300.58883     -1190.8343      222.50622     -968.32808     -269.46535      15.213055      15.213055      15.213055      0              0              0            
    761000   326.99459     -1177.4504      242.05268     -935.39775      236.19917      15.062198      15.062198      15.062198      0              0              0            
    762000   306.65478     -1234.9334      226.99645     -1007.9369      378.0456       14.912208      14.912208      14.912208      0              0              0            
    763000   285.08507     -1204.3296      211.02981     -993.29982      252.03538      14.957154      14.957154      14.957154      0              0              0            
    764000   303.59943     -1222.3784      224.73477     -997.64364      275.96234      14.892506      14.892506      14.892506      0              0              0            
    765000   321.54534     -1226.0893      238.01895     -988.07035      594.12904      14.847329      14.847329      14.847329      0              0              0            
    766000   306.68302     -1174.3676      227.01735     -947.35025     -2189.3765      15.333029      15.333029      15.333029      0              0              0            
    767000   310.57172     -1194.6454      229.8959      -964.7495       171.89244      15.047086      15.047086      15.047086      0              0              0            
    768000   330.8681      -1211.932       244.91998     -967.01204      1466.895       14.758748      14.758748      14.758748      0              0              0            
    769000   286.25426     -1218.0157      211.89528     -1006.1204     -137.8428       14.82836       14.82836       14.82836       0              0              0            
    770000   291.93795     -1195.8233      216.10254     -979.72079     -572.50584      15.079736      15.079736      15.079736      0              0              0            
    771000   264.58339     -1205.9819      195.85376     -1010.1282     -287.37417      14.930963      14.930963      14.930963      0              0              0            
    772000   295.01207     -1188.8103      218.37811     -970.43222     -116.69758      15.01385       15.01385       15.01385       0              0              0            
    773000   312.34333     -1194.2934      231.20731     -963.08607      665.4474       15.230286      15.230286      15.230286      0              0              0            
    774000   312.62173     -1212.2683      231.41339     -980.85493      3241.7704      14.916386      14.916386      14.916386      0              0              0            
    775000   316.28847     -1169.7909      234.12764     -935.66321     -770.66646      15.321938      15.321938      15.321938      0              0              0            
    776000   281.3658      -1170.9886      208.27667     -962.7119      -349.58369      15.266348      15.266348      15.266348      0              0              0            
    777000   297.59285     -1185.2944      220.2885      -965.00588      1453.4221      15.083865      15.083865      15.083865      0              0              0            
    778000   297.47998     -1210.2642      220.20494     -990.05925     -270.33051      14.993658      14.993658      14.993658      0              0              0            
    779000   289.19194     -1183.5788      214.06985     -969.50896     -155.8031       14.874107      14.874107      14.874107      0              0              0            
    780000   289.16922     -1202.4141      214.05303     -988.36103     -1356.3209      14.943179      14.943179      14.943179      0              0              0            
    781000   292.40971     -1198.2694      216.45175     -981.81769      164.83927      14.8507        14.8507        14.8507        0              0              0            
    782000   300.87925     -1211.326       222.7212      -988.60482     -559.60612      15.13493       15.13493       15.13493       0              0              0            
    783000   297.5474      -1197.3584      220.25485     -977.1036       1055.609       15.047599      15.047599      15.047599      0              0              0            
    784000   313.47107     -1208.5311      232.0421      -976.48897      38.551598      14.886474      14.886474      14.886474      0              0              0            
    785000   289.69164     -1198.4383      214.43974     -983.99851     -1295.3717      15.04254       15.04254       15.04254       0              0              0            
    786000   300.26503     -1193.4161      222.26653     -971.14953     -1792.122       15.283367      15.283367      15.283367      0              0              0            
    787000   298.01455     -1231.3936      220.60065     -1010.793      -1149.9021      15.041995      15.041995      15.041995      0              0              0            
    788000   289.33885     -1201.2873      214.1786      -987.1087      -2621.0806      15.315416      15.315416      15.315416      0              0              0            
    789000   305.23802     -1210.2148      225.94771     -984.26714      1191.3202      14.851894      14.851894      14.851894      0              0              0            
    790000   290.23226     -1193.5949      214.83993     -978.75498     -1574.1046      15.309993      15.309993      15.309993      0              0              0            
    791000   312.16058     -1182.147       231.07203     -951.07494      69.91799       14.91913       14.91913       14.91913       0              0              0            
    792000   308.9781      -1197.2347      228.71625     -968.51847     -1112.9968      14.991349      14.991349      14.991349      0              0              0            
    793000   309.53338     -1176.9089      229.12729     -947.78158      331.15603      15.261036      15.261036      15.261036      0              0              0            
    794000   297.34403     -1188.0148      220.1043      -967.91051      1300.4301      15.009271      15.009271      15.009271      0              0              0            
    795000   280.16452     -1205.0568      207.38745     -997.66933     -936.55256      15.128889      15.128889      15.128889      0              0              0            
    796000   294.21299     -1214.095       217.78661     -996.30843      318.70588      15.144694      15.144694      15.144694      0              0              0            
    797000   281.47844     -1200.6488      208.36005     -992.2887       576.04233      15.176009      15.176009      15.176009      0              0              0            
    798000   304.40398     -1189.1229      225.33033     -963.79258     -1182.6646      14.99096       14.99096       14.99096       0              0              0            
    799000   289.79415     -1209.4712      214.51563     -994.95559     -253.84221      15.064998      15.064998      15.064998      0              0              0            
    800000   304.84433     -1202.9983      225.65629     -977.34204      570.97291      14.970061      14.970061      14.970061      0              0              0            
    801000   271.63666     -1187.9593      201.07483     -986.88443      710.22314      15.183644      15.183644      15.183644      0              0              0            
    802000   278.4211      -1205.1609      206.0969      -999.06401      741.06939      15.147231      15.147231      15.147231      0              0              0            
    803000   284.34028     -1197.1367      210.47848     -986.6582      -984.88443      15.120188      15.120188      15.120188      0              0              0            
    804000   288.41849     -1174.0268      213.49731     -960.52944     -244.38482      15.141967      15.141967      15.141967      0              0              0            
    805000   277.46835     -1182.9464      205.39164     -977.55472      2618.3535      14.938145      14.938145      14.938145      0              0              0            
    806000   305.39309     -1199.0106      226.0625      -972.94809      1346.5841      14.94718       14.94718       14.94718       0              0              0            
    807000   279.01316     -1200.1557      206.53517     -993.62049     -1966.7026      15.126531      15.126531      15.126531      0              0              0            
    808000   306.92587     -1196.3397      227.19711     -969.14258      23.415433      14.967498      14.967498      14.967498      0              0              0            
    809000   297.21428     -1186.45        220.00826     -966.44172     -1236.4301      15.448808      15.448808      15.448808      0              0              0            
    810000   312.40116     -1207.7273      231.25011     -976.47721      62.796055      15.313313      15.313313      15.313313      0              0              0            
    811000   296.74911     -1215.0234      219.66392     -995.35948     -102.62262      14.964008      14.964008      14.964008      0              0              0            
    812000   296.10453     -1203.7685      219.18679     -984.58167     -626.23766      15.318971      15.318971      15.318971      0              0              0            
    813000   316.89144     -1181.2931      234.57398     -946.71909      2830.4129      14.909662      14.909662      14.909662      0              0              0            
    814000   281.85546     -1215.3819      208.63914     -1006.7427      2362.6139      14.689689      14.689689      14.689689      0              0              0            
    815000   300.00629     -1191.4041      222.07501     -969.32912     -926.97134      15.093955      15.093955      15.093955      0              0              0            
    816000   281.55281     -1179.2863      208.4151      -970.87118      377.04375      15.003538      15.003538      15.003538      0              0              0            
    817000   303.8967      -1180.8697      224.95482     -955.91485     -736.1277       15.086562      15.086562      15.086562      0              0              0            
    818000   281.20518     -1223.1337      208.15777     -1014.9759     -1099.3986      15.159696      15.159696      15.159696      0              0              0            
    819000   293.34868     -1219.3925      217.14681     -1002.2457      258.46691      14.94452       14.94452       14.94452       0              0              0            
    820000   291.49346     -1191.0191      215.77352     -975.24554     -181.44644      15.05996       15.05996       15.05996       0              0              0            
    821000   323.24069     -1194.2475      239.27391     -954.97358     -1783.2972      15.261825      15.261825      15.261825      0              0              0            
    822000   318.73168     -1209.3275      235.93618     -973.39129     -367.47103      14.946693      14.946693      14.946693      0              0              0            
    823000   290.15343     -1180.4792      214.78158     -965.69762     -2615.8457      15.331111      15.331111      15.331111      0              0              0            
    824000   301.61348     -1180.1255      223.26471     -956.86083     -1638.2569      14.929003      14.929003      14.929003      0              0              0            
    825000   278.48693     -1222.0884      206.14563     -1015.9428     -2178.9651      14.829994      14.829994      14.829994      0              0              0            
    826000   299.41308     -1206.5822      221.63589     -984.94626     -1645.772       15.097888      15.097888      15.097888      0              0              0            
    827000   300.91806     -1198.9572      222.74993     -976.20725     -875.12011      15.007423      15.007423      15.007423      0              0              0            
    828000   289.58069     -1199.1001      214.35761     -984.74245     -169.61948      14.825431      14.825431      14.825431      0              0              0            
    829000   279.36226     -1194.2758      206.79358     -987.48225     -607.19148      15.141821      15.141821      15.141821      0              0              0            
    830000   290.36148     -1223.6154      214.93558     -1008.6798      2472.5874      14.693852      14.693852      14.693852      0              0              0            
    831000   262.30584     -1191.0061      194.16783     -996.83829     -1801.2849      14.813413      14.813413      14.813413      0              0              0            
    832000   312.36494     -1190.5455      231.22331     -959.32215     -1346.332       15.025626      15.025626      15.025626      0              0              0            
    833000   331.74041     -1217.3913      245.56569     -971.82563     -250.28715      14.865019      14.865019      14.865019      0              0              0            
    834000   294.11766     -1182.1634      217.71604     -964.44736      1530.7438      14.827842      14.827842      14.827842      0              0              0            
    835000   304.95357     -1213.02        225.73715     -987.28286     -119.1971       14.852229      14.852229      14.852229      0              0              0            
    836000   312.35759     -1241.7016      231.21786     -1010.4837     -686.31927      14.91223       14.91223       14.91223       0              0              0            
    837000   297.73125     -1188.1772      220.39094     -967.78626      456.74173      15.328592      15.328592      15.328592      0              0              0            
    838000   299.69616     -1192.1241      221.84544     -970.27862      653.37181      15.362494      15.362494      15.362494      0              0              0            
    839000   333.31577     -1203.1293      246.73183     -956.39746      1497.6064      15.166395      15.166395      15.166395      0              0              0            
    840000   302.68341     -1215.139       224.0567      -991.08228     -3061.9703      15.191992      15.191992      15.191992      0              0              0            
    841000   329.71019     -1200.4718      244.06286     -956.40898      2556.6514      14.941289      14.941289      14.941289      0              0              0            
    842000   281.57451     -1211.7347      208.43117     -1003.3036      1171.1095      14.823119      14.823119      14.823119      0              0              0            
    843000   276.81891     -1220.5198      204.9109      -1015.6089      280.16264      15.024319      15.024319      15.024319      0              0              0            
    844000   293.78604     -1205.3522      217.47056     -987.88167      1015.9769      15.013497      15.013497      15.013497      0              0              0            
    845000   314.84569     -1199.75        233.05964     -966.69033      859.76701      15.108543      15.108543      15.108543      0              0              0            
    846000   302.84744     -1194.4411      224.17812     -970.26296      189.88709      15.024567      15.024567      15.024567      0              0              0            
    847000   295.86667     -1186.7317      219.01071     -967.72102      929.00592      15.157806      15.157806      15.157806      0              0              0            
    848000   290.19781     -1191.7234      214.81443     -976.90897     -106.16437      15.172676      15.172676      15.172676      0              0              0            
    849000   320.9268      -1220.6424      237.56109     -983.08136      1160.3537      14.998392      14.998392      14.998392      0              0              0            
    850000   326.17691     -1184.6355      241.4474      -943.18805     -1323.5471      15.045316      15.045316      15.045316      0              0              0            
    851000   325.01878     -1208.6397      240.59011     -968.04954     -1378.1156      14.949075      14.949075      14.949075      0              0              0            
    852000   303.90239     -1213.8986      224.95904     -988.9396       1848.3583      15.136206      15.136206      15.136206      0              0              0            
    853000   296.56789     -1222.3657      219.52978     -1002.8359     -858.0126       15.101375      15.101375      15.101375      0              0              0            
    854000   303.50302     -1197.781       224.6634      -973.11755      1052.7165      14.899638      14.899638      14.899638      0              0              0            
    855000   318.21209     -1178.9551      235.55157     -943.40353      1997.677       15.17374       15.17374       15.17374       0              0              0            
    856000   308.22634     -1185.5584      228.15977     -957.39867     -278.38818      15.266722      15.266722      15.266722      0              0              0            
    857000   314.99948     -1193.5182      233.17348     -960.34476     -956.00442      15.313276      15.313276      15.313276      0              0              0            
    858000   332.66584     -1220.0316      246.25073     -973.78085      604.91012      14.949162      14.949162      14.949162      0              0              0            
    859000   299.08222     -1209.6986      221.39098     -988.30761      281.36745      14.940769      14.940769      14.940769      0              0              0            
    860000   310.08057     -1182.1429      229.53233     -952.61052     -2269.3001      15.069486      15.069486      15.069486      0              0              0            
    861000   305.81711     -1198.7232      226.37637     -972.34683     -1077.3751      14.882386      14.882386      14.882386      0              0              0            
    862000   306.79632     -1217.9311      227.10122     -990.82987     -220.34633      14.914962      14.914962      14.914962      0              0              0            
    863000   296.89374     -1160.7106      219.77099     -940.93958     -1096.3994      15.072614      15.072614      15.072614      0              0              0            
    864000   284.04398     -1206.3301      210.25915     -996.07092      353.85335      14.974248      14.974248      14.974248      0              0              0            
    865000   341.43139     -1195.2963      252.73929     -942.55697      2155.8111      15.137747      15.137747      15.137747      0              0              0            
    866000   318.44074     -1148.3495      235.72082     -912.62871      431.19839      15.24867       15.24867       15.24867       0              0              0            
    867000   301.1312      -1192.0611      222.9077      -969.15338     -1748.9284      15.123948      15.123948      15.123948      0              0              0            
    868000   318.59592     -1213.9925      235.83569     -978.15679      514.16334      15.148027      15.148027      15.148027      0              0              0            
    869000   305.15929     -1175.101       225.88943     -949.2116      -1114.7121      15.023271      15.023271      15.023271      0              0              0            
    870000   313.27142     -1182.7443      231.89431     -950.84995      2295.6752      15.028472      15.028472      15.028472      0              0              0            
    871000   304.08591     -1195.1915      225.09488     -970.09666      2160.6578      15.063282      15.063282      15.063282      0              0              0            
    872000   315.19694     -1186.0597      233.31965     -952.74009     -1990.0661      15.095858      15.095858      15.095858      0              0              0            
    873000   303.22465     -1225.3548      224.45735     -1000.8975      846.53186      14.782358      14.782358      14.782358      0              0              0            
    874000   271.44277     -1188.1928      200.9313      -987.26153     -1347.9079      15.183599      15.183599      15.183599      0              0              0            
    875000   304.15518     -1194.779       225.14616     -969.63288      609.53762      14.998986      14.998986      14.998986      0              0              0            
    876000   279.17217     -1172.5321      206.65287     -965.8792       498.82265      15.125417      15.125417      15.125417      0              0              0            
    877000   327.95216     -1253.8559      242.76151     -1011.0944     -861.87934      14.894463      14.894463      14.894463      0              0              0            
    878000   315.71066     -1219.1515      233.69992     -985.45159      1112.0796      14.957353      14.957353      14.957353      0              0              0            
    879000   327.19977     -1200.3649      242.20456     -958.16035      653.17788      14.946174      14.946174      14.946174      0              0              0            
    880000   304.12518     -1206.1528      225.12395     -981.02885     -171.2224       15.023361      15.023361      15.023361      0              0              0            
    881000   294.42751     -1206.6561      217.9454      -988.71065      941.92834      15.05903       15.05903       15.05903       0              0              0            
    882000   309.48257     -1202.1403      229.08967     -973.05058      1095.7998      14.97934       14.97934       14.97934       0              0              0            
    883000   340.57407     -1193.5242      252.10467     -941.41953     -1398.4138      14.968327      14.968327      14.968327      0              0              0            
    884000   306.4913      -1201.4452      226.87544     -974.56974     -995.45887      15.348222      15.348222      15.348222      0              0              0            
    885000   298.10222     -1200.7071      220.66555     -980.04156     -136.73504      15.268465      15.268465      15.268465      0              0              0            
    886000   305.07687     -1192.9526      225.82842     -967.12414      1582.9947      15.086664      15.086664      15.086664      0              0              0            
    887000   296.45459     -1203.8919      219.44591     -984.44602     -699.66276      15.129378      15.129378      15.129378      0              0              0            
    888000   305.8172      -1222.3023      226.37644     -995.92583     -1245.347       14.997839      14.997839      14.997839      0              0              0            
    889000   300.61012     -1243.9945      222.52198     -1021.4725      671.92688      14.788771      14.788771      14.788771      0              0              0            
    890000   276.53502     -1214.9924      204.70076     -1010.2917     -15.746004      14.927043      14.927043      14.927043      0              0              0            
    891000   321.6563      -1199.5343      238.10109     -961.43325     -1494.3448      14.90609       14.90609       14.90609       0              0              0            
    892000   306.81206     -1208.3809      227.11287     -981.26804      797.48933      15.033417      15.033417      15.033417      0              0              0            
    893000   296.16047     -1184.3705      219.2282      -965.14232     -1310.844       15.369275      15.369275      15.369275      0              0              0            
    894000   269.98574     -1181.3203      199.85276     -981.46752     -641.37604      15.113066      15.113066      15.113066      0              0              0            
    895000   298.19199     -1197.2369      220.732       -976.50492     -227.81593      15.016512      15.016512      15.016512      0              0              0            
    896000   273.18811     -1194.3249      202.22327     -992.10163      1484.6115      15.015816      15.015816      15.015816      0              0              0            
    897000   293.72496     -1184.5156      217.42535     -967.09028     -875.72777      15.153237      15.153237      15.153237      0              0              0            
    898000   269.31409     -1225.4168      199.35558     -1026.0612     -625.98772      14.819664      14.819664      14.819664      0              0              0            
    899000   291.81633     -1207.9042      216.01251     -991.89166      930.44688      15.064013      15.064013      15.064013      0              0              0            
    900000   301.72814     -1183.9642      223.34958     -960.61457      2708.3753      14.938242      14.938242      14.938242      0              0              0            
    901000   305.94107     -1216.5962      226.46813     -990.12808      193.68426      15.102776      15.102776      15.102776      0              0              0            
    902000   303.04878     -1191.4109      224.32716     -967.08372     -567.08117      15.232237      15.232237      15.232237      0              0              0            
    903000   300.91123     -1227.6944      222.74487     -1004.9496     -3097.9762      15.261611      15.261611      15.261611      0              0              0            
    904000   281.46493     -1223.6962      208.35005     -1015.3462     -109.23456      14.884454      14.884454      14.884454      0              0              0            
    905000   294.10899     -1157.9072      217.70962     -940.19755      109.69532      15.101179      15.101179      15.101179      0              0              0            
    906000   310.88794     -1169.5505      230.12998     -939.4205      -1083.1623      15.322158      15.322158      15.322158      0              0              0            
    907000   301.8016      -1185.8207      223.40396     -962.41678     -358.58392      15.00427       15.00427       15.00427       0              0              0            
    908000   292.1569      -1203.0456      216.26462     -986.78094      233.83524      14.82513       14.82513       14.82513       0              0              0            
    909000   310.03454     -1181.9856      229.49826     -952.48731     -352.71375      14.959062      14.959062      14.959062      0              0              0            
    910000   303.10504     -1180.8036      224.36881     -956.43481      568.21477      14.873173      14.873173      14.873173      0              0              0            
    911000   311.24619     -1207.6327      230.39517     -977.23751     -408.68567      14.931989      14.931989      14.931989      0              0              0            
    912000   288.12181     -1175.0691      213.2777      -961.79142      552.58171      15.076352      15.076352      15.076352      0              0              0            
    913000   318.62415     -1196.778       235.85659     -960.92143     -1416.8181      14.861432      14.861432      14.861432      0              0              0            
    914000   307.17505     -1183.546       227.38157     -956.16442     -1426.5796      15.117101      15.117101      15.117101      0              0              0            
    915000   293.54203     -1154.2087      217.28994     -936.91875     -1196.6177      15.14411       15.14411       15.14411       0              0              0            
    916000   305.83281     -1192.5053      226.388       -966.1173      -148.2579       15.078581      15.078581      15.078581      0              0              0            
    917000   297.02305     -1219.8954      219.8667      -1000.0287     -1727.0404      14.874332      14.874332      14.874332      0              0              0            
    918000   291.66392     -1208.9048      215.89969     -993.00506     -1477.8011      14.898572      14.898572      14.898572      0              0              0            
    919000   274.61507     -1195.7676      203.27955     -992.488       -196.07322      15.073757      15.073757      15.073757      0              0              0            
    920000   287.25441     -1203.1817      212.63562     -990.54607     -761.08109      15.210552      15.210552      15.210552      0              0              0            
    921000   270.93034     -1188.4582      200.55198     -987.90624     -325.26186      15.266402      15.266402      15.266402      0              0              0            
    922000   298.00844     -1207.4613      220.59613     -986.86519     -584.30618      15.068258      15.068258      15.068258      0              0              0            
    923000   291.36664     -1209.2023      215.67964     -993.52267     -979.54576      15.00742       15.00742       15.00742       0              0              0            
    924000   290.93275     -1196.629       215.35846     -981.27052     -1786.4434      15.08605       15.08605       15.08605       0              0              0            
    925000   290.21176     -1203.6346      214.82475     -988.80984      1029.2534      15.020673      15.020673      15.020673      0              0              0            
    926000   300.70736     -1203.2961      222.59396     -980.70214      1450.5707      15.120022      15.120022      15.120022      0              0              0            
    927000   294.6453      -1198.2654      218.10662     -980.15883     -1084.9433      15.100739      15.100739      15.100739      0              0              0            
    928000   306.78974     -1190.9443      227.09635     -963.84798      170.8268       14.683797      14.683797      14.683797      0              0              0            
    929000   277.99011     -1182.1196      205.77787     -976.34175     -809.67352      15.099708      15.099708      15.099708      0              0              0            
    930000   280.15817     -1215.1002      207.38274     -1007.7174      1685.7471      14.995339      14.995339      14.995339      0              0              0            
    931000   303.29667     -1204.6082      224.51066     -980.09754     -790.96688      14.821153      14.821153      14.821153      0              0              0            
    932000   330.84774     -1185.9863      244.90491     -941.08136      1210.7721      14.925913      14.925913      14.925913      0              0              0            
    933000   294.7326      -1187.8469      218.17123     -969.67571     -180.07549      15.221337      15.221337      15.221337      0              0              0            
    934000   294.45729     -1200.8924      217.96745     -982.92493     -493.01649      15.202672      15.202672      15.202672      0              0              0            
    935000   301.07025     -1180.3741      222.86259     -957.51153      227.06492      15.065568      15.065568      15.065568      0              0              0            
    936000   303.90947     -1177.7425      224.96427     -952.77821     -1712.9187      15.275808      15.275808      15.275808      0              0              0            
    937000   317.66125     -1193.2182      235.14381     -958.0744      -1583.0089      15.378849      15.378849      15.378849      0              0              0            
    938000   300.93364     -1196.1004      222.76146     -973.33895      644.10101      15.195572      15.195572      15.195572      0              0              0            
    939000   321.00072     -1168.6453      237.61581     -931.02954     -1976.0175      15.241374      15.241374      15.241374      0              0              0            
    940000   312.94499     -1215.144       231.65268     -983.49128      705.41525      15.087969      15.087969      15.087969      0              0              0            
    941000   304.4463      -1192.6409      225.36166     -967.27925     -966.67666      15.09598       15.09598       15.09598       0              0              0            
    942000   287.74914     -1218.3147      213.00184     -1005.3129     -1054.1518      14.859869      14.859869      14.859869      0              0              0            
    943000   306.57953     -1204.8238      226.94075     -977.88304     -1010.5174      14.842193      14.842193      14.842193      0              0              0            
    944000   308.92506     -1208.7479      228.67699     -980.07096      1369.5499      15.07305       15.07305       15.07305       0              0              0            
    945000   301.50434     -1190.2187      223.18391     -967.03477     -2771.5744      15.316213      15.316213      15.316213      0              0              0            
    946000   297.58994     -1180.3584      220.28634     -960.07207      866.09436      14.850933      14.850933      14.850933      0              0              0            
    947000   287.27285     -1190.5455      212.64927     -977.89618      970.748        14.824167      14.824167      14.824167      0              0              0            
    948000   303.13129     -1194.183       224.38824     -969.79481      303.98505      14.762554      14.762554      14.762554      0              0              0            
    949000   287.23761     -1208.6248      212.62319     -996.0016      -770.91937      14.776857      14.776857      14.776857      0              0              0            
    950000   292.84211     -1173.1401      216.77183     -956.36827     -438.60005      15.110966      15.110966      15.110966      0              0              0            
    951000   298.52525     -1201.604       220.97869     -980.62532      56.37019       14.95694       14.95694       14.95694       0              0              0            
    952000   298.55223     -1195.5302      220.99866     -974.53152     -2709.9363      15.167812      15.167812      15.167812      0              0              0            
    953000   321.59499     -1217.4         238.05571     -979.34432      1189.9899      14.753553      14.753553      14.753553      0              0              0            
    954000   289.1672      -1209.079       214.05153     -995.02749     -755.12891      15.080696      15.080696      15.080696      0              0              0            
    955000   284.33192     -1192.6939      210.4723      -982.22164      1583.9775      15.034987      15.034987      15.034987      0              0              0            
    956000   314.88418     -1197.3257      233.08813     -964.2376       1961.2021      14.816481      14.816481      14.816481      0              0              0            
    957000   286.74717     -1224.6183      212.26015     -1012.3582     -1081.1871      14.993431      14.993431      14.993431      0              0              0            
    958000   300.00478     -1235.5232      222.07388     -1013.4493     -300.80973      14.945207      14.945207      14.945207      0              0              0            
    959000   302.27843     -1187.5905      223.75692     -963.83355      968.98959      15.011819      15.011819      15.011819      0              0              0            
    960000   282.17998     -1165.7087      208.87936     -956.82937      293.35103      15.024158      15.024158      15.024158      0              0              0            
    961000   297.78391     -1203.232       220.42992     -982.80206     -1159.3144      15.153388      15.153388      15.153388      0              0              0            
    962000   298.57394     -1175.9208      221.01473     -954.9061       80.775851      15.075819      15.075819      15.075819      0              0              0            
    963000   301.52036     -1215.0507      223.19577     -991.85495     -13.679613      15.003478      15.003478      15.003478      0              0              0            
    964000   289.60827     -1204.3554      214.37803     -989.97737     -2117.919       15.014773      15.014773      15.014773      0              0              0            
    965000   316.19551     -1194.4285      234.05882     -960.36972      1131.7798      15.296313      15.296313      15.296313      0              0              0            
    966000   330.92534     -1200.6347      244.96235     -955.67234      2414.901       14.993607      14.993607      14.993607      0              0              0            
    967000   286.98453     -1190.1503      212.43585     -977.71442     -1402.7296      14.794158      14.794158      14.794158      0              0              0            
    968000   329.75418     -1228.1776      244.09542     -984.08217     -735.29639      14.886165      14.886165      14.886165      0              0              0            
    969000   317.15299     -1205.5203      234.76758     -970.75272     -1584.502       15.202467      15.202467      15.202467      0              0              0            
    970000   292.16153     -1174.0919      216.26804     -957.82384     -150.44003      15.159851      15.159851      15.159851      0              0              0            
    971000   301.32336     -1194.0762      223.04995     -971.02624     -1394.7456      15.117669      15.117669      15.117669      0              0              0            
    972000   320.13625     -1176.1909      236.97589     -939.21501     -7.4361374      15.048983      15.048983      15.048983      0              0              0            
    973000   313.19376     -1199.4133      231.83682     -967.57643      332.85419      14.777458      14.777458      14.777458      0              0              0            
    974000   294.76548     -1216.3909      218.19558     -998.19537     -480.49391      14.933573      14.933573      14.933573      0              0              0            
    975000   336.81206     -1189.5383      249.31991     -940.21836      705.63974      15.029897      15.029897      15.029897      0              0              0            
    976000   304.44286     -1203.4376      225.3591      -978.07851      608.44325      15.049109      15.049109      15.049109      0              0              0            
    977000   291.37495     -1184.3868      215.68579     -968.70096     -459.63642      15.082342      15.082342      15.082342      0              0              0            
    978000   303.83589     -1192.8379      224.9098      -967.92809     -1170.7034      15.075518      15.075518      15.075518      0              0              0            
    979000   289.49786     -1189.3582      214.2963      -975.06186      1981.997       14.939982      14.939982      14.939982      0              0              0            
    980000   291.78169     -1223.7267      215.98687     -1007.7398      625.06192      14.964433      14.964433      14.964433      0              0              0            
    981000   295.90687     -1201.8486      219.04048     -982.80817     -1951.9623      14.934349      14.934349      14.934349      0              0              0            
    982000   281.71227     -1179.2185      208.53314     -970.68537     -2067.4518      15.141122      15.141122      15.141122      0              0              0            
    983000   287.34262     -1209.5488      212.70092     -996.84788     -1337.87        14.912007      14.912007      14.912007      0              0              0            
    984000   292.55601     -1239.3425      216.56005     -1022.7825     -830.28353      14.837744      14.837744      14.837744      0              0              0            
    985000   316.71332     -1222.2221      234.44212     -987.77997      1299.6363      14.773652      14.773652      14.773652      0              0              0            
    986000   327.77364     -1215.4849      242.62935     -972.85554      745.44125      14.942669      14.942669      14.942669      0              0              0            
    987000   302.11624     -1210.0473      223.63686     -986.41043      1479.1984      14.793145      14.793145      14.793145      0              0              0            
    988000   310.71429     -1237.8552      230.00143     -1007.8537      288.14106      14.704405      14.704405      14.704405      0              0              0            
    989000   308.59094     -1211.2683      228.42966     -982.83864      79.583407      15.080106      15.080106      15.080106      0              0              0            
    990000   293.11379     -1200.1224      216.97294     -983.14941      1413.1907      14.975916      14.975916      14.975916      0              0              0            
    991000   322.04895     -1210.4654      238.39174     -972.07369     -72.906271      14.932398      14.932398      14.932398      0              0              0            
    992000   314.10165     -1209.5914      232.50888     -977.08255     -2803.6523      15.038273      15.038273      15.038273      0              0              0            
    993000   287.14985     -1203.5435      212.55823     -990.98524      165.54892      15.123176      15.123176      15.123176      0              0              0            
    994000   296.16379     -1196.304       219.23065     -977.07331     -1349.2256      15.202201      15.202201      15.202201      0              0              0            
    995000   299.17759     -1187.6067      221.46157     -966.14515     -1035.6         15.099528      15.099528      15.099528      0              0              0            
    996000   287.54551     -1210.3793      212.8511      -997.52823      2854.6899      14.871625      14.871625      14.871625      0              0              0            
    997000   288.57894     -1180.3334      213.61609     -966.71733     -502.06922      14.936443      14.936443      14.936443      0              0              0            
    998000   311.7133      -1181.5551      230.74093     -950.81416      360.46161      15.125344      15.125344      15.125344      0              0              0            
    999000   291.57547     -1194.2362      215.83422     -978.40196     -2871.2561      14.954077      14.954077      14.954077      0              0              0            
   1000000   290.10841     -1195.5506      214.74825     -980.80239     -367.25575      15.057202      15.057202      15.057202      0              0              0            
Loop time of 219.109 on 12 procs for 1000000 steps with 320 atoms

Performance: 788.648 ns/day, 0.030 hours/ns, 4563.933 timesteps/s, 1.460 Matom-step/s
89.1% CPU use with 12 MPI tasks x 1 OpenMP threads

MPI task timing breakdown:
Section |  min time  |  avg time  |  max time  |%varavg| %total
---------------------------------------------------------------
Pair    | 22.778     | 24.432     | 25.854     |  20.5 | 11.15
Bond    | 0.64546    | 0.68125    | 0.74074    |   3.6 |  0.31
Kspace  | 84.157     | 85.608     | 88.032     |  12.5 | 39.07
Neigh   | 4.8184     | 4.9432     | 5.1343     |   5.0 |  2.26
Comm    | 24.215     | 26.4       | 28.406     |  25.8 | 12.05
Output  | 15.124     | 16.182     | 19.055     |  24.5 |  7.39
Modify  | 54.113     | 59.302     | 60.961     |  24.1 | 27.06
Other   |            | 1.561      |            |       |  0.71

Nlocal:        26.6667 ave          35 max          20 min
Histogram: 3 1 0 2 2 0 1 0 0 3
Nghost:          805.5 ave         836 max         777 min
Histogram: 2 0 3 1 0 1 1 2 1 1
Neighs:              0 ave           0 max           0 min
Histogram: 12 0 0 0 0 0 0 0 0 0

Total # of neighbors = 0
Ave neighs/atom = 0
Ave special neighs/atom = 1.9875
Neighbor list builds = 73928
Dangerous builds = 5212


Total wall time: 0:03:39
