LAMMPS (7 Feb 2024 - Update 1)
  using 1 OpenMP thread(s) per MPI task
echo both

# Define temperature parameters
variable	temperature equal 300.0 # Simulation temperature in Kelvin
variable	tempDamp equal 100.0 # Relaxation time of themostat - 0.1 ps

# Define pressure parameters
variable	pressure equal 1.0 # Pressure in bars
variable	pressureDamp equal 500.0 # Relaxation time of the barostat 0.5 ps

# Define random seed
variable	seed equal 98475

# Simulation setup
units		real
atom_style	full
variable	out_freq equal 1000 # Thermo output frequency
variable	out_freq2 equal 10 # Dump output frequency
neigh_modify    delay 10 every 1 # Neighbor list setup

### TIP4P/Ew and NaCl Potential Parameters ###
pair_style      hybrid lj/cut/coul/long 5.0 buck/coul/long 5.0 # This cutoff is too short for a real calculation
# Load configuration
read_data       data.nacl
Reading data file ...
  orthogonal box = (0 0 0) to (15.5 15.5 15.5)
  2 by 2 by 3 MPI processor grid
  reading atoms ...
  320 atoms
  scanning bonds ...
  2 = max bonds/atom
  scanning angles ...
  1 = max angles/atom
  reading bonds ...
  212 bonds
  reading angles ...
  106 angles
Finding 1-2 1-3 1-4 neighbors ...
  special bond factors lj:    0        0        0       
  special bond factors coul:  0        0        0       
     2 = max # of 1-2 neighbors
     1 = max # of 1-3 neighbors
     1 = max # of 1-4 neighbors
     2 = max # of special neighbors
  special bonds CPU = 0.001 seconds
  read_data CPU = 0.007 seconds

# create groups ###

group hy type 1
212 atoms in group hy
group ox type 2
106 atoms in group ox
group na type 3
1 atoms in group na
group cl type 4
1 atoms in group cl

## set charges - beside manually ###
set group ox charge -0.830
Setting atom values ...
  106 settings made for charge
set group hy charge 0.415
Setting atom values ...
  212 settings made for charge
set group na charge 1.0
Setting atom values ...
  1 settings made for charge
set group cl charge -1.0
Setting atom values ...
  1 settings made for charge

# Water TIP3P
pair_coeff      1 1 lj/cut/coul/long 0.0 0.0
pair_coeff      2 2 lj/cut/coul/long 0.102 3.188
pair_coeff      1 2 lj/cut/coul/long 0.0 0.0
# Mixed from Pettitt 86
pair_coeff      2 3 lj/cut/coul/long 0.1338549 2.72
pair_coeff      1 3 lj/cut/coul/long 0.1338549 1.31
pair_coeff      2 4 lj/cut/coul/long 0.359825 3.55
pair_coeff      1 4 lj/cut/coul/long 0.359825 2.14
# NaCl from Pettitt 86
pair_coeff      3 4 buck/coul/long 28929.93 0.317 161.2016
pair_coeff      3 3 buck/coul/long 9772.847 0.317 24.18024 # This is not used
pair_coeff      4 4 buck/coul/long 80312.94 0.317 1683.981 # This is not used
bond_style      harmonic
bond_coeff      1 450 0.9572
angle_style     harmonic
angle_coeff     1 55 104.52
kspace_style    pppm 1e-2 # This value is too large for a real calculation

timestep	2.0 # Timestep 2 fs
thermo          ${out_freq}
thermo          1000
thermo_style 	custom step temp pe ke etotal press lx ly lz xy xz yz
restart 	${out_freq} restart restart2
restart 	1000 restart restart2

velocity        all create ${temperature} ${seed} dist gaussian
velocity        all create 300 ${seed} dist gaussian
velocity        all create 300 98475 dist gaussian
# Perform minimization
minimize 1.0e-2 1.0e-3 100 1000
Switching to 'neigh_modify every 1 delay 0 check yes' setting during minimization
PPPM initialization ...
  using 12-bit tables for long-range coulomb (src/lammps-7Feb2024/src/kspace.cpp:342)
  G vector (1/distance) = 0.40023582
  grid = 8 8 8
  stencil order = 5
  estimated absolute RMS force accuracy = 0.7823365
  estimated relative force accuracy = 0.0023559831
  using double precision MKL FFT
  3d grid and FFT values/proc = 1089 48
Generated 0 of 6 mixed pair_coeff terms from geometric mixing rule
Neighbor list info ...
  update: every = 1 steps, delay = 0 steps, check = yes
  max neighbors/atom: 2000, page size: 100000
  master list distance cutoff = 7
  ghost atom cutoff = 7
  binsize = 3.5, bins = 5 5 5
  3 neighbor lists, perpetual/occasional/extra = 3 0 0
  (1) pair lj/cut/coul/long, perpetual, skip from (3)
      attributes: half, newton on
      pair build: skip
      stencil: none
      bin: none
  (2) pair buck/coul/long, perpetual, skip from (3)
      attributes: half, newton on
      pair build: skip
      stencil: none
      bin: none
  (3) neighbor class addition, perpetual
      attributes: half, newton on
      pair build: half/bin/newton
      stencil: half/bin/3d
      bin: standard
Per MPI rank memory allocation (min/avg/max) = 9.416 | 9.418 | 9.42 Mbytes
   Step          Temp          PotEng         KinEng         TotEng         Press            Lx             Ly             Lz             Xy             Xz             Yz      
         0   300            92556250       285.26352      92556536       6.8175783e+09  15.5           15.5           15.5           0              0              0            
        27   300           -1095.9406      285.26352     -810.67712     -2918.7587      15.5           15.5           15.5           0              0              0            
Loop time of 0.0108495 on 12 procs for 27 steps with 320 atoms

80.4% CPU use with 12 MPI tasks x 1 OpenMP threads

Minimization stats:
  Stopping criterion = energy tolerance
  Energy initial, next-to-last, final = 
       92556250.257805     -1089.35799481  -1095.94064566941
  Force two-norm initial, final = 1.8953089e+09 108.40957
  Force max component initial, final = 1.2163668e+09 24.333575
  Final line search alpha, max atom move = 0.0033714434 0.08203927
  Iterations, force evaluations = 27 35

MPI task timing breakdown:
Section |  min time  |  avg time  |  max time  |%varavg| %total
---------------------------------------------------------------
Pair    | 0.00048195 | 0.00069818 | 0.00085371 |   0.0 |  6.44
Bond    | 1.8595e-05 | 2.6581e-05 | 3.3445e-05 |   0.0 |  0.24
Kspace  | 0.0038549  | 0.0039915  | 0.0041935  |   0.2 | 36.79
Neigh   | 0.00017968 | 0.00019818 | 0.00021374 |   0.0 |  1.83
Comm    | 0.0010332  | 0.0010885  | 0.001165   |   0.1 | 10.03
Output  | 0          | 0          | 0          |   0.0 |  0.00
Modify  | 0          | 0          | 0          |   0.0 |  0.00
Other   |            | 0.004847   |            |       | 44.67

Nlocal:        26.6667 ave          32 max          19 min
Histogram: 1 0 2 1 0 1 1 2 2 2
Nghost:        766.167 ave         805 max         727 min
Histogram: 2 0 0 2 3 1 1 1 1 1
Neighs:              0 ave           0 max           0 min
Histogram: 12 0 0 0 0 0 0 0 0 0

Total # of neighbors = 0
Ave neighs/atom = 0
Ave special neighs/atom = 1.9875
Neighbor list builds = 3
Dangerous builds = 0

# Write trajectory to file
dump           	myDump all dcd ${out_freq2} out.dcd
dump           	myDump all dcd 10 out.dcd
#dump_modify    	myDump unwrap yes

# Start simulation

reset_timestep 	0


fix umb all plumed plumedfile plumed_8.dat outfile plumed.out
fix             1 all temp/csvr ${temperature} ${temperature} ${tempDamp} ${seed} # Bussi's thermostat
fix             1 all temp/csvr 300 ${temperature} ${tempDamp} ${seed} 
fix             1 all temp/csvr 300 300 ${tempDamp} ${seed} 
fix             1 all temp/csvr 300 300 100 ${seed} 
fix             1 all temp/csvr 300 300 100 98475 
fix             2 all shake 0.0001 20 0 t 1 2 # Shake algorithm
Finding SHAKE clusters ...
       0 = # of size 2 clusters
     106 = # of size 3 clusters
       0 = # of size 4 clusters
       0 = # of frozen angles
  find clusters CPU = 0.000 seconds
#fix             3 all nve
fix             3 all nph iso ${pressure} ${pressure} ${pressureDamp} # Isotropic barostat
fix             3 all nph iso 1 ${pressure} ${pressureDamp} 
fix             3 all nph iso 1 1 ${pressureDamp} 
fix             3 all nph iso 1 1 500 
fix 		4 all momentum 10000 linear 1 1 1 # Set total linear momentum to zero every 10000 steps

run 1000000
PPPM initialization ...
  using 12-bit tables for long-range coulomb (src/lammps-7Feb2024/src/kspace.cpp:342)
  G vector (1/distance) = 0.40023582
  grid = 8 8 8
  stencil order = 5
  estimated absolute RMS force accuracy = 0.7823365
  estimated relative force accuracy = 0.0023559831
  using double precision MKL FFT
  3d grid and FFT values/proc = 1089 48
Generated 0 of 6 mixed pair_coeff terms from geometric mixing rule
Per MPI rank memory allocation (min/avg/max) = 9.186 | 9.188 | 9.19 Mbytes
   Step          Temp          PotEng         KinEng         TotEng         Press            Lx             Ly             Lz             Xy             Xz             Yz      
         0   385.36913     -1127.6681      285.26352     -842.40459     -1267.8349      15.5           15.5           15.5           0              0              0            
      1000   315.10402     -1220.1655      233.25087     -986.91464     -395.05986      14.921215      14.921215      14.921215      0              0              0            
      2000   303.9887      -1197.2593      225.02292     -972.23642     -954.92325      15.082576      15.082576      15.082576      0              0              0            
      3000   279.39273     -1188.4456      206.81613     -981.62949      287.69284      15.088065      15.088065      15.088065      0              0              0            
      4000   300.84472     -1167.322       222.69564     -944.62636      1633.5239      15.133543      15.133543      15.133543      0              0              0            
      5000   294.3043      -1203.4536      217.85419     -985.59942     -1045.484       15.318424      15.318424      15.318424      0              0              0            
      6000   298.43269     -1205.521       220.91017     -984.61083     -936.45374      14.935938      14.935938      14.935938      0              0              0            
      7000   291.04037     -1203.0251      215.43812     -987.587       -1515.9161      15.281127      15.281127      15.281127      0              0              0            
      8000   311.8081      -1208.4897      230.81112     -977.67857      447.06432      14.97104       14.97104       14.97104       0              0              0            
      9000   291.67586     -1218.7943      215.90854     -1002.8858      790.00627      14.985327      14.985327      14.985327      0              0              0            
     10000   323.97672     -1181.2172      239.81874     -941.39846     -596.93762      15.07459       15.07459       15.07459       0              0              0            
     11000   288.08238     -1163.4206      213.24852     -950.1721       955.61157      15.327686      15.327686      15.327686      0              0              0            
     12000   300.51337     -1182.2346      222.45036     -959.78421     -176.95402      15.14423       15.14423       15.14423       0              0              0            
     13000   302.26071     -1198.3226      223.7438      -974.5788      -1188.4476      15.18606       15.18606       15.18606       0              0              0            
     14000   285.83535     -1212.2064      211.58519     -1000.6213      636.90612      14.900656      14.900656      14.900656      0              0              0            
     15000   276.2994      -1233.0409      204.52634     -1028.5145     -1635.5156      15.07335       15.07335       15.07335       0              0              0            
     16000   291.43055     -1198.4845      215.72694     -982.75758     -446.04251      15.239588      15.239588      15.239588      0              0              0            
     17000   302.89247     -1189.7757      224.21145     -965.56429     -355.10906      14.973992      14.973992      14.973992      0              0              0            
     18000   295.72998     -1204.0515      218.90953     -985.14193     -446.0112       14.9836        14.9836        14.9836        0              0              0            
     19000   293.86183     -1203.7489      217.52667     -986.22219      1235.1051      14.929205      14.929205      14.929205      0              0              0            
     20000   296.37094     -1195.7886      219.38399     -976.40464      2589.418       15.023623      15.023623      15.023623      0              0              0            
     21000   318.43651     -1180.9584      235.71769     -945.24069      68.984585      15.202211      15.202211      15.202211      0              0              0            
     22000   319.10778     -1184.2943      236.21459     -948.07971     -1302.5247      15.292611      15.292611      15.292611      0              0              0            
     23000   285.48251     -1208.9004      211.324       -997.57635     -458.41104      14.81864       14.81864       14.81864       0              0              0            
     24000   319.44729     -1198.9034      236.4659      -962.43754      3423.6093      14.86906       14.86906       14.86906       0              0              0            
     25000   314.58971     -1212.9335      232.87015     -980.06333      1091.669       15.027309      15.027309      15.027309      0              0              0            
     26000   306.2317      -1214.1885      226.68327     -987.50525      907.50558      14.914459      14.914459      14.914459      0              0              0            
     27000   310.57069     -1204.2573      229.89514     -974.36212     -410.71719      15.01628       15.01628       15.01628       0              0              0            
     28000   284.0494      -1183.5199      210.26316     -973.25674      135.15613      15.130368      15.130368      15.130368      0              0              0            
     29000   277.84211     -1212.1658      205.66831     -1006.4975      43.478696      14.966433      14.966433      14.966433      0              0              0            
     30000   282.59699     -1208.0083      209.18804     -998.82029      865.92102      14.821763      14.821763      14.821763      0              0              0            
     31000   278.02246     -1187.0317      205.80181     -981.22988     -1709.3784      15.324844      15.324844      15.324844      0              0              0            
     32000   295.69616     -1203.1388      218.8845      -984.25432      106.28059      14.989031      14.989031      14.989031      0              0              0            
     33000   328.1715      -1221.8515      242.92386     -978.9276       307.1864       14.766936      14.766936      14.766936      0              0              0            
     34000   285.7916      -1194.3516      211.5528      -982.79878      1290.9013      15.113302      15.113302      15.113302      0              0              0            
     35000   291.39447     -1234.7879      215.70024     -1019.0876     -936.30087      14.869596      14.869596      14.869596      0              0              0            
     36000   305.20826     -1200.1634      225.92568     -974.23775      1242.7425      15.091233      15.091233      15.091233      0              0              0            
     37000   314.3658      -1207.6622      232.70441     -974.95776      1793.5885      14.784055      14.784055      14.784055      0              0              0            
     38000   302.69344     -1196.6774      224.06413     -972.61324      640.44449      14.949774      14.949774      14.949774      0              0              0            
     39000   332.47968     -1229.1643      246.11293     -983.05133     -948.09954      15.088647      15.088647      15.088647      0              0              0            
     40000   288.90569     -1221.8618      213.85796     -1008.0038     -1279.2911      15.005553      15.005553      15.005553      0              0              0            
     41000   309.99956     -1213.4017      229.47237     -983.92931      1044.0748      14.697762      14.697762      14.697762      0              0              0            
     42000   278.56348     -1200.5495      206.2023      -994.34722      1352.197       14.977611      14.977611      14.977611      0              0              0            
     43000   317.50934     -1196.2908      235.03137     -961.25944     -2865.5645      15.097358      15.097358      15.097358      0              0              0            
     44000   340.22281     -1211.1321      251.84466     -959.28742     -619.87323      15.090029      15.090029      15.090029      0              0              0            
     45000   324.60757     -1229.8793      240.28572     -989.59359      891.93515      14.914895      14.914895      14.914895      0              0              0            
     46000   274.33113     -1211.1606      203.06937     -1008.0913     -315.98634      14.963668      14.963668      14.963668      0              0              0            
     47000   285.96236     -1163.5343      211.6792      -951.8551       618.34636      15.165746      15.165746      15.165746      0              0              0            
     48000   281.24763     -1195.3539      208.1892      -987.16468     -1203.4895      15.157922      15.157922      15.157922      0              0              0            
     49000   302.55404     -1196.3268      223.96094     -972.36589     -527.62048      15.261758      15.261758      15.261758      0              0              0            
     50000   283.09556     -1198.4448      209.5571      -988.88767      1117.4952      14.96561       14.96561       14.96561       0              0              0            
     51000   284.70778     -1208.3868      210.75052     -997.63632     -958.52703      14.902251      14.902251      14.902251      0              0              0            
     52000   315.69427     -1229.2667      233.68779     -995.57889     -385.23079      14.866075      14.866075      14.866075      0              0              0            
     53000   301.32198     -1208.2095      223.04893     -985.16056      580.80583      14.968944      14.968944      14.968944      0              0              0            
     54000   291.64176     -1197.959       215.88329     -982.07574     -415.03946      15.019667      15.019667      15.019667      0              0              0            
     55000   311.02879     -1212.155       230.23424     -981.92071      1020.5739      15.029599      15.029599      15.029599      0              0              0            
     56000   316.71445     -1202.3964      234.44296     -967.9534       852.58199      15.109049      15.109049      15.109049      0              0              0            
     57000   319.97326     -1229.6336      236.85524     -992.77836     -625.78231      14.948195      14.948195      14.948195      0              0              0            
     58000   307.68239     -1202.3688      227.75712     -974.61167      1568.9448      15.051486      15.051486      15.051486      0              0              0            
     59000   296.39717     -1218.6052      219.40341     -999.20176     -1054.5239      15.020348      15.020348      15.020348      0              0              0            
     60000   332.88307     -1182.3751      246.41153     -935.9636       1258.675       14.850846      14.850846      14.850846      0              0              0            
     61000   294.83434     -1208.0292      218.24655     -989.7826       379.51981      14.832033      14.832033      14.832033      0              0              0            
     62000   323.96915     -1202.9625      239.81314     -963.14934     -328.30903      15.086596      15.086596      15.086596      0              0              0            
     63000   297.02736     -1215.9897      219.86989     -996.11977      700.29918      15.047481      15.047481      15.047481      0              0              0            
     64000   286.90205     -1212.48        212.37479     -1000.1052      1129.2248      15.026934      15.026934      15.026934      0              0              0            
     65000   314.29579     -1210.9378      232.65259     -978.28523     -633.662        14.959499      14.959499      14.959499      0              0              0            
     66000   294.21128     -1198.2255      217.78534     -980.44013     -2196.3161      15.223454      15.223454      15.223454      0              0              0            
     67000   312.95819     -1150.2658      231.66245     -918.60332      835.60182      15.23447       15.23447       15.23447       0              0              0            
     68000   274.44534     -1216.6583      203.15391     -1013.5044     -900.63441      14.808712      14.808712      14.808712      0              0              0            
     69000   283.86556     -1231.0836      210.12708     -1020.9565     -767.83654      14.98305       14.98305       14.98305       0              0              0            
     70000   313.11709     -1190.2639      231.78007     -958.48384     -716.22195      15.053103      15.053103      15.053103      0              0              0            
     71000   312.60326     -1197.3723      231.39972     -965.97256      2492.7615      15.245681      15.245681      15.245681      0              0              0            
     72000   324.45921     -1229.2834      240.1759      -989.10751      897.67868      14.707346      14.707346      14.707346      0              0              0            
     73000   274.39714     -1193.271       203.11823     -990.15274     -127.5628       14.765782      14.765782      14.765782      0              0              0            
     74000   309.11455     -1231.7123      228.81726     -1002.895       1965.6446      15.033237      15.033237      15.033237      0              0              0            
     75000   306.24113     -1191.9855      226.69025     -965.29523      169.21861      15.30416       15.30416       15.30416       0              0              0            
     76000   311.81365     -1196.4397      230.81522     -965.6245       413.23217      15.231803      15.231803      15.231803      0              0              0            
     77000   304.70953     -1177.4271      225.55651     -951.87063      1085.5118      15.084491      15.084491      15.084491      0              0              0            
     78000   304.91974     -1204.6517      225.71211     -978.93959     -115.49308      15.190713      15.190713      15.190713      0              0              0            
     79000   284.97458     -1200.5116      210.94801     -989.56358     -249.70478      14.810133      14.810133      14.810133      0              0              0            
     80000   289.40867     -1192.3865      214.23028     -978.1562       2744.6673      14.953777      14.953777      14.953777      0              0              0            
     81000   301.28952     -1186.15        223.0249      -963.12512     -1176.4839      15.244872      15.244872      15.244872      0              0              0            
     82000   309.03279     -1212.6975      228.75673     -983.94077     -2439.2514      15.100265      15.100265      15.100265      0              0              0            
     83000   269.79709     -1199.6522      199.71311     -999.93904      269.94328      14.887326      14.887326      14.887326      0              0              0            
     84000   322.26441     -1206.3273      238.55123     -967.77606     -1889.8931      15.043686      15.043686      15.043686      0              0              0            
     85000   317.84838     -1173.6802      235.28234     -938.39789     -3070.6474      15.044208      15.044208      15.044208      0              0              0            
     86000   294.07363     -1199.2356      217.68345     -981.55214     -1124.3396      15.236971      15.236971      15.236971      0              0              0            
     87000   274.51526     -1189.495       203.20566     -986.28929     -1549.1973      15.009544      15.009544      15.009544      0              0              0            
     88000   284.24945     -1186.7109      210.41125     -976.29964      1013.9048      15.170429      15.170429      15.170429      0              0              0            
     89000   312.69897     -1193.031       231.47057     -961.56042      686.207        15.046518      15.046518      15.046518      0              0              0            
     90000   313.75168     -1171.4293      232.24981     -939.17952     -1041.7282      15.100287      15.100287      15.100287      0              0              0            
     91000   311.24316     -1169.3319      230.39292     -938.93901      1413.3557      15.018081      15.018081      15.018081      0              0              0            
     92000   310.49139     -1165.9705      229.83644     -936.13407      1938.8762      15.169625      15.169625      15.169625      0              0              0            
     93000   322.3363      -1187.8513      238.60445     -949.24687      1138.9569      14.953664      14.953664      14.953664      0              0              0            
     94000   325.2428      -1210.2331      240.75594     -969.47718     -1712.3105      15.163467      15.163467      15.163467      0              0              0            
     95000   298.75162     -1207.8443      221.14626     -986.698       -735.76723      15.21126       15.21126       15.21126       0              0              0            
     96000   287.97903     -1213.323       213.17201     -1000.151      -2208.1221      15.001428      15.001428      15.001428      0              0              0            
     97000   301.60117     -1222.648       223.25559     -999.39242      1695.1828      14.87805       14.87805       14.87805       0              0              0            
     98000   279.83321     -1197.1977      207.14219     -990.05555     -1965.3334      15.272514      15.272514      15.272514      0              0              0            
     99000   308.32837     -1218.6661      228.23529     -990.43081     -508.60741      14.818352      14.818352      14.818352      0              0              0            
    100000   305.97913     -1195.3777      226.49631     -968.88134      548.86124      14.918291      14.918291      14.918291      0              0              0            
    101000   314.48813     -1212.0747      232.79496     -979.27977     -1265.9323      14.657171      14.657171      14.657171      0              0              0            
    102000   279.90054     -1205.1511      207.19204     -997.95909     -158.94985      15.156315      15.156315      15.156315      0              0              0            
    103000   277.59118     -1182.4564      205.48257     -976.97383      435.01567      14.920421      14.920421      14.920421      0              0              0            
    104000   304.12303     -1224.8645      225.12236     -999.74214      215.94835      14.992591      14.992591      14.992591      0              0              0            
    105000   289.77279     -1187.8306      214.49981     -973.33083     -1557.8277      14.980804      14.980804      14.980804      0              0              0            
    106000   294.59928     -1159.4756      218.07255     -941.40308      591.31322      15.288775      15.288775      15.288775      0              0              0            
    107000   308.09209     -1236.3509      228.06039     -1008.2905      544.63857      14.961898      14.961898      14.961898      0              0              0            
    108000   300.76248     -1217.8064      222.63476     -995.17169     -747.56879      14.94497       14.94497       14.94497       0              0              0            
    109000   290.00996     -1200.9915      214.67537     -986.3161      -1124.0779      14.97642       14.97642       14.97642       0              0              0            
    110000   281.88554     -1187.5673      208.6614      -978.90592      48.020698      15.132049      15.132049      15.132049      0              0              0            
    111000   311.51799     -1190.9077      230.59636     -960.31137      1705.3736      14.881086      14.881086      14.881086      0              0              0            
    112000   301.77249     -1200.4347      223.38241     -977.05228      489.45022      14.796175      14.796175      14.796175      0              0              0            
    113000   289.46673     -1212.6245      214.27326     -998.35129      1532.513       14.731657      14.731657      14.731657      0              0              0            
    114000   289.47143     -1209.1815      214.27674     -994.90472     -830.9978       14.975489      14.975489      14.975489      0              0              0            
    115000   310.41234     -1215.706       229.77792     -985.92803     -959.32543      14.982917      14.982917      14.982917      0              0              0            
    116000   283.71232     -1198.1075      210.01364     -988.09388     -1745.7405      15.089058      15.089058      15.089058      0              0              0            
    117000   333.55572     -1178.2718      246.90945     -931.36235      45.917756      15.221965      15.221965      15.221965      0              0              0            
    118000   310.85991     -1180.6177      230.10923     -950.50847     -1726.3427      15.33666       15.33666       15.33666       0              0              0            
    119000   301.19452     -1231.1608      222.95458     -1008.2063      1861.25        14.935865      14.935865      14.935865      0              0              0            
    120000   311.13085     -1168.7954      230.30979     -938.48558      2908.7108      15.280902      15.280902      15.280902      0              0              0            
    121000   280.04759     -1202.7793      207.30089     -995.47837      375.03409      14.976766      14.976766      14.976766      0              0              0            
    122000   313.9911      -1200.3702      232.42704     -967.94316      2916.1534      14.903696      14.903696      14.903696      0              0              0            
    123000   292.68608     -1248.2698      216.65633     -1031.6134      2503.2077      14.813842      14.813842      14.813842      0              0              0            
    124000   291.62466     -1239.6182      215.87063     -1023.7476      472.94834      14.891369      14.891369      14.891369      0              0              0            
    125000   327.65023     -1207.9557      242.538       -965.41772     -800.22623      15.06937       15.06937       15.06937       0              0              0            
    126000   311.567       -1196.5045      230.63264     -965.87185      913.83495      15.054538      15.054538      15.054538      0              0              0            
    127000   285.36611     -1172.8085      211.23784     -961.57071     -1706.9976      15.217323      15.217323      15.217323      0              0              0            
    128000   279.11532     -1193.5963      206.61079     -986.98553      742.74747      14.852914      14.852914      14.852914      0              0              0            
    129000   285.30282     -1228.3198      211.19099     -1017.1289     -26.577816      15.050841      15.050841      15.050841      0              0              0            
    130000   287.80686     -1219.9325      213.04456     -1006.8879      1572.9671      15.004837      15.004837      15.004837      0              0              0            
    131000   301.08865     -1178.9709      222.87621     -956.09473      1145.2348      15.205087      15.205087      15.205087      0              0              0            
    132000   285.1988      -1204.7491      211.11399     -993.63513     -415.76626      15.069584      15.069584      15.069584      0              0              0            
    133000   336.7266      -1205.2519      249.25665     -955.99528      1797.742       15.07269       15.07269       15.07269       0              0              0            
    134000   285.68166     -1158.3883      211.47142     -946.91691     -1434.1283      15.350679      15.350679      15.350679      0              0              0            
    135000   293.69192     -1213.251       217.40089     -995.85009     -262.25986      15.1478        15.1478        15.1478        0              0              0            
    136000   311.59512     -1170.9217      230.65346     -940.26821      4719.4274      14.778864      14.778864      14.778864      0              0              0            
    137000   289.73205     -1173.0384      214.46966     -958.5687      -1049.2627      15.55665       15.55665       15.55665       0              0              0            
    138000   306.09556     -1205.1393      226.58249     -978.55676      1589.3211      15.068051      15.068051      15.068051      0              0              0            
    139000   294.49643     -1216.8156      217.99641     -998.81917     -338.02592      15.172724      15.172724      15.172724      0              0              0            
    140000   316.13281     -1211.3751      234.01241     -977.36271     -276.3522       14.995554      14.995554      14.995554      0              0              0            
    141000   312.44935     -1198.8623      231.28578     -967.57654      1696.7067      14.851369      14.851369      14.851369      0              0              0            
    142000   311.7355      -1204.6099      230.75737     -973.85252     -2498.4169      15.014596      15.014596      15.014596      0              0              0            
    143000   298.84002     -1202.0617      221.21169     -980.85002     -1984.1694      14.900026      14.900026      14.900026      0              0              0            
    144000   282.8393      -1220.3664      209.36741     -1010.9989      1534.6887      14.779702      14.779702      14.779702      0              0              0            
    145000   281.44838     -1232.3968      208.3378      -1024.059      -331.86065      14.911953      14.911953      14.911953      0              0              0            
    146000   286.37717     -1236.8473      211.98626     -1024.861       81.476498      14.981409      14.981409      14.981409      0              0              0            
    147000   312.84665     -1166.6658      231.57988     -935.0859       1268.8517      14.986396      14.986396      14.986396      0              0              0            
    148000   311.23317     -1229.0216      230.38553     -998.63609      3403.7151      14.84067       14.84067       14.84067       0              0              0            
    149000   312.23519     -1204.1579      231.12726     -973.03066     -569.2135       14.903056      14.903056      14.903056      0              0              0            
    150000   312.33824     -1204.019       231.20354     -972.81541      785.87046      14.87859       14.87859       14.87859       0              0              0            
    151000   276.51931     -1193.9998      204.68913     -989.31064     -1656.1161      15.509319      15.509319      15.509319      0              0              0            
    152000   285.92688     -1210.0989      211.65294     -998.44598     -801.26887      14.938572      14.938572      14.938572      0              0              0            
    153000   257.10981     -1194.8656      190.32155     -1004.544      -1394.1074      15.052111      15.052111      15.052111      0              0              0            
    154000   321.17765     -1210.7764      237.74678     -973.02966     -1904.0637      15.111889      15.111889      15.111889      0              0              0            
    155000   282.67188     -1166.7553      209.24348     -957.51184     -1481.7131      15.132301      15.132301      15.132301      0              0              0            
    156000   304.96777     -1214.9522      225.74766     -989.20454      1399.7983      14.99366       14.99366       14.99366       0              0              0            
    157000   319.28894     -1192.0115      236.34869     -955.66286      1985.6321      15.011547      15.011547      15.011547      0              0              0            
    158000   259.16401     -1211.8972      191.84214     -1020.055      -941.12363      15.058097      15.058097      15.058097      0              0              0            
    159000   297.0573      -1209.9688      219.89206     -990.07677     -1617.8084      15.180301      15.180301      15.180301      0              0              0            
    160000   280.6855      -1242.4399      207.77309     -1034.6668     -195.88733      14.893341      14.893341      14.893341      0              0              0            
    161000   331.27945     -1172.5702      245.22448     -927.34571      925.05529      15.198497      15.198497      15.198497      0              0              0            
    162000   326.85401     -1197.9625      241.94861     -956.01385      1454.4367      14.894705      14.894705      14.894705      0              0              0            
    163000   305.35462     -1190.8223      226.03403     -964.78828     -589.54165      15.177133      15.177133      15.177133      0              0              0            
    164000   299.56566     -1206.1786      221.74883     -984.42978     -1021.8998      15.15129       15.15129       15.15129       0              0              0            
    165000   319.20004     -1218.1672      236.28288     -981.88429     -122.60449      15.120564      15.120564      15.120564      0              0              0            
    166000   296.31236     -1211.8934      219.34063     -992.55272      772.57569      14.843089      14.843089      14.843089      0              0              0            
    167000   308.56665     -1215.0271      228.41168     -986.61544     -442.03572      14.899495      14.899495      14.899495      0              0              0            
    168000   314.23492     -1190.6001      232.60753     -957.99261      599.59914      14.733406      14.733406      14.733406      0              0              0            
    169000   293.30483     -1206.8732      217.11435     -989.75883      1733.5852      14.763477      14.763477      14.763477      0              0              0            
    170000   287.2002      -1189.3988      212.59549     -976.8033       873.68587      15.28217       15.28217       15.28217       0              0              0            
    171000   300.9852      -1183.8584      222.79962     -961.05877      2304.222       15.012657      15.012657      15.012657      0              0              0            
    172000   319.95783     -1209.5636      236.84383     -972.71981     -1709.7526      15.012735      15.012735      15.012735      0              0              0            
    173000   274.75364     -1174.755       203.38213     -971.37286      820.51475      15.064583      15.064583      15.064583      0              0              0            
    174000   290.02306     -1210.8561      214.68507     -996.17099     -741.71511      15.180286      15.180286      15.180286      0              0              0            
    175000   344.35174     -1206.9278      254.90104     -952.0268      -1184.0624      15.186017      15.186017      15.186017      0              0              0            
    176000   307.24554     -1204.9721      227.43375     -977.53834      91.227018      14.709283      14.709283      14.709283      0              0              0            
    177000   305.90128     -1206.4304      226.43868     -979.9917      -2375.312       14.976705      14.976705      14.976705      0              0              0            
    178000   287.64028     -1193.6095      212.92126     -980.6882      -1823.2746      15.005917      15.005917      15.005917      0              0              0            
    179000   294.5351      -1187.2719      218.02504     -969.24691      542.21693      14.921448      14.921448      14.921448      0              0              0            
    180000   292.90352     -1195.9212      216.81729     -979.10392     -14.277077      15.158335      15.158335      15.158335      0              0              0            
    181000   287.6755      -1210.9227      212.94733     -997.97542      1583.3696      15.019093      15.019093      15.019093      0              0              0            
    182000   318.72722     -1195.6651      235.93288     -959.73219     -1875.4773      15.056126      15.056126      15.056126      0              0              0            
    183000   271.90825     -1195.5622      201.27587     -994.28631      1492.9407      14.949021      14.949021      14.949021      0              0              0            
    184000   281.43331     -1200.9409      208.32664     -992.61422     -1067.7365      15.178848      15.178848      15.178848      0              0              0            
    185000   314.99093     -1201.9747      233.16716     -968.80756      270.45045      14.945367      14.945367      14.945367      0              0              0            
    186000   248.0006      -1230.0718      183.5786      -1046.4932      43.118795      15.026387      15.026387      15.026387      0              0              0            
    187000   295.90023     -1194.5615      219.03556     -975.52599      1422.3355      14.90191       14.90191       14.90191       0              0              0            
    188000   303.4885      -1202.2861      224.65266     -977.63342     -745.06864      14.885712      14.885712      14.885712      0              0              0            
    189000   293.86422     -1217.9223      217.52844     -1000.3939     -5.0931225      14.832309      14.832309      14.832309      0              0              0            
    190000   294.37775     -1201.4161      217.90857     -983.50755     -2186.8344      15.077588      15.077588      15.077588      0              0              0            
    191000   284.35597     -1173.0219      210.4901      -962.53179     -32.530118      14.812099      14.812099      14.812099      0              0              0            
    192000   320.88885     -1210.4813      237.533       -972.94827      901.67203      14.874916      14.874916      14.874916      0              0              0            
    193000   297.50751     -1184.7945      220.22532     -964.56918      192.45232      15.139717      15.139717      15.139717      0              0              0            
    194000   322.28907     -1194.6842      238.56949     -956.11471      1463.5744      15.259703      15.259703      15.259703      0              0              0            
    195000   292.14928     -1212.2707      216.25898     -996.01169      695.29481      14.940968      14.940968      14.940968      0              0              0            
    196000   308.99608     -1199.7513      228.72956     -971.02176     -487.2237       14.811102      14.811102      14.811102      0              0              0            
    197000   318.09491     -1223.8512      235.46482     -988.38638     -975.18306      14.872138      14.872138      14.872138      0              0              0            
    198000   311.22933     -1213.2195      230.38269     -982.8368      -70.578618      14.915425      14.915425      14.915425      0              0              0            
    199000   296.64099     -1189.4223      219.58389     -969.83836     -477.40212      15.035202      15.035202      15.035202      0              0              0            
    200000   289.22791     -1209.1957      214.09648     -995.09925     -1021.8418      15.100695      15.100695      15.100695      0              0              0            
    201000   306.27246     -1222.7252      226.71344     -996.01177     -2409.6986      14.766466      14.766466      14.766466      0              0              0            
    202000   306.76496     -1189.4909      227.078       -962.41288      1343.5348      14.857849      14.857849      14.857849      0              0              0            
    203000   276.55445     -1191.2278      204.71515     -986.51266     -965.13643      15.025799      15.025799      15.025799      0              0              0            
    204000   316.25722     -1223.3193      234.1045      -989.21475     -2669.6373      14.741247      14.741247      14.741247      0              0              0            
    205000   295.93421     -1213.4476      219.06071     -994.38693      33.523647      15.201229      15.201229      15.201229      0              0              0            
    206000   318.11094     -1174.8487      235.47669     -939.37202      1604.2767      14.931984      14.931984      14.931984      0              0              0            
    207000   326.65472     -1206.8753      241.80109     -965.0742       1319.2098      14.871661      14.871661      14.871661      0              0              0            
    208000   274.38409     -1239.4128      203.10857     -1036.3042     -268.52276      14.875964      14.875964      14.875964      0              0              0            
    209000   302.03957     -1204.6035      223.58011     -981.02335     -1178.0419      15.115238      15.115238      15.115238      0              0              0            
    210000   298.76203     -1184.1196      221.15396     -962.96563      2853.0548      14.903175      14.903175      14.903175      0              0              0            
    211000   283.38034     -1222.3504      209.76791     -1012.5825     -348.65217      14.887803      14.887803      14.887803      0              0              0            
    212000   321.68627     -1201.4966      238.12328     -963.37331     -691.41925      14.864851      14.864851      14.864851      0              0              0            
    213000   324.25141     -1171.4574      240.02208     -931.43534      1851.8804      14.929496      14.929496      14.929496      0              0              0            
    214000   323.87945     -1204.0215      239.74674     -964.27476     -254.90594      14.858093      14.858093      14.858093      0              0              0            
    215000   305.0889      -1210.213       225.83733     -984.37572     -1349.615       15.014232      15.014232      15.014232      0              0              0            
    216000   297.27485     -1211.4415      220.0531      -991.38845     -1110.6621      15.012388      15.012388      15.012388      0              0              0            
    217000   308.52565     -1219.6395      228.38133     -991.25819     -781.22522      14.924339      14.924339      14.924339      0              0              0            
    218000   285.15236     -1208.0599      211.07961     -996.98029      984.27614      14.92801       14.92801       14.92801       0              0              0            
    219000   304.29786     -1222.4374      225.25177     -997.18562     -743.74214      14.961119      14.961119      14.961119      0              0              0            
    220000   298.83667     -1194.4284      221.20921     -973.2192      -61.105519      14.941473      14.941473      14.941473      0              0              0            
    221000   296.84495     -1148.0291      219.73487     -928.2942      -34.097458      14.956142      14.956142      14.956142      0              0              0            
    222000   305.17855     -1189.8288      225.90369     -963.92511     -625.5752       15.065231      15.065231      15.065231      0              0              0            
    223000   317.07505     -1142.3961      234.70989     -907.68621      1134.4214      15.009347      15.009347      15.009347      0              0              0            
    224000   274.46308     -1198.1559      203.16704     -994.98886      1402.27        15.293572      15.293572      15.293572      0              0              0            
    225000   301.0262      -1174.8453      222.82998     -952.01534     -394.64786      15.067225      15.067225      15.067225      0              0              0            
    226000   321.3222      -1195.3387      237.85378     -957.48496     -1075.7915      15.027617      15.027617      15.027617      0              0              0            
    227000   308.98284     -1214.9533      228.71975     -986.23358     -452.23618      14.968421      14.968421      14.968421      0              0              0            
    228000   268.56882     -1200.7744      198.80391     -1001.9705     -695.80721      14.908085      14.908085      14.908085      0              0              0            
    229000   312.30674     -1190.7605      231.18022     -959.58027     -285.05023      14.969003      14.969003      14.969003      0              0              0            
    230000   281.9594      -1210.7775      208.71607     -1002.0614     -809.18151      15.060092      15.060092      15.060092      0              0              0            
    231000   295.25794     -1235.3167      218.56011     -1016.7566     -756.03567      14.974763      14.974763      14.974763      0              0              0            
    232000   306.54354     -1235.8733      226.9141      -1008.9592     -258.07935      14.704074      14.704074      14.704074      0              0              0            
    233000   298.02021     -1199.949       220.60484     -979.34419     -986.77854      14.919307      14.919307      14.919307      0              0              0            
    234000   311.18919     -1197.2084      230.35297     -966.85548     -1980.9002      15.209315      15.209315      15.209315      0              0              0            
    235000   300.38064     -1213.3734      222.35211     -991.02132     -500.00508      15.088198      15.088198      15.088198      0              0              0            
    236000   292.65911     -1193.3326      216.63637     -976.69622      1090.685       15.034146      15.034146      15.034146      0              0              0            
    237000   293.97655     -1179.7731      217.61158     -962.16149      1354.9559      15.00795       15.00795       15.00795       0              0              0            
    238000   309.54072     -1186.1936      229.13272     -957.06089     -993.66019      15.071121      15.071121      15.071121      0              0              0            
    239000   323.80891     -1228.0756      239.69452     -988.38103      141.91429      14.788566      14.788566      14.788566      0              0              0            
    240000   304.28503     -1217.4177      225.24227     -992.17544      443.42177      15.057305      15.057305      15.057305      0              0              0            
    241000   305.55589     -1203.6577      226.18301     -977.47469      543.51399      14.82718       14.82718       14.82718       0              0              0            
    242000   309.16621     -1214.5754      228.85549     -985.71988      322.15913      15.057013      15.057013      15.057013      0              0              0            
    243000   305.32371     -1200.1588      226.01114     -974.14762      959.94053      14.803969      14.803969      14.803969      0              0              0            
    244000   285.81277     -1202.2872      211.56847     -990.71877      1477.9246      14.788397      14.788397      14.788397      0              0              0            
    245000   307.98867     -1186.4842      227.98384     -958.50035     -947.48828      15.018239      15.018239      15.018239      0              0              0            
    246000   311.9971      -1195.1174      230.95102     -964.16641      125.95584      14.975823      14.975823      14.975823      0              0              0            
    247000   295.74297     -1220.9108      218.91915     -1001.9916      1814.7338      15.16463       15.16463       15.16463       0              0              0            
    248000   304.69716     -1228.3088      225.54735     -1002.7615      1668.2999      14.664765      14.664765      14.664765      0              0              0            
    249000   290.19938     -1205.7579      214.81559     -990.94236      1307.7748      14.717918      14.717918      14.717918      0              0              0            
    250000   277.90954     -1217.243       205.71823     -1011.5247     -1490.5864      14.891395      14.891395      14.891395      0              0              0            
    251000   288.05299     -1186.7156      213.22676     -973.48889      233.01402      14.738629      14.738629      14.738629      0              0              0            
    252000   306.62716     -1221.7801      226.976       -994.80408      2251.8212      14.916393      14.916393      14.916393      0              0              0            
    253000   298.37717     -1208.9537      220.86907     -988.08463     -783.40925      15.045169      15.045169      15.045169      0              0              0            
    254000   322.31468     -1197.4799      238.58844     -958.89149      871.73136      15.099792      15.099792      15.099792      0              0              0            
    255000   291.24063     -1192.3693      215.58636     -976.78298      1415.3287      14.962084      14.962084      14.962084      0              0              0            
    256000   311.63927     -1205.3657      230.68614     -974.67955      1616.2728      14.920414      14.920414      14.920414      0              0              0            
    257000   329.71832     -1195.5177      244.06887     -951.4488       439.63731      14.938775      14.938775      14.938775      0              0              0            
    258000   285.86715     -1178.5944      211.60873     -966.98567      603.81742      14.898799      14.898799      14.898799      0              0              0            
    259000   278.65821     -1212.5795      206.27242     -1006.3071      116.15861      14.809358      14.809358      14.809358      0              0              0            
    260000   284.29546     -1235.7901      210.44531     -1025.3448      1245.4718      14.87972       14.87972       14.87972       0              0              0            
    261000   295.94986     -1176.9553      219.0723      -957.883       -889.03245      15.320604      15.320604      15.320604      0              0              0            
    262000   299.02733     -1224.6836      221.35035     -1003.3332      217.93821      14.784386      14.784386      14.784386      0              0              0            
    263000   293.76873     -1209.3951      217.45775     -991.93737      1270.311       14.658064      14.658064      14.658064      0              0              0            
    264000   286.44444     -1170.9495      212.03606     -958.9134       895.58705      15.042443      15.042443      15.042443      0              0              0            
    265000   293.45909     -1226.9288      217.22854     -1009.7002      485.64674      14.968048      14.968048      14.968048      0              0              0            
    266000   301.00051     -1243.2415      222.81096     -1020.4305      616.9888       14.822817      14.822817      14.822817      0              0              0            
    267000   299.56767     -1195.8079      221.75032     -974.05758      756.95171      14.931592      14.931592      14.931592      0              0              0            
    268000   300.4151      -1222.1565      222.37762     -999.77891      483.05022      15.082815      15.082815      15.082815      0              0              0            
    269000   292.74804     -1224.9166      216.7022      -1008.2144     -762.01843      14.990525      14.990525      14.990525      0              0              0            
    270000   295.71922     -1211.8294      218.90157     -992.92786     -1481.835       14.912541      14.912541      14.912541      0              0              0            
    271000   294.36158     -1188.5057      217.89659     -970.60914     -3826.61        14.87997       14.87997       14.87997       0              0              0            
    272000   339.44919     -1199.3826      251.272       -948.11061      246.92572      15.019367      15.019367      15.019367      0              0              0            
    273000   282.89614     -1198.6778      209.40948     -989.2683       1385.8033      14.857933      14.857933      14.857933      0              0              0            
    274000   314.43488     -1193.6589      232.75555     -960.90335      2782.2974      14.926669      14.926669      14.926669      0              0              0            
    275000   288.22538     -1214.1214      213.35437     -1000.767      -910.17722      15.071207      15.071207      15.071207      0              0              0            
    276000   282.88561     -1185.2942      209.40169     -975.8925       1774.1497      15.080526      15.080526      15.080526      0              0              0            
    277000   328.20071     -1223.3703      242.94549     -980.42481     -315.7125       14.986263      14.986263      14.986263      0              0              0            
    278000   297.2637      -1203.8014      220.04484     -983.75656     -2468.4287      14.902509      14.902509      14.902509      0              0              0            
    279000   282.92403     -1227.6869      209.43013     -1018.2568      120.05255      14.910691      14.910691      14.910691      0              0              0            
    280000   293.69601     -1204.1487      217.40392     -986.74474      978.76815      14.963636      14.963636      14.963636      0              0              0            
    281000   312.34196     -1214.5245      231.2063      -983.31825     -2608.0116      14.819727      14.819727      14.819727      0              0              0            
    282000   303.39626     -1184.3246      224.58437     -959.74025     -1681.6201      15.313887      15.313887      15.313887      0              0              0            
    283000   311.82661     -1193.8457      230.82481     -963.02093      752.68106      15.133854      15.133854      15.133854      0              0              0            
    284000   311.71268     -1207.9964      230.74048     -977.25588     -974.25364      15.303619      15.303619      15.303619      0              0              0            
    285000   315.33013     -1175.5739      233.41824     -942.15564     -335.04092      15.042692      15.042692      15.042692      0              0              0            
    286000   280.71098     -1213.1196      207.79195     -1005.3276      1895.0558      14.890337      14.890337      14.890337      0              0              0            
    287000   311.40479     -1244.8322      230.51257     -1014.3196      936.35749      15.12625       15.12625       15.12625       0              0              0            
    288000   325.97782     -1182.8893      241.30003     -941.5893      -84.754605      15.158075      15.158075      15.158075      0              0              0            
    289000   318.18931     -1202.1235      235.5347      -966.58876     -319.0744       15.239112      15.239112      15.239112      0              0              0            
    290000   303.61957     -1182.0384      224.74968     -957.28875     -440.08384      15.010063      15.010063      15.010063      0              0              0            
    291000   281.47481     -1198.8129      208.35736     -990.4555      -2133.6651      15.060013      15.060013      15.060013      0              0              0            
    292000   291.08519     -1210.2486      215.4713      -994.77734      1397.4826      14.820827      14.820827      14.820827      0              0              0            
    293000   298.24572     -1202.1356      220.77177     -981.3638       643.32983      14.979613      14.979613      14.979613      0              0              0            
    294000   277.43935     -1187.1775      205.37017     -981.80731     -302.92399      14.997316      14.997316      14.997316      0              0              0            
    295000   332.1131      -1196.2342      245.84157     -950.3926       2787.5519      14.898039      14.898039      14.898039      0              0              0            
    296000   273.57947     -1179.0955      202.51296     -976.58258     -400.8059       15.053961      15.053961      15.053961      0              0              0            
    297000   318.00877     -1200.7689      235.40106     -965.36788      398.91988      14.949969      14.949969      14.949969      0              0              0            
    298000   298.11412     -1173.7682      220.67436     -953.09388     -653.90382      15.024842      15.024842      15.024842      0              0              0            
    299000   305.83524     -1167.8355      226.38979     -941.44574      575.0033       15.082371      15.082371      15.082371      0              0              0            
    300000   331.22696     -1205.5812      245.18562     -960.39556     -752.97892      15.081722      15.081722      15.081722      0              0              0            
    301000   294.38836     -1163.1446      217.91642     -945.22818     -502.55854      15.044449      15.044449      15.044449      0              0              0            
    302000   305.62152     -1238.5046      226.23159     -1012.273       306.51273      14.838615      14.838615      14.838615      0              0              0            
    303000   299.20613     -1208.2466      221.4827      -986.76388      799.75422      14.980373      14.980373      14.980373      0              0              0            
    304000   289.52492     -1208.1646      214.31633     -993.84824     -1963.6165      15.149823      15.149823      15.149823      0              0              0            
    305000   312.16018     -1218.1215      231.07173     -987.04977     -913.64753      15.246374      15.246374      15.246374      0              0              0            
    306000   307.05146     -1211.415       227.29009     -984.12495     -2203.06        15.135666      15.135666      15.135666      0              0              0            
    307000   311.74672     -1217.4094      230.76568     -986.6437      -458.404        15.030427      15.030427      15.030427      0              0              0            
    308000   299.30408     -1213.0221      221.5552      -991.46692     -2379.8933      15.050543      15.050543      15.050543      0              0              0            
    309000   287.68864     -1193.3792      212.95706     -980.42219     -541.41451      14.969586      14.969586      14.969586      0              0              0            
    310000   308.11601     -1182.1828      228.0781      -954.1047       2276.2527      14.908124      14.908124      14.908124      0              0              0            
    311000   295.14619     -1176.1295      218.47739     -957.65208     -307.93641      15.238579      15.238579      15.238579      0              0              0            
    312000   317.65938     -1189.4328      235.14243     -954.29038      2259.8743      14.885508      14.885508      14.885508      0              0              0            
    313000   318.66059     -1208.1314      235.88356     -972.2478      -1931.7894      15.075527      15.075527      15.075527      0              0              0            
    314000   295.38021     -1188.9455      218.65062     -970.2949      -1168.1757      15.290334      15.290334      15.290334      0              0              0            
    315000   306.99946     -1198.8481      227.25159     -971.59649      1451.5473      15.02904       15.02904       15.02904       0              0              0            
    316000   286.00128     -1200.9624      211.70802     -989.2544      -655.18804      15.173283      15.173283      15.173283      0              0              0            
    317000   300.93293     -1204.9978      222.76094     -982.23683      513.08476      15.077489      15.077489      15.077489      0              0              0            
    318000   288.40032     -1186.8791      213.48387     -973.3952      -1139.2264      14.960397      14.960397      14.960397      0              0              0            
    319000   279.5303      -1203.9754      206.91797     -997.0574      -1481.6605      15.168685      15.168685      15.168685      0              0              0            
    320000   307.20689     -1206.9822      227.40514     -979.57705     -2303.1637      15.063443      15.063443      15.063443      0              0              0            
    321000   332.25482     -1220.383       245.94648     -974.43648      704.80466      14.905217      14.905217      14.905217      0              0              0            
    322000   330.03683     -1220.5942      244.30464     -976.28958      3.1687719      15.035765      15.035765      15.035765      0              0              0            
    323000   297.70138     -1216.7877      220.36883     -996.4189       1689.5879      14.946609      14.946609      14.946609      0              0              0            
    324000   284.72168     -1192.862       210.76081     -982.10122     -623.88644      15.132074      15.132074      15.132074      0              0              0            
    325000   303.97645     -1190.1247      225.01385     -965.11087     -277.87024      15.095797      15.095797      15.095797      0              0              0            
    326000   288.93634     -1231.0347      213.88064     -1017.154       383.42074      14.959437      14.959437      14.959437      0              0              0            
    327000   301.97314     -1191.6898      223.53093     -968.15891     -569.83107      14.912865      14.912865      14.912865      0              0              0            
    328000   309.12655     -1192.0127      228.82613     -963.18657      1327.4698      15.047952      15.047952      15.047952      0              0              0            
    329000   285.6409      -1207.0845      211.44125     -995.64323      2828.3619      14.879572      14.879572      14.879572      0              0              0            
    330000   317.75739     -1214.5003      235.21498     -979.28528      349.15117      14.874055      14.874055      14.874055      0              0              0            
    331000   313.69984     -1195.8076      232.21145     -963.5962       32.60722       14.950532      14.950532      14.950532      0              0              0            
    332000   315.2943      -1169.9335      233.39172     -936.5418      -619.05086      14.949543      14.949543      14.949543      0              0              0            
    333000   286.15983     -1218.1274      211.82538     -1006.302       1272.6219      14.815701      14.815701      14.815701      0              0              0            
    334000   278.90765     -1165.68        206.45706     -959.22289     -2110.8504      15.333758      15.333758      15.333758      0              0              0            
    335000   290.29227     -1208.7064      214.88435     -993.82205      1405.0337      15.047047      15.047047      15.047047      0              0              0            
    336000   291.31303     -1191.0734      215.63995     -975.43342     -1103.4601      15.074953      15.074953      15.074953      0              0              0            
    337000   304.73005     -1158.5923      225.5717      -933.02064     -142.10772      15.093906      15.093906      15.093906      0              0              0            
    338000   289.10005     -1212.1547      214.00183     -998.15289      20.344445      15.008073      15.008073      15.008073      0              0              0            
    339000   318.67128     -1191.1089      235.89148     -955.21745      176.18317      14.990579      14.990579      14.990579      0              0              0            
    340000   297.26673     -1223.3192      220.04709     -1003.2721      780.79296      14.840788      14.840788      14.840788      0              0              0            
    341000   274.35892     -1215.3021      203.08993     -1012.2122     -1076.5943      15.03169       15.03169       15.03169       0              0              0            
    342000   294.99099     -1190.6644      218.3625      -972.30192     -510.10051      15.347617      15.347617      15.347617      0              0              0            
    343000   317.74537     -1198.7636      235.20608     -963.55756      1682.0488      14.772917      14.772917      14.772917      0              0              0            
    344000   295.3085      -1232.2993      218.59754     -1013.7017      181.43878      14.880137      14.880137      14.880137      0              0              0            
    345000   293.55386     -1198.4993      217.29869     -981.20064     -437.75775      15.0154        15.0154        15.0154        0              0              0            
    346000   297.27503     -1232.5532      220.05323     -1012.5        -198.30199      15.170187      15.170187      15.170187      0              0              0            
    347000   332.30003     -1229.2096      245.97995     -983.22966      2191.8324      14.853706      14.853706      14.853706      0              0              0            
    348000   285.19668     -1229.0331      211.11242     -1017.9207     -826.75065      14.788004      14.788004      14.788004      0              0              0            
    349000   296.33994     -1209.7257      219.36105     -990.36469     -619.69483      14.880554      14.880554      14.880554      0              0              0            
    350000   291.67423     -1225.1393      215.90733     -1009.232       76.4974        14.861926      14.861926      14.861926      0              0              0            
    351000   300.08392     -1220.8301      222.13247     -998.69762     -1205.3276      15.009108      15.009108      15.009108      0              0              0            
    352000   289.44412     -1226.8697      214.25652     -1012.6131     -535.40647      14.789642      14.789642      14.789642      0              0              0            
    353000   326.72802     -1184.8065      241.85535     -942.95114     -535.5622       15.31131       15.31131       15.31131       0              0              0            
    354000   290.25755     -1187.5596      214.85865     -972.70095      365.99089      15.208918      15.208918      15.208918      0              0              0            
    355000   343.5197      -1203.9643      254.28513     -949.67916     -104.96273      14.951971      14.951971      14.951971      0              0              0            
    356000   314.11063     -1216.2677      232.51553     -983.7522      -100.59718      15.135908      15.135908      15.135908      0              0              0            
    357000   333.988       -1199.8373      247.22944     -952.6079       1102.9916      15.192174      15.192174      15.192174      0              0              0            
    358000   309.33941     -1215.3073      228.9837      -986.32359     -436.72717      15.133499      15.133499      15.133499      0              0              0            
    359000   311.98747     -1217.5298      230.94389     -986.5859      -714.44014      14.90245       14.90245       14.90245       0              0              0            
    360000   297.31984     -1217.2741      220.0864      -997.18772     -251.21801      14.892262      14.892262      14.892262      0              0              0            
    361000   320.50225     -1189.8504      237.24682     -952.60361     -1864.1122      14.72134       14.72134       14.72134       0              0              0            
    362000   294.91576     -1190.7814      218.30682     -972.47457      1781.874       15.047454      15.047454      15.047454      0              0              0            
    363000   279.9198      -1166.6794      207.20629     -959.47315      917.30015      15.246592      15.246592      15.246592      0              0              0            
    364000   308.1265      -1241.1933      228.08586     -1013.1074      2619.2638      14.73965       14.73965       14.73965       0              0              0            
    365000   278.69527     -1203.5144      206.29986     -997.21453     -1162.7788      15.077546      15.077546      15.077546      0              0              0            
    366000   319.50802     -1196.8178      236.51086     -960.30698      1679.4847      14.758872      14.758872      14.758872      0              0              0            
    367000   316.4663      -1198.2495      234.25927     -963.99027     -1020.021       15.246139      15.246139      15.246139      0              0              0            
    368000   286.08691     -1219.7773      211.7714      -1008.0059      85.17429       14.744978      14.744978      14.744978      0              0              0            
    369000   296.31501     -1229.2899      219.34259     -1009.9473     -118.22733      14.832678      14.832678      14.832678      0              0              0            
    370000   313.73143     -1193.9719      232.23482     -961.73703     -634.0876       14.971928      14.971928      14.971928      0              0              0            
    371000   304.16795     -1201.7317      225.15561     -976.5761      -277.32867      15.057411      15.057411      15.057411      0              0              0            
    372000   310.06596     -1208.3409      229.52152     -978.81934      2478.2751      14.988273      14.988273      14.988273      0              0              0            
    373000   303.00053     -1200.5369      224.29145     -976.24546      1118.7938      15.079773      15.079773      15.079773      0              0              0            
    374000   297.06498     -1183.211       219.89774     -963.3133      -771.46647      14.966997      14.966997      14.966997      0              0              0            
    375000   290.17022     -1181.0881      214.79401     -966.29414      1972.2755      14.814085      14.814085      14.814085      0              0              0            
    376000   285.92282     -1199.1813      211.64993     -987.53133      428.08829      15.16483       15.16483       15.16483       0              0              0            
    377000   291.10925     -1208.7039      215.48911     -993.21478     -2018.4703      14.982308      14.982308      14.982308      0              0              0            
    378000   307.30555     -1169.2646      227.47817     -941.78642     -2197.7318      15.370249      15.370249      15.370249      0              0              0            
    379000   303.71312     -1184.9366      224.81893     -960.11768     -958.48737      15.187701      15.187701      15.187701      0              0              0            
    380000   264.66672     -1237.7         195.91543     -1041.7846      1036.9174      14.885671      14.885671      14.885671      0              0              0            
    381000   264.12639     -1212.2029      195.51547     -1016.6874      334.45797      14.876407      14.876407      14.876407      0              0              0            
    382000   310.60369     -1216.8535      229.91957     -986.93398      4069.8503      14.537016      14.537016      14.537016      0              0              0            
    383000   299.76581     -1201.2849      221.89699     -979.38792     -423.36649      14.859354      14.859354      14.859354      0              0              0            
    384000   317.39742     -1205.9289      234.94852     -970.98038      403.82601      15.059076      15.059076      15.059076      0              0              0            
    385000   329.34959     -1206.9897      243.79592     -963.19377      1410.4517      14.917586      14.917586      14.917586      0              0              0            
    386000   311.19143     -1161.2896      230.35463     -930.93497     -639.98932      15.181799      15.181799      15.181799      0              0              0            
    387000   285.66982     -1202.7072      211.46266     -991.24453     -569.2866       15.086439      15.086439      15.086439      0              0              0            
    388000   294.21062     -1192.1423      217.78485     -974.35748     -1237.9161      15.099206      15.099206      15.099206      0              0              0            
    389000   257.73029     -1209.8806      190.78085     -1019.0998     -22.148504      15.114569      15.114569      15.114569      0              0              0            
    390000   317.23299     -1195.0993      234.8268      -960.2725       1325.1835      14.846459      14.846459      14.846459      0              0              0            
    391000   284.18506     -1212.6629      210.36359     -1002.2993     -744.25691      14.811717      14.811717      14.811717      0              0              0            
    392000   281.0677      -1209.3139      208.05601     -1001.2579     -1854.8001      14.868315      14.868315      14.868315      0              0              0            
    393000   280.15891     -1168.0385      207.38329     -960.65521      1257.0468      14.832928      14.832928      14.832928      0              0              0            
    394000   292.62667     -1215.1953      216.61236     -998.58295      276.53695      14.82212       14.82212       14.82212       0              0              0            
    395000   302.93754     -1242.806       224.24482     -1018.5612      170.89057      15.089268      15.089268      15.089268      0              0              0            
    396000   298.85178     -1210.5889      221.2204      -989.36853     -1128.0533      14.98405       14.98405       14.98405       0              0              0            
    397000   312.44625     -1191.5311      231.28349     -960.24766      601.98882      15.00317       15.00317       15.00317       0              0              0            
    398000   292.41879     -1215.5296      216.45847     -999.07117     -174.34469      14.910077      14.910077      14.910077      0              0              0            
    399000   282.31027     -1173.6422      208.9758      -964.66645     -643.56544      15.101596      15.101596      15.101596      0              0              0            
    400000   287.12859     -1207.0507      212.54249     -994.50824      2977.1089      14.943993      14.943993      14.943993      0              0              0            
    401000   303.38407     -1181.5004      224.57536     -956.92507     -428.14592      15.113827      15.113827      15.113827      0              0              0            
    402000   312.18405     -1199.5663      231.08941     -968.47687     -473.07911      14.977466      14.977466      14.977466      0              0              0            
    403000   271.70337     -1169.2807      201.12421     -968.15654     -1999.7516      14.99892       14.99892       14.99892       0              0              0            
    404000   314.12278     -1207.6604      232.52452     -975.1359       1594.079       14.777461      14.777461      14.777461      0              0              0            
    405000   313.34188     -1184.9436      231.94647     -952.9971       354.79203      15.09804       15.09804       15.09804       0              0              0            
    406000   292.82323     -1217.5546      216.75785     -1000.7967     -621.19241      14.789366      14.789366      14.789366      0              0              0            
    407000   286.47749     -1223.6719      212.06052     -1011.6113      535.61032      14.978662      14.978662      14.978662      0              0              0            
    408000   305.50713     -1218.2064      226.14692     -992.05952      4050.9338      14.932648      14.932648      14.932648      0              0              0            
    409000   295.94748     -1187.592       219.07054     -968.52144      1188.6087      14.998156      14.998156      14.998156      0              0              0            
    410000   280.44034     -1221.9512      207.59162     -1014.3596     -1432.3037      15.001171      15.001171      15.001171      0              0              0            
    411000   292.38995     -1201.6041      216.43713     -985.167        1456.6017      14.948957      14.948957      14.948957      0              0              0            
    412000   302.45        -1187.4956      223.88393     -963.61172     -1123.9897      15.36962       15.36962       15.36962       0              0              0            
    413000   312.56754     -1187.5389      231.37327     -956.16563     -765.36853      14.951938      14.951938      14.951938      0              0              0            
    414000   311.29281     -1210.0162      230.42968     -979.58653      188.03012      14.973624      14.973624      14.973624      0              0              0            
    415000   315.94908     -1221.4578      233.87641     -987.5814       1325.9847      14.665777      14.665777      14.665777      0              0              0            
    416000   278.44698     -1215.2388      206.11606     -1009.1227      1129.0965      15.016808      15.016808      15.016808      0              0              0            
    417000   315.52158     -1221.3231      233.55995     -987.76316      2482.023       14.636391      14.636391      14.636391      0              0              0            
    418000   293.60367     -1211.2934      217.33557     -993.95785     -292.59691      15.026325      15.026325      15.026325      0              0              0            
    419000   301.89016     -1205.9413      223.46951     -982.47175      1566.6895      14.823262      14.823262      14.823262      0              0              0            
    420000   306.85444     -1197.0698      227.14424     -969.92551      14.585285      14.745051      14.745051      14.745051      0              0              0            
    421000   311.58299     -1206.5388      230.64448     -975.89432     -268.60055      14.902204      14.902204      14.902204      0              0              0            
    422000   298.83401     -1206.8972      221.20724     -985.68998      215.48339      15.169102      15.169102      15.169102      0              0              0            
    423000   284.56224     -1223.1186      210.64279     -1012.4758     -2195.1195      15.012683      15.012683      15.012683      0              0              0            
    424000   304.24853     -1176.3441      225.21526     -951.12884      624.76824      15.01216       15.01216       15.01216       0              0              0            
    425000   304.02327     -1229.7368      225.04851     -1004.6883      822.28763      14.876247      14.876247      14.876247      0              0              0            
    426000   285.0115      -1195.9808      210.97534     -985.00548      2003.5598      14.952225      14.952225      14.952225      0              0              0            
    427000   297.7452      -1189.696       220.40127     -969.29476      411.13097      14.993317      14.993317      14.993317      0              0              0            
    428000   321.43631     -1179.2566      237.93825     -941.31833      727.5129       15.192272      15.192272      15.192272      0              0              0            
    429000   268.33171     -1169.7286      198.62839     -971.10019      890.70195      15.041574      15.041574      15.041574      0              0              0            
    430000   301.59972     -1201.4177      223.25452     -978.16322     -1609.1107      15.189811      15.189811      15.189811      0              0              0            
    431000   281.84634     -1193.9336      208.63239     -985.30126     -181.18623      15.024074      15.024074      15.024074      0              0              0            
    432000   321.65489     -1199.6573      238.10004     -961.5573      -671.38735      15.094715      15.094715      15.094715      0              0              0            
    433000   322.23199     -1213.0487      238.52724     -974.52142     -478.69669      14.846701      14.846701      14.846701      0              0              0            
    434000   293.55187     -1181.9048      217.29722     -964.60761      1398.6577      14.947839      14.947839      14.947839      0              0              0            
    435000   276.65633     -1187.4052      204.79056     -982.61468      719.39433      15.007349      15.007349      15.007349      0              0              0            
    436000   290.59108     -1199.0649      215.10554     -983.95932     -73.001149      15.011033      15.011033      15.011033      0              0              0            
    437000   317.63846     -1184.3845      235.12694     -949.25751     -1260.5287      15.33402       15.33402       15.33402       0              0              0            
    438000   300.6004      -1203.2699      222.51479     -980.75515     -1095.0061      15.160356      15.160356      15.160356      0              0              0            
    439000   272.98964     -1197.4342      202.07635     -995.35783      1128.3101      14.848855      14.848855      14.848855      0              0              0            
    440000   261.99122     -1183.9528      193.93494     -990.01785      960.69443      15.028757      15.028757      15.028757      0              0              0            
    441000   304.06824     -1214.3548      225.0818      -989.27303      3196.0316      14.76994       14.76994       14.76994       0              0              0            
    442000   310.00345     -1203.2136      229.47525     -973.73836      929.52294      14.951003      14.951003      14.951003      0              0              0            
    443000   271.47369     -1190.6269      200.95419     -989.67274      1916.9616      15.133913      15.133913      15.133913      0              0              0            
    444000   289.31663     -1173.2326      214.16215     -959.07042      1146.4348      15.252126      15.252126      15.252126      0              0              0            
    445000   296.26685     -1222.5307      219.30694     -1003.2237     -413.05677      14.847017      14.847017      14.847017      0              0              0            
    446000   314.64712     -1166.6105      232.91265     -933.69789     -1416.7697      15.229632      15.229632      15.229632      0              0              0            
    447000   313.82041     -1186.8723      232.30069     -954.57159      622.55482      14.939451      14.939451      14.939451      0              0              0            
    448000   307.61244     -1209.5749      227.70534     -981.8696      -323.0407       15.009521      15.009521      15.009521      0              0              0            
    449000   331.95503     -1201.8648      245.72457     -956.14022      1598.0247      14.943671      14.943671      14.943671      0              0              0            
    450000   317.21273     -1201.0386      234.81181     -966.22682     -1013.9206      14.896798      14.896798      14.896798      0              0              0            
    451000   298.14467     -1190.4039      220.69697     -969.70689      52.697549      15.10203       15.10203       15.10203       0              0              0            
    452000   271.23207     -1217.3913      200.77533     -1016.6159     -7.9845691      15.036503      15.036503      15.036503      0              0              0            
    453000   279.06326     -1204.0494      206.57225     -997.47715      2691.0259      14.800875      14.800875      14.800875      0              0              0            
    454000   338.54172     -1224.4108      250.60026     -973.81055     -620.2112       15.015739      15.015739      15.015739      0              0              0            
    455000   282.2489      -1203.6579      208.93037     -994.72752     -470.95576      15.079005      15.079005      15.079005      0              0              0            
    456000   287.04999     -1223.8884      212.4843      -1011.4041     -136.94621      14.911347      14.911347      14.911347      0              0              0            
    457000   310.31202     -1204.7451      229.70366     -975.04139      2365.4031      14.766773      14.766773      14.766773      0              0              0            
    458000   282.00796     -1217.0877      208.75202     -1008.3356      71.13176       14.836216      14.836216      14.836216      0              0              0            
    459000   293.18688     -1198.2447      217.02704     -981.2177      -568.44238      15.098188      15.098188      15.098188      0              0              0            
    460000   324.63444     -1215.5959      240.30561     -975.29028      540.15999      14.811733      14.811733      14.811733      0              0              0            
    461000   317.99092     -1195.3528      235.38785     -959.96492      2080.6479      15.011439      15.011439      15.011439      0              0              0            
    462000   293.00413     -1199.9675      216.89176     -983.07575     -3068.4926      15.149277      15.149277      15.149277      0              0              0            
    463000   306.69701     -1218.2526      227.02771     -991.22491      703.47536      14.905511      14.905511      14.905511      0              0              0            
    464000   314.67103     -1192.3549      232.93035     -959.42454      1211.927       15.007679      15.007679      15.007679      0              0              0            
    465000   318.55569     -1213.3831      235.80591     -977.5772      -857.7927       14.780991      14.780991      14.780991      0              0              0            
    466000   295.12587     -1210.243       218.46235     -991.78067     -1432.8932      14.953741      14.953741      14.953741      0              0              0            
    467000   301.17412     -1227.7872      222.93947     -1004.8477     -1092.1915      14.839866      14.839866      14.839866      0              0              0            
    468000   304.20212     -1229.3782      225.1809      -1004.1973     -41.825298      14.910391      14.910391      14.910391      0              0              0            
    469000   314.19041     -1184.7753      232.57458     -952.20073     -1012.4681      15.006742      15.006742      15.006742      0              0              0            
    470000   291.75457     -1186.3071      215.9668      -970.34028     -1288.6106      15.2736        15.2736        15.2736        0              0              0            
    471000   302.49589     -1222.3803      223.91789     -998.46238     -118.82992      15.201265      15.201265      15.201265      0              0              0            
    472000   333.2328      -1200.63        246.67041     -953.95957      922.84798      15.084865      15.084865      15.084865      0              0              0            
    473000   277.43051     -1205.2031      205.36364     -999.83948      443.43487      14.942892      14.942892      14.942892      0              0              0            
    474000   269.52057     -1210.063       199.50843     -1010.5546     -925.5138       14.796356      14.796356      14.796356      0              0              0            
    475000   300.30168     -1189.1511      222.29367     -966.8574       1214.151       14.90835       14.90835       14.90835       0              0              0            
    476000   286.89653     -1184.277       212.3707      -971.90634     -1127.3036      15.159989      15.159989      15.159989      0              0              0            
    477000   292.76361     -1201.1429      216.71373     -984.42918     -692.33776      14.687852      14.687852      14.687852      0              0              0            
    478000   276.88469     -1222.3527      204.9596      -1017.3931      1410.0052      14.998341      14.998341      14.998341      0              0              0            
    479000   284.48741     -1226.839       210.5874      -1016.2516      2678.6539      14.690261      14.690261      14.690261      0              0              0            
    480000   318.17852     -1215.268       235.52671     -979.74133      1543.4193      14.869825      14.869825      14.869825      0              0              0            
    481000   314.10802     -1232.1679      232.51359     -999.65429     -538.26279      15.007314      15.007314      15.007314      0              0              0            
    482000   276.90408     -1211.0639      204.97396     -1006.09        189.13334      15.157059      15.157059      15.157059      0              0              0            
    483000   265.22774     -1170.5023      196.33073     -974.17154     -640.36442      15.179469      15.179469      15.179469      0              0              0            
    484000   293.4092      -1183.279       217.19161     -966.08739     -468.97938      14.991776      14.991776      14.991776      0              0              0            
    485000   299.09568     -1192.2099      221.40094     -970.80895     -82.067328      14.848806      14.848806      14.848806      0              0              0            
    486000   291.70486     -1193.549       215.93        -977.61898      1512.0151      15.229545      15.229545      15.229545      0              0              0            
    487000   297.08568     -1178.4484      219.91307     -958.5353      -439.82517      15.245028      15.245028      15.245028      0              0              0            
    488000   290.19041     -1217.3358      214.80895     -1002.5268     -1270.2332      15.178564      15.178564      15.178564      0              0              0            
    489000   274.67964     -1186.3842      203.32735     -983.05682     -1983.1889      15.073595      15.073595      15.073595      0              0              0            
    490000   308.06734     -1191.7631      228.04207     -963.72099     -1126.1101      14.960847      14.960847      14.960847      0              0              0            
    491000   307.66116     -1185.2595      227.7414      -957.51813     -642.19129      15.204136      15.204136      15.204136      0              0              0            
    492000   306.70674     -1214.3765      227.03491     -987.3416       2139.6828      14.951307      14.951307      14.951307      0              0              0            
    493000   288.47485     -1210.8306      213.53903     -997.29159      738.00801      15.017086      15.017086      15.017086      0              0              0            
    494000   268.62268     -1222.8003      198.84377     -1023.9566     -351.99159      14.980452      14.980452      14.980452      0              0              0            
    495000   272.72718     -1212.8171      201.88207     -1010.935       1904.3886      14.883576      14.883576      14.883576      0              0              0            
    496000   282.12565     -1195.6172      208.83914     -986.77802      483.75007      15.005011      15.005011      15.005011      0              0              0            
    497000   313.47001     -1189.9001      232.04132     -957.85882     -2182.5923      15.369046      15.369046      15.369046      0              0              0            
    498000   337.7543      -1203.2032      250.01739     -953.18581      392.2747       15.017961      15.017961      15.017961      0              0              0            
    499000   291.67891     -1226.4505      215.91079     -1010.5397      595.45986      14.918204      14.918204      14.918204      0              0              0            
    500000   311.71701     -1202.193       230.74368     -971.44929     -1196.8727      15.145216      15.145216      15.145216      0              0              0            
    501000   303.49994     -1178.1956      224.66112     -953.53447     -1023.9189      15.090018      15.090018      15.090018      0              0              0            
    502000   263.02455     -1223.812       194.69985     -1029.1122     -1607.5882      14.709456      14.709456      14.709456      0              0              0            
    503000   275.30175     -1221.7368      203.78785     -1017.9489     -107.5435       14.96511       14.96511       14.96511       0              0              0            
    504000   282.56911     -1201.7934      209.16741     -992.62597     -272.23643      15.09222       15.09222       15.09222       0              0              0            
    505000   286.04644     -1198.4186      211.74144     -986.67717     -9.5092157      15.054115      15.054115      15.054115      0              0              0            
    506000   282.3565      -1197.299       209.01002     -988.28898     -201.33478      15.191615      15.191615      15.191615      0              0              0            
    507000   284.76676     -1155.5243      210.79418     -944.73014      1023.2279      15.221455      15.221455      15.221455      0              0              0            
    508000   305.65028     -1201.2588      226.25288     -975.00591     -616.4294       14.877604      14.877604      14.877604      0              0              0            
    509000   293.14445     -1199.9394      216.99564     -982.94372     -1665.5407      14.930992      14.930992      14.930992      0              0              0            
    510000   284.27567     -1158.6301      210.43065     -948.19941      249.73786      15.067602      15.067602      15.067602      0              0              0            
    511000   294.57115     -1185.9859      218.05173     -967.9342       1727.8537      15.21701       15.21701       15.21701       0              0              0            
    512000   313.48625     -1179.2813      232.05334     -947.22799      2157.4794      15.011594      15.011594      15.011594      0              0              0            
    513000   296.31498     -1215.0875      219.34257     -995.74489      1385.7094      14.941075      14.941075      14.941075      0              0              0            
    514000   306.56237     -1223.8036      226.92804     -996.87557     -325.07625      14.858781      14.858781      14.858781      0              0              0            
    515000   302.95023     -1204.7938      224.25421     -980.53955      4.0240159      14.931639      14.931639      14.931639      0              0              0            
    516000   286.32008     -1210.5699      211.944       -998.62592     -1401.8319      15.154558      15.154558      15.154558      0              0              0            
    517000   290.07561     -1159.6501      214.72397     -944.92612      755.6016       15.28451       15.28451       15.28451       0              0              0            
    518000   275.11352     -1184.8356      203.64852     -981.18708     -1822.5437      15.039251      15.039251      15.039251      0              0              0            
    519000   299.16003     -1203.9497      221.44858     -982.50114     -666.57517      15.022643      15.022643      15.022643      0              0              0            
    520000   301.83985     -1209.5644      223.43227     -986.13218     -1169.127       15.211161      15.211161      15.211161      0              0              0            
    521000   327.72026     -1194.97        242.58984     -952.38019     -159.50779      15.09716       15.09716       15.09716       0              0              0            
    522000   298.39794     -1204.8688      220.88445     -983.98437     -886.98142      15.198571      15.198571      15.198571      0              0              0            
    523000   315.66228     -1235.8341      233.66411     -1002.17       -742.57032      14.885592      14.885592      14.885592      0              0              0            
    524000   287.36502     -1215.5821      212.7175      -1002.8646     -1947.6586      14.878074      14.878074      14.878074      0              0              0            
    525000   295.84149     -1204.8638      218.99207     -985.87176      227.36473      14.937534      14.937534      14.937534      0              0              0            
    526000   301.68703     -1196.5398      223.31915     -973.22062     -1787.2066      15.206012      15.206012      15.206012      0              0              0            
    527000   281.54016     -1226.3486      208.40574     -1017.9429      714.00524      14.88729       14.88729       14.88729       0              0              0            
    528000   304.71347     -1231.1884      225.55943     -1005.629       266.93232      15.005207      15.005207      15.005207      0              0              0            
    529000   303.25544     -1187.0719      224.48014     -962.59174      240.33315      15.134255      15.134255      15.134255      0              0              0            
    530000   288.23445     -1209.3594      213.36108     -995.9983      -1343.012       15.145025      15.145025      15.145025      0              0              0            
    531000   338.13213     -1251.8332      250.29707     -1001.5361     -959.29814      14.733489      14.733489      14.733489      0              0              0            
    532000   277.65747     -1217.4624      205.53164     -1011.9307      525.81145      14.861564      14.861564      14.861564      0              0              0            
    533000   313.87523     -1192.8002      232.34127     -960.45897     -275.58151      15.084566      15.084566      15.084566      0              0              0            
    534000   275.97472     -1190.5568      204.28601     -986.2708      -607.89566      15.083661      15.083661      15.083661      0              0              0            
    535000   328.06917     -1200.708       242.84812     -957.85986      39.023903      15.076181      15.076181      15.076181      0              0              0            
    536000   308.33574     -1215.4741      228.24075     -987.23331     -450.97213      14.817641      14.817641      14.817641      0              0              0            
    537000   336.05844     -1154.8657      248.76205     -906.10361      2262.6546      15.254178      15.254178      15.254178      0              0              0            
    538000   330.57735     -1194.3575      244.70475     -949.65279      380.95151      15.011533      15.011533      15.011533      0              0              0            
    539000   304.45958     -1196.7081      225.37148     -971.33661      904.14118      14.87601       14.87601       14.87601       0              0              0            
    540000   310.86267     -1216.5923      230.11127     -986.48107     -1867.6719      14.945686      14.945686      14.945686      0              0              0            
    541000   316.52828     -1190.8336      234.30515     -956.52843      1755.4681      14.819774      14.819774      14.819774      0              0              0            
    542000   304.89897     -1183.084       225.69673     -957.3873      -2498.451       15.125308      15.125308      15.125308      0              0              0            
    543000   311.72566     -1199.7624      230.75009     -969.01232      42.942672      14.978214      14.978214      14.978214      0              0              0            
    544000   310.32829     -1171.1065      229.71571     -941.39076     -1773.0917      15.423654      15.423654      15.423654      0              0              0            
    545000   316.01538     -1162.9359      233.92548     -929.01037     -210.0206       15.202201      15.202201      15.202201      0              0              0            
    546000   282.00108     -1211.7452      208.74693     -1002.9983     -487.20754      15.127827      15.127827      15.127827      0              0              0            
    547000   321.14742     -1177.587       237.7244      -939.86259     -1132.2342      15.171031      15.171031      15.171031      0              0              0            
    548000   296.77219     -1231.3493      219.68101     -1011.6683     -1370.9927      14.940995      14.940995      14.940995      0              0              0            
    549000   322.60972     -1223.9718      238.80684     -985.16491     -2116.842       15.044487      15.044487      15.044487      0              0              0            
    550000   316.57978     -1209.0587      234.34327     -974.71541      1045.9057      15.11589       15.11589       15.11589       0              0              0            
    551000   303.87847     -1222.0175      224.94133     -997.07613      1095.8046      14.777587      14.777587      14.777587      0              0              0            
    552000   353.32176     -1200.6162      261.54095     -939.07521      118.77656      14.894711      14.894711      14.894711      0              0              0            
    553000   294.41132     -1177.4088      217.93341     -959.47539     -1495.2572      15.08292       15.08292       15.08292       0              0              0            
    554000   333.43714     -1197.2761      246.82167     -950.45442      2229.4451      15.06369       15.06369       15.06369       0              0              0            
    555000   303.49395     -1170.044       224.65669     -945.38729     -1011.1284      15.334799      15.334799      15.334799      0              0              0            
    556000   291.14151     -1209.6816      215.51299     -994.16863     -658.18744      15.222197      15.222197      15.222197      0              0              0            
    557000   307.1796      -1162.9652      227.38493     -935.58029      2024.9167      14.906048      14.906048      14.906048      0              0              0            
    558000   302.41108     -1178.6383      223.85511     -954.78322      435.23467      15.154448      15.154448      15.154448      0              0              0            
    559000   291.52908     -1201.0617      215.79988     -985.26186      468.27642      14.999429      14.999429      14.999429      0              0              0            
    560000   299.483       -1216.8757      221.68765     -995.18808     -622.2349       14.810948      14.810948      14.810948      0              0              0            
    561000   307.6044      -1190.5217      227.69939     -962.8223       1849.2844      15.05931       15.05931       15.05931       0              0              0            
    562000   316.55236     -1222.9976      234.32298     -988.67461      81.17016       15.171382      15.171382      15.171382      0              0              0            
    563000   323.02293     -1192.1949      239.11272     -953.08222     -1228.5676      14.927378      14.927378      14.927378      0              0              0            
    564000   292.53559     -1206.3908      216.54493     -989.84589      392.18487      14.918168      14.918168      14.918168      0              0              0            
    565000   289.17375     -1208.8771      214.05638     -994.82076     -1221.3647      14.838305      14.838305      14.838305      0              0              0            
    566000   297.67773     -1209.6799      220.35133     -989.32855      1613.8459      14.820422      14.820422      14.820422      0              0              0            
    567000   294.90748     -1210.7204      218.30069     -992.4197      -1372.2348      14.95827       14.95827       14.95827       0              0              0            
    568000   298.12322     -1221.3801      220.68109     -1000.699      -1282.0126      14.978134      14.978134      14.978134      0              0              0            
    569000   288.56679     -1198.0634      213.60709     -984.45631     -1450.4817      15.039945      15.039945      15.039945      0              0              0            
    570000   304.9203      -1208.6886      225.71252     -982.9761      -474.70184      14.962089      14.962089      14.962089      0              0              0            
    571000   294.67099     -1198.6057      218.12563     -980.48008      1550.0442      15.031445      15.031445      15.031445      0              0              0            
    572000   259.87275     -1185.0257      192.36677     -992.65897      372.57972      14.950458      14.950458      14.950458      0              0              0            
    573000   282.86976     -1205.5219      209.38996     -996.13198      1653.0152      14.750686      14.750686      14.750686      0              0              0            
    574000   293.91122     -1208.4814      217.56322     -990.91813      393.79177      15.00435       15.00435       15.00435       0              0              0            
    575000   294.54408     -1202.6536      218.03169     -984.62195      755.90269      15.247591      15.247591      15.247591      0              0              0            
    576000   311.94193     -1184.9939      230.91018     -954.08369     -1345.8319      15.080814      15.080814      15.080814      0              0              0            
    577000   291.83328     -1221.5235      216.02506     -1005.4984     -767.93653      14.942289      14.942289      14.942289      0              0              0            
    578000   293.28843     -1181.8715      217.10222     -964.76929     -669.36191      15.11578       15.11578       15.11578       0              0              0            
    579000   290.4935      -1223.4478      215.03331     -1008.4145      874.58616      14.949448      14.949448      14.949448      0              0              0            
    580000   302.99653     -1193.4223      224.28849     -969.13384     -534.85767      15.252125      15.252125      15.252125      0              0              0            
    581000   305.19335     -1195.6761      225.91465     -969.7615       560.58393      14.908628      14.908628      14.908628      0              0              0            
    582000   310.19742     -1183.3472      229.61883     -953.72838     -640.64872      15.136329      15.136329      15.136329      0              0              0            
    583000   299.48761     -1170.2388      221.69106     -948.54778      95.534273      14.992914      14.992914      14.992914      0              0              0            
    584000   282.24127     -1195.2191      208.92472     -986.29436     -1429.6303      14.760467      14.760467      14.760467      0              0              0            
    585000   278.6748      -1176.2648      206.2847      -969.98009     -110.39227      14.784989      14.784989      14.784989      0              0              0            
    586000   293.97389     -1186.9677      217.60961     -969.35805     -2535.4568      15.149079      15.149079      15.149079      0              0              0            
    587000   353.89031     -1230.7735      261.96181     -968.81171      355.13323      14.794951      14.794951      14.794951      0              0              0            
    588000   294.37379     -1175.2169      217.90564     -957.31126      1155.4614      14.866152      14.866152      14.866152      0              0              0            
    589000   308.98908     -1179.7648      228.72437     -951.04039     -864.58298      14.807666      14.807666      14.807666      0              0              0            
    590000   309.70705     -1184.8231      229.25584     -955.56726     -1676.6921      15.1406        15.1406        15.1406        0              0              0            
    591000   286.03691     -1204.3274      211.73439     -992.59306     -436.24688      15.17488       15.17488       15.17488       0              0              0            
    592000   293.44389     -1187.0681      217.21729     -969.85085     -1059.7232      14.983743      14.983743      14.983743      0              0              0            
    593000   309.08387     -1217.1599      228.79454     -988.36532     -853.4618       15.043099      15.043099      15.043099      0              0              0            
    594000   274.40736     -1223.0525      203.12579     -1019.9268     -1060.0551      15.021567      15.021567      15.021567      0              0              0            
    595000   317.342       -1208.0225      234.9075      -973.11505      478.56048      15.059666      15.059666      15.059666      0              0              0            
    596000   297.18143     -1195.4844      219.98394     -975.50047      1124.6168      14.763168      14.763168      14.763168      0              0              0            
    597000   283.14399     -1203.2474      209.59295     -993.65441     -1328.5367      15.335587      15.335587      15.335587      0              0              0            
    598000   310.58725     -1189.3808      229.90739     -959.47342     -243.66172      15.139372      15.139372      15.139372      0              0              0            
    599000   291.26396     -1198.3339      215.60363     -982.73023      800.75233      14.927605      14.927605      14.927605      0              0              0            
    600000   313.60228     -1218.2983      232.13923     -986.15906     -284.06506      14.839722      14.839722      14.839722      0              0              0            
    601000   305.94634     -1224.697       226.47203     -998.22493     -232.88787      15.02235       15.02235       15.02235       0              0              0            
    602000   280.35777     -1212.3119      207.53049     -1004.7814      395.99835      15.035985      15.035985      15.035985      0              0              0            
    603000   313.0594      -1209.3565      231.73737     -977.61913      2781.8708      14.799994      14.799994      14.799994      0              0              0            
    604000   323.25955     -1212.5021      239.28787     -973.21425     -833.41332      15.087486      15.087486      15.087486      0              0              0            
    605000   274.93565     -1191.6576      203.51685     -988.14078     -86.237892      15.226509      15.226509      15.226509      0              0              0            
    606000   288.68084     -1171.0628      213.69151     -957.37125      1917.4998      14.950081      14.950081      14.950081      0              0              0            
    607000   298.40858     -1184.7074      220.89233     -963.81507      213.18031      15.335802      15.335802      15.335802      0              0              0            
    608000   298.72238     -1187.3972      221.12461     -966.27261     -385.87416      15.105497      15.105497      15.105497      0              0              0            
    609000   302.59099     -1182.1828      223.98829     -958.19456     -62.635774      15.303911      15.303911      15.303911      0              0              0            
    610000   281.31071     -1221.3361      208.23589     -1013.1002     -596.42255      14.963671      14.963671      14.963671      0              0              0            
    611000   309.37053     -1234.5875      229.00674     -1005.5808     -632.59205      15.00115       15.00115       15.00115       0              0              0            
    612000   321.79003     -1228.5981      238.20008     -990.39802      1328.6597      14.842812      14.842812      14.842812      0              0              0            
    613000   297.79679     -1207.4562      220.43946     -987.01677      1185.3398      15.017264      15.017264      15.017264      0              0              0            
    614000   341.74797     -1239.121       252.97364     -986.14732      156.68803      14.719104      14.719104      14.719104      0              0              0            
    615000   321.67649     -1207.8255      238.11603     -969.70951      329.90136      15.099277      15.099277      15.099277      0              0              0            
    616000   314.06029     -1219.1234      232.47826     -986.64518      1286.1189      15.072661      15.072661      15.072661      0              0              0            
    617000   280.35129     -1196.1533      207.5257      -988.62757      2481.1255      14.948582      14.948582      14.948582      0              0              0            
    618000   302.77082     -1205.6014      224.1214      -981.48         811.59374      14.790404      14.790404      14.790404      0              0              0            
    619000   331.1026      -1195.5631      245.09357     -950.46957      2723.6126      14.915503      14.915503      14.915503      0              0              0            
    620000   305.4745      -1193.3001      226.12276     -967.17735      1773.728       14.631976      14.631976      14.631976      0              0              0            
    621000   299.71538     -1210.9527      221.85966     -989.09306     -571.85186      14.858232      14.858232      14.858232      0              0              0            
    622000   312.89407     -1164.6356      231.61498     -933.02065      134.70272      15.10867       15.10867       15.10867       0              0              0            
    623000   294.3495      -1205.1745      217.88765     -987.28687     -1970.3963      15.100682      15.100682      15.100682      0              0              0            
    624000   321.83349     -1217.158       238.23225     -978.92572     -124.66069      14.990825      14.990825      14.990825      0              0              0            
    625000   298.51413     -1175.5084      220.97046     -954.53792     -724.63874      15.082294      15.082294      15.082294      0              0              0            
    626000   274.4837      -1188.9237      203.1823      -985.74136      491.82338      15.108         15.108         15.108         0              0              0            
    627000   271.96731     -1217.6775      201.31958     -1016.358       839.82365      14.882153      14.882153      14.882153      0              0              0            
    628000   291.8689      -1217.4949      216.05143     -1001.4435     -1490.5         14.942148      14.942148      14.942148      0              0              0            
    629000   318.51879     -1219.6916      235.77859     -983.91299     -1385.1916      14.936849      14.936849      14.936849      0              0              0            
    630000   302.13362     -1197.4235      223.64973     -973.77379      2171.4649      14.83925       14.83925       14.83925       0              0              0            
    631000   292.3534      -1185.1986      216.41007     -968.78857      712.30335      14.919489      14.919489      14.919489      0              0              0            
    632000   297.11986     -1239.5182      219.93837     -1019.5799      112.52462      14.823912      14.823912      14.823912      0              0              0            
    633000   291.5245      -1222.926       215.79649     -1007.1295     -1853.899       14.983417      14.983417      14.983417      0              0              0            
    634000   305.73879     -1169.7069      226.3184      -943.38852      1848.3992      14.977482      14.977482      14.977482      0              0              0            
    635000   319.31575     -1213.0365      236.36853     -976.66797      1345.592       15.039557      15.039557      15.039557      0              0              0            
    636000   286.37075     -1190.384       211.98151     -978.40249     -1427.0873      15.251142      15.251142      15.251142      0              0              0            
    637000   301.69955     -1211.3585      223.32842     -988.03013     -892.23384      14.859903      14.859903      14.859903      0              0              0            
    638000   288.63981     -1213.1766      213.66114     -999.51542      1622.0568      14.93978       14.93978       14.93978       0              0              0            
    639000   276.83011     -1195.4345      204.9192      -990.51531     -1491.512       15.205143      15.205143      15.205143      0              0              0            
    640000   302.87954     -1200.6329      224.20188     -976.43102     -239.1532       14.782414      14.782414      14.782414      0              0              0            
    641000   318.75773     -1198.115       235.95547     -962.15956     -1426.3709      15.053197      15.053197      15.053197      0              0              0            
    642000   307.35798     -1213.4976      227.51698     -985.98065     -1568.0846      15.093813      15.093813      15.093813      0              0              0            
    643000   318.15134     -1172.0402      235.50659     -936.53357     -1233.3428      15.073521      15.073521      15.073521      0              0              0            
    644000   305.19574     -1180.5523      225.91642     -954.63588     -759.58328      14.867644      14.867644      14.867644      0              0              0            
    645000   291.14517     -1235.1474      215.5157      -1019.6317     -219.35069      14.885194      14.885194      14.885194      0              0              0            
    646000   300.52121     -1194.3084      222.45617     -971.85221     -1297.6772      15.131097      15.131097      15.131097      0              0              0            
    647000   315.17376     -1200.8335      233.30249     -967.53104      531.34885      15.113594      15.113594      15.113594      0              0              0            
    648000   301.11852     -1220.643       222.89831     -997.74465     -66.198505      14.91141       14.91141       14.91141       0              0              0            
    649000   307.0116      -1187.389       227.26058     -960.12847     -540.02297      15.022946      15.022946      15.022946      0              0              0            
    650000   341.51681     -1188.232       252.80252     -935.42952      1528.8566      14.992444      14.992444      14.992444      0              0              0            
    651000   299.71521     -1200.2771      221.85954     -978.41751     -96.337605      15.138023      15.138023      15.138023      0              0              0            
    652000   319.98916     -1201.1697      236.86701     -964.30272      365.68571      14.947149      14.947149      14.947149      0              0              0            
    653000   305.66919     -1173.497       226.26688     -947.2301      -1010.4868      15.04384       15.04384       15.04384       0              0              0            
    654000   281.98021     -1203.4723      208.73148     -994.74085      3737.8858      14.724701      14.724701      14.724701      0              0              0            
    655000   301.7839      -1186.8284      223.39086     -963.4375      -2375.5126      15.242699      15.242699      15.242699      0              0              0            
    656000   314.92249     -1194.9938      233.11649     -961.87727     -1134.0739      15.083358      15.083358      15.083358      0              0              0            
    657000   296.68334     -1197.5938      219.61524     -977.9786       1437.2139      15.051372      15.051372      15.051372      0              0              0            
    658000   264.44036     -1191.5548      195.74787     -995.80693     -1157.4213      15.093206      15.093206      15.093206      0              0              0            
    659000   292.6954      -1196.8713      216.66323     -980.20803     -1111.6853      14.981596      14.981596      14.981596      0              0              0            
    660000   307.84308     -1207.2792      227.87607     -979.40318      787.12738      14.959749      14.959749      14.959749      0              0              0            
    661000   295.73397     -1206.7839      218.91249     -987.87138     -3598.5714      15.055679      15.055679      15.055679      0              0              0            
    662000   292.78806     -1190.9611      216.73182     -974.22928      460.02114      14.877405      14.877405      14.877405      0              0              0            
    663000   308.74269     -1205.3256      228.54199     -976.7836       1541.947       14.79763       14.79763       14.79763       0              0              0            
    664000   283.78612     -1201.626       210.06828     -991.55777     -839.15502      15.094595      15.094595      15.094595      0              0              0            
    665000   314.72963     -1214.138       232.97373     -981.16429     -1142.6004      15.15792       15.15792       15.15792       0              0              0            
    666000   287.23009     -1176.5105      212.61762     -963.89283     -530.66772      15.200486      15.200486      15.200486      0              0              0            
    667000   289.83777     -1185.7463      214.54792     -971.19834      1176.5694      14.987646      14.987646      14.987646      0              0              0            
    668000   264.46382     -1189.1384      195.76524     -993.3732       88.53906       15.22126       15.22126       15.22126       0              0              0            
    669000   297.30227     -1211.393       220.07339     -991.31959      397.88257      14.868302      14.868302      14.868302      0              0              0            
    670000   342.82844     -1228.9381      253.77343     -975.16468     -202.54345      14.72751       14.72751       14.72751       0              0              0            
    671000   300.67723     -1199.6656      222.57166     -977.09397     -803.60725      14.919762      14.919762      14.919762      0              0              0            
    672000   294.57486     -1193.3745      218.05447     -975.32005     -512.89679      15.057564      15.057564      15.057564      0              0              0            
    673000   318.1717      -1182.5041      235.52167     -946.98244      1125.5434      14.999617      14.999617      14.999617      0              0              0            
    674000   303.63265     -1205.9238      224.75936     -981.16441     -1676.1958      14.924179      14.924179      14.924179      0              0              0            
    675000   277.25561     -1189.0652      205.23417     -983.83101     -1068.3582      14.948596      14.948596      14.948596      0              0              0            
    676000   290.52562     -1237.653       215.05709     -1022.5959     -338.90432      14.823318      14.823318      14.823318      0              0              0            
    677000   310.09363     -1185.2609      229.54201     -955.71889     -1938.5891      15.322949      15.322949      15.322949      0              0              0            
    678000   288.51891     -1210.6169      213.57165     -997.04524      531.22969      14.913766      14.913766      14.913766      0              0              0            
    679000   296.9364      -1220.7242      219.80257     -1000.9216     -1871.1232      14.945417      14.945417      14.945417      0              0              0            
    680000   342.62176     -1228.7343      253.62045     -975.11388      560.7036       14.793227      14.793227      14.793227      0              0              0            
    681000   302.61602     -1187.7178      224.00682     -963.71097      166.31882      15.045341      15.045341      15.045341      0              0              0            
    682000   325.40185     -1203.6808      240.87367     -962.80711     -1429.2532      14.911558      14.911558      14.911558      0              0              0            
    683000   286.74299     -1203.651       212.25705     -991.39399     -1120.5743      15.014488      15.014488      15.014488      0              0              0            
    684000   298.00299     -1215.9182      220.59209     -995.32607      242.00337      14.979704      14.979704      14.979704      0              0              0            
    685000   344.47315     -1212.3496      254.99091     -957.35866      959.77949      14.928964      14.928964      14.928964      0              0              0            
    686000   332.27175     -1213.2208      245.95901     -967.26179     -391.99146      14.984087      14.984087      14.984087      0              0              0            
    687000   336.04381     -1212.7379      248.75122     -963.98669      2764.9303      15.060848      15.060848      15.060848      0              0              0            
    688000   311.39582     -1223.269       230.50593     -992.76306     -1369.4353      15.042949      15.042949      15.042949      0              0              0            
    689000   265.93575     -1208.2259      196.85481     -1011.3711     -963.33485      14.968345      14.968345      14.968345      0              0              0            
    690000   290.49235     -1221.3041      215.03246     -1006.2717      93.727774      14.763285      14.763285      14.763285      0              0              0            
    691000   291.65778     -1207.8724      215.89515     -991.9772       747.50683      15.142863      15.142863      15.142863      0              0              0            
    692000   288.69275     -1209.5124      213.70033     -995.81203      77.090533      14.947845      14.947845      14.947845      0              0              0            
    693000   299.16671     -1223.0545      221.45352     -1001.601      -822.22034      14.977563      14.977563      14.977563      0              0              0            
    694000   293.22348     -1226.7661      217.05414     -1009.712       1385.1066      15.15429       15.15429       15.15429       0              0              0            
    695000   317.53492     -1205.8283      235.0503      -970.77796     -200.46938      15.149215      15.149215      15.149215      0              0              0            
    696000   312.68148     -1195.7109      231.45762     -964.25331     -1712.6588      15.287306      15.287306      15.287306      0              0              0            
    697000   299.39691     -1190.0788      221.62392     -968.45484      1934.2845      14.848807      14.848807      14.848807      0              0              0            
    698000   301.46275     -1194.1523      223.15313     -970.99914      1041.5938      14.778536      14.778536      14.778536      0              0              0            
    699000   295.93734     -1170.4024      219.06303     -951.33936      41.795336      15.019188      15.019188      15.019188      0              0              0            
    700000   302.59455     -1180.9013      223.99092     -956.9104      -796.44023      15.275505      15.275505      15.275505      0              0              0            
    701000   312.8603      -1204.8054      231.58999     -973.21541     -455.92693      14.898572      14.898572      14.898572      0              0              0            
    702000   318.08221     -1218.8105      235.45542     -983.35504      1136.8256      14.905511      14.905511      14.905511      0              0              0            
    703000   296.87162     -1227.2061      219.75461     -1007.4514      636.86775      14.938383      14.938383      14.938383      0              0              0            
    704000   287.18536     -1214.6427      212.58451     -1002.0582      121.38709      14.943736      14.943736      14.943736      0              0              0            
    705000   295.86595     -1189.4525      219.01018     -970.4423       2328.8444      14.882062      14.882062      14.882062      0              0              0            
    706000   308.29885     -1189.2192      228.21344     -961.00581     -434.46721      15.147722      15.147722      15.147722      0              0              0            
    707000   327.17079     -1219.182       242.1831      -976.9989      -908.50704      15.135371      15.135371      15.135371      0              0              0            
    708000   303.27917     -1169.2241      224.4977      -944.72638      1156.347       15.186373      15.186373      15.186373      0              0              0            
    709000   311.91675     -1231.2787      230.89154     -1000.3872     -733.52258      15.107255      15.107255      15.107255      0              0              0            
    710000   316.71149     -1218.6599      234.44077     -984.21916     -970.8017       14.964023      14.964023      14.964023      0              0              0            
    711000   307.57396     -1221.6936      227.67685     -994.0168      -1111.3933      14.632502      14.632502      14.632502      0              0              0            
    712000   263.45438     -1167.0379      195.01802     -972.01989     -143.77708      15.053347      15.053347      15.053347      0              0              0            
    713000   319.29676     -1198.1172      236.35448     -961.76274     -1019.1792      15.284549      15.284549      15.284549      0              0              0            
    714000   319.53361     -1209.2992      236.5298      -972.76941      176.52254      15.005434      15.005434      15.005434      0              0              0            
    715000   290.06122     -1203.5327      214.71332     -988.81936      2189.5548      14.869207      14.869207      14.869207      0              0              0            
    716000   286.86204     -1202.5122      212.34518     -990.16703     -2660.4023      15.131088      15.131088      15.131088      0              0              0            
    717000   315.85584     -1202.6085      233.80739     -968.80114      444.05213      14.783933      14.783933      14.783933      0              0              0            
    718000   293.79043     -1192.3853      217.47381     -974.91146     -102.28195      15.166355      15.166355      15.166355      0              0              0            
    719000   301.76625     -1191.4357      223.37779     -968.05791      256.68163      15.279659      15.279659      15.279659      0              0              0            
    720000   319.8256      -1211.3851      236.74594     -974.6392       1465.0004      15.064354      15.064354      15.064354      0              0              0            
    721000   328.67597     -1188.7097      243.29729     -945.4124      -1150.5425      15.077656      15.077656      15.077656      0              0              0            
    722000   267.20095     -1171.5923      197.79136     -973.80095      233.35172      15.202341      15.202341      15.202341      0              0              0            
    723000   292.46369     -1217.6065      216.49171     -1001.1148     -307.45762      15.054931      15.054931      15.054931      0              0              0            
    724000   286.99371     -1205.3748      212.44265     -992.9322       534.24685      14.908224      14.908224      14.908224      0              0              0            
    725000   302.04664     -1209.3123      223.58534     -985.72699     -1129.5202      15.035335      15.035335      15.035335      0              0              0            
    726000   322.70696     -1228.6878      238.87882     -989.80893      1795.7819      14.750873      14.750873      14.750873      0              0              0            
    727000   303.68169     -1226.707       224.79566     -1001.9113      1544.0322      14.581425      14.581425      14.581425      0              0              0            
    728000   286.88748     -1179.7067      212.36401     -967.34269     -1609.6546      15.038155      15.038155      15.038155      0              0              0            
    729000   313.97958     -1225.8839      232.41852     -993.46541      455.55713      15.133473      15.133473      15.133473      0              0              0            
    730000   313.1595      -1197.101       231.81147     -965.28952     -348.4468       15.112607      15.112607      15.112607      0              0              0            
    731000   292.10787     -1203.6543      216.22832     -987.42601     -406.53462      14.961568      14.961568      14.961568      0              0              0            
    732000   277.11388     -1210.725       205.12925     -1005.5957     -1064.1846      14.963095      14.963095      14.963095      0              0              0            
    733000   314.07493     -1192.0898      232.4891      -959.60073     -938.87054      15.011917      15.011917      15.011917      0              0              0            
    734000   327.51943     -1221.0175      242.44118     -978.5763      -468.21333      15.060387      15.060387      15.060387      0              0              0            
    735000   339.31705     -1218.7673      251.17419     -967.59314     -481.9106       15.02558       15.02558       15.02558       0              0              0            
    736000   297.03603     -1216.3106      219.87632     -996.43427     -2122.2595      14.861865      14.861865      14.861865      0              0              0            
    737000   294.92256     -1230.2451      218.31185     -1011.9333     -741.84488      14.835614      14.835614      14.835614      0              0              0            
    738000   288.07954     -1209.0748      213.24641     -995.82837      278.65506      15.144332      15.144332      15.144332      0              0              0            
    739000   311.31836     -1240.1075      230.44859     -1009.6589      1857.1501      15.047905      15.047905      15.047905      0              0              0            
    740000   310.65501     -1188.4386      229.95756     -958.48107      138.1718       15.168993      15.168993      15.168993      0              0              0            
    741000   325.76186     -1159.6926      241.14017     -918.55243     -762.05865      15.161939      15.161939      15.161939      0              0              0            
    742000   284.82849     -1214.1368      210.83987     -1003.297      -1807.1296      15.173364      15.173364      15.173364      0              0              0            
    743000   303.22385     -1231.6963      224.45675     -1007.2395      265.55983      14.877863      14.877863      14.877863      0              0              0            
    744000   292.87417     -1200.3088      216.79556     -983.51327     -1000.8213      14.891434      14.891434      14.891434      0              0              0            
    745000   276.09392     -1200.0417      204.37424     -995.66744      590.76671      14.668039      14.668039      14.668039      0              0              0            
    746000   319.76989     -1255.6851      236.7047      -1018.9804     -1305.8656      15.126694      15.126694      15.126694      0              0              0            
    747000   285.20514     -1144.5247      211.11869     -933.40601      1018.4604      15.063859      15.063859      15.063859      0              0              0            
    748000   305.99335     -1187.5903      226.50683     -961.08349      21.337766      15.210613      15.210613      15.210613      0              0              0            
    749000   288.36463     -1216.9013      213.45745     -1003.4439     -62.736601      14.905923      14.905923      14.905923      0              0              0            
    750000   285.15425     -1234.102       211.08101     -1023.021      -267.52368      14.957388      14.957388      14.957388      0              0              0            
    751000   294.13828     -1241.6832      217.7313      -1023.9519      306.73571      14.903532      14.903532      14.903532      0              0              0            
    752000   302.14666     -1229.5465      223.65938     -1005.8871     -38.436105      14.931832      14.931832      14.931832      0              0              0            
    753000   298.51038     -1228.6287      220.96768     -1007.661       606.95635      14.605539      14.605539      14.605539      0              0              0            
    754000   295.9807      -1189.5877      219.09512     -970.49262      693.76877      14.927604      14.927604      14.927604      0              0              0            
    755000   328.01671     -1224.2936      242.80929     -981.48428     -1101.0504      15.010603      15.010603      15.010603      0              0              0            
    756000   303.50358     -1197.7319      224.66382     -973.06811      1566.1493      14.969476      14.969476      14.969476      0              0              0            
    757000   299.31383     -1220.4996      221.56242     -998.93721      27.913815      15.142537      15.142537      15.142537      0              0              0            
    758000   307.96818     -1204.7653      227.96867     -976.79662      910.84421      15.383942      15.383942      15.383942      0              0              0            
    759000   294.24402     -1215.8296      217.80957     -998.02        -960.99471      14.941772      14.941772      14.941772      0              0              0            
    760000   305.74959     -1194.5549      226.32639     -968.22851     -328.03168      15.01158       15.01158       15.01158       0              0              0            
    761000   312.65502     -1174.4899      231.43803     -943.05183     -1017.0198      15.005144      15.005144      15.005144      0              0              0            
    762000   279.12807     -1205.416       206.62022     -998.79578     -550.70122      14.908614      14.908614      14.908614      0              0              0            
    763000   279.79959     -1206.0155      207.11731     -998.89819     -471.26914      14.977718      14.977718      14.977718      0              0              0            
    764000   302.48332     -1224.8409      223.90858     -1000.9323      436.45257      14.586071      14.586071      14.586071      0              0              0            
    765000   325.89097     -1218.7191      241.23574     -977.4834       2359.0136      14.789479      14.789479      14.789479      0              0              0            
    766000   323.67125     -1213.7666      239.59262     -974.17398     -174.03091      15.069711      15.069711      15.069711      0              0              0            
    767000   325.44183     -1193.4146      240.90327     -952.51138     -1844.0971      15.021119      15.021119      15.021119      0              0              0            
    768000   304.49709     -1202.4327      225.39925     -977.03348      583.51255      14.974784      14.974784      14.974784      0              0              0            
    769000   287.99971     -1230.0022      213.18732     -1016.8149      1506.1159      14.78243       14.78243       14.78243       0              0              0            
    770000   297.91008     -1214.5387      220.52332     -994.01542     -85.960625      14.776372      14.776372      14.776372      0              0              0            
    771000   283.28393     -1213.2985      209.69654     -1003.602      -2115.8806      15.033434      15.033434      15.033434      0              0              0            
    772000   305.16933     -1201.5309      225.89687     -975.63404      577.8904       14.892305      14.892305      14.892305      0              0              0            
    773000   293.78919     -1194.0791      217.4729      -976.60621     -776.26432      15.120167      15.120167      15.120167      0              0              0            
    774000   296.50415     -1235.7064      219.4826      -1016.2238      3017.6132      14.773311      14.773311      14.773311      0              0              0            
    775000   292.43703     -1168.0475      216.47198     -951.57554      538.42064      15.076437      15.076437      15.076437      0              0              0            
    776000   315.34455     -1229.979       233.42891     -996.55005      207.24101      14.975242      14.975242      14.975242      0              0              0            
    777000   301.72114     -1217.565       223.34439     -994.22058     -148.83316      14.830805      14.830805      14.830805      0              0              0            
    778000   279.13728     -1193.9477      206.62704     -987.32064      336.5437       15.018479      15.018479      15.018479      0              0              0            
    779000   307.18798     -1213.1063      227.39114     -985.71515     -1822.6448      15.035669      15.035669      15.035669      0              0              0            
    780000   292.12554     -1203.1353      216.2414      -986.89394      954.28495      14.807627      14.807627      14.807627      0              0              0            
    781000   304.36658     -1221.5292      225.30264     -996.22653     -381.89127      14.903895      14.903895      14.903895      0              0              0            
    782000   283.64525     -1202.9605      209.964       -992.9965      -149.12712      14.988117      14.988117      14.988117      0              0              0            
    783000   302.50525     -1195.3545      223.92482     -971.42967      70.435262      14.748427      14.748427      14.748427      0              0              0            
    784000   294.53509     -1192.5308      218.02503     -974.5058      -222.55351      14.970207      14.970207      14.970207      0              0              0            
    785000   294.49189     -1193.7212      217.99305     -975.72817     -2651.0363      14.996228      14.996228      14.996228      0              0              0            
    786000   303.22045     -1203.0043      224.45423     -978.55011     -494.16493      15.028389      15.028389      15.028389      0              0              0            
    787000   291.9206      -1216.8857      216.0897      -1000.796      -432.91894      14.78836       14.78836       14.78836       0              0              0            
    788000   284.14476     -1210.875       210.33375     -1000.5412      353.1942       15.142552      15.142552      15.142552      0              0              0            
    789000   287.22792     -1188.2116      212.61601     -975.59561      2345.7401      14.936473      14.936473      14.936473      0              0              0            
    790000   290.6494      -1201.865       215.14871     -986.71631      2437.9078      15.129771      15.129771      15.129771      0              0              0            
    791000   309.47157     -1187.9171      229.08153     -958.83558     -402.30796      14.93026       14.93026       14.93026       0              0              0            
    792000   313.87843     -1209.0487      232.34364     -976.70501     -966.33673      14.938354      14.938354      14.938354      0              0              0            
    793000   291.3667      -1173.621       215.67969     -957.94126     -49.645537      15.151752      15.151752      15.151752      0              0              0            
    794000   312.26266     -1210.9701      231.14759     -979.82251     -2067.7093      15.198909      15.198909      15.198909      0              0              0            
    795000   273.2127      -1204.342       202.24147     -1002.1005      1322.6036      14.897552      14.897552      14.897552      0              0              0            
    796000   282.40527     -1213.9067      209.04612     -1004.8606      203.84722      15.062015      15.062015      15.062015      0              0              0            
    797000   312.36091     -1212.7731      231.22032     -981.55274      1880.1956      14.771301      14.771301      14.771301      0              0              0            
    798000   294.45314     -1185.0962      217.96437     -967.13185      52.877816      15.043831      15.043831      15.043831      0              0              0            
    799000   289.21634     -1207.7505      214.08791     -993.66257     -2314.0728      15.068115      15.068115      15.068115      0              0              0            
    800000   292.26876     -1208.1927      216.34742     -991.84528     -1517.0385      15.442262      15.442262      15.442262      0              0              0            
    801000   292.52131     -1216.4249      216.53436     -999.8905      -1803.9532      15.036345      15.036345      15.036345      0              0              0            
    802000   295.96071     -1247.7405      219.08032     -1028.6602     -211.97586      14.833435      14.833435      14.833435      0              0              0            
    803000   289.62114     -1207.2483      214.38756     -992.8607       444.5536       14.685681      14.685681      14.685681      0              0              0            
    804000   324.91708     -1220.9149      240.51483     -980.40009      262.10008      15.03302       15.03302       15.03302       0              0              0            
    805000   305.33807     -1227.4455      226.02177     -1001.4237      96.150076      15.064182      15.064182      15.064182      0              0              0            
    806000   315.35024     -1212.6443      233.43312     -979.21114      796.22133      14.879651      14.879651      14.879651      0              0              0            
    807000   279.58545     -1209.8288      206.95879     -1002.87       -2663.4177      15.296901      15.296901      15.296901      0              0              0            
    808000   287.74457     -1165.7617      212.99846     -952.76325      447.10466      15.054309      15.054309      15.054309      0              0              0            
    809000   316.66472     -1211.4971      234.40615     -977.09093     -758.49502      15.345082      15.345082      15.345082      0              0              0            
    810000   298.61662     -1225.6417      221.04632     -1004.5954      400.07147      15.100379      15.100379      15.100379      0              0              0            
    811000   311.33919     -1254.335       230.46401     -1023.871      -1556.2488      14.83437       14.83437       14.83437       0              0              0            
    812000   301.53088     -1202.8457      223.20356     -979.64213      621.44864      15.239584      15.239584      15.239584      0              0              0            
    813000   312.831       -1180.7253      231.5683      -949.15703     -2149.7674      15.211472      15.211472      15.211472      0              0              0            
    814000   264.49155     -1227.861       195.78577     -1032.0752      1051.4413      14.87499       14.87499       14.87499       0              0              0            
    815000   301.45681     -1192.8122      223.14873     -969.66351      881.89214      15.055224      15.055224      15.055224      0              0              0            
    816000   289.94703     -1179.9132      214.6288      -965.28438     -867.46028      15.235291      15.235291      15.235291      0              0              0            
    817000   305.62031     -1164.2714      226.23069     -938.04067     -1413.7174      15.367155      15.367155      15.367155      0              0              0            
    818000   272.12364     -1194.7265      201.43531     -993.29117      353.81755      14.904279      14.904279      14.904279      0              0              0            
    819000   266.70528     -1172.0907      197.42445     -974.66629      790.39433      15.2948        15.2948        15.2948        0              0              0            
    820000   283.04376     -1181.2654      209.51875     -971.74661     -1243.9114      15.034529      15.034529      15.034529      0              0              0            
    821000   299.4247      -1173.3079      221.64449     -951.66339     -1330.8009      15.48124       15.48124       15.48124       0              0              0            
    822000   315.80138     -1202.7682      233.76708     -969.00115      1086.296       15.136826      15.136826      15.136826      0              0              0            
    823000   310.20112     -1232.1972      229.62157     -1002.5756     -1634.8132      15.164339      15.164339      15.164339      0              0              0            
    824000   318.93601     -1215.2248      236.08744     -979.13737     -893.01465      14.90101       14.90101       14.90101       0              0              0            
    825000   267.15063     -1189.4846      197.75411     -991.73046      226.29033      15.04363       15.04363       15.04363       0              0              0            
    826000   289.32668     -1210.9737      214.16959     -996.80408     -144.90285      14.696049      14.696049      14.696049      0              0              0            
    827000   284.14501     -1209.0242      210.33394     -998.69027     -603.53423      15.138254      15.138254      15.138254      0              0              0            
    828000   288.16257     -1203.9667      213.30788     -990.65885     -327.61916      14.769234      14.769234      14.769234      0              0              0            
    829000   280.03292     -1218.6284      207.29003     -1011.3384     -1371.1699      14.832149      14.832149      14.832149      0              0              0            
    830000   282.79783     -1201.3749      209.33671     -992.03823     -1337.3326      14.909996      14.909996      14.909996      0              0              0            
    831000   282.30758     -1204.9343      208.97381     -995.9605      -476.22882      15.043452      15.043452      15.043452      0              0              0            
    832000   316.86374     -1188.3288      234.55347     -953.77537      458.21142      14.995596      14.995596      14.995596      0              0              0            
    833000   294.23388     -1176.7644      217.80207     -958.96232      1768.8879      14.925072      14.925072      14.925072      0              0              0            
    834000   325.91736     -1182.1255      241.25528     -940.87021     -936.50631      15.263113      15.263113      15.263113      0              0              0            
    835000   280.58656     -1180.8903      207.69985     -973.19043     -1250.492       15.02812       15.02812       15.02812       0              0              0            
    836000   273.84486     -1212.2305      202.70941     -1009.5211     -2292.9217      15.087256      15.087256      15.087256      0              0              0            
    837000   283.55566     -1161.5888      209.89768     -951.69109     -423.64275      15.001134      15.001134      15.001134      0              0              0            
    838000   292.16572     -1188.0838      216.27114     -971.81269     -1673.5739      15.075856      15.075856      15.075856      0              0              0            
    839000   309.98018     -1188.3625      229.45802     -958.90448     -670.18795      14.988223      14.988223      14.988223      0              0              0            
    840000   287.11317     -1227.4816      212.53108     -1014.9505     -1621.9435      14.987886      14.987886      14.987886      0              0              0            
    841000   303.28541     -1163.0364      224.50232     -938.53412     -680.25284      15.26977       15.26977       15.26977       0              0              0            
    842000   277.69254     -1215.9373      205.55759     -1010.3797      1666.521       14.762099      14.762099      14.762099      0              0              0            
    843000   281.13072     -1222.4293      208.10266     -1014.3266     -230.20407      15.274654      15.274654      15.274654      0              0              0            
    844000   296.84288     -1209.4768      219.73334     -989.7435       1026.733       15.072132      15.072132      15.072132      0              0              0            
    845000   293.19926     -1192.7655      217.0362      -975.72931      1795.3493      15.000462      15.000462      15.000462      0              0              0            
    846000   307.02249     -1188.3725      227.26864     -961.10384     -1334.2306      15.000147      15.000147      15.000147      0              0              0            
    847000   315.16673     -1200.5967      233.29728     -967.29945      88.841673      14.956835      14.956835      14.956835      0              0              0            
    848000   305.55258     -1193.1623      226.18056     -966.98177      1039.3727      14.915223      14.915223      14.915223      0              0              0            
    849000   308.04357     -1210.5646      228.02447     -982.54011      1411.1595      15.094086      15.094086      15.094086      0              0              0            
    850000   327.37413     -1187.0332      242.33362     -944.69959      1977.5215      15.123397      15.123397      15.123397      0              0              0            
    851000   307.4237      -1188.3533      227.56563     -960.78765      512.46978      15.177217      15.177217      15.177217      0              0              0            
    852000   267.61574     -1177.2859      198.0984      -979.18746      2255.7208      14.974164      14.974164      14.974164      0              0              0            
    853000   279.83209     -1206.4566      207.14136     -999.31526     -733.1936       14.948825      14.948825      14.948825      0              0              0            
    854000   304.70189     -1195.2626      225.55085     -969.71176      1809.9857      15.228088      15.228088      15.228088      0              0              0            
    855000   318.07455     -1194.9437      235.44975     -959.49398     -1430.6114      15.003872      15.003872      15.003872      0              0              0            
    856000   302.26415     -1188.1186      223.74635     -964.37225      100.83801      14.806856      14.806856      14.806856      0              0              0            
    857000   314.21481     -1209.6213      232.59264     -977.02861      2917.507       14.734661      14.734661      14.734661      0              0              0            
    858000   325.8932      -1226.0847      241.23739     -984.84734     -517.74557      15.028623      15.028623      15.028623      0              0              0            
    859000   294.26058     -1189.2032      217.82183     -971.38133      646.22823      15.12839       15.12839       15.12839       0              0              0            
    860000   306.56783     -1177.0704      226.93208     -950.1383       980.04886      15.076389      15.076389      15.076389      0              0              0            
    861000   294.56426     -1169.7686      218.04663     -951.72199     -951.41565      15.265897      15.265897      15.265897      0              0              0            
    862000   293.76021     -1188.6928      217.45144     -971.2414      -1114.0369      15.003531      15.003531      15.003531      0              0              0            
    863000   313.37894     -1197.7786      231.9739      -965.80466      29.414822      15.23495       15.23495       15.23495       0              0              0            
    864000   292.87584     -1218.8556      216.7968      -1002.0588      1101.031       14.916684      14.916684      14.916684      0              0              0            
    865000   342.75652     -1227.4577      253.7202      -973.73753      1233.6765      14.757909      14.757909      14.757909      0              0              0            
    866000   331.24222     -1149.4679      245.19692     -904.271       -986.58662      15.419102      15.419102      15.419102      0              0              0            
    867000   283.55437     -1210.3968      209.89673     -1000.5        -376.03596      14.996379      14.996379      14.996379      0              0              0            
    868000   295.19514     -1220.7466      218.51363     -1002.2329     -874.30597      14.871855      14.871855      14.871855      0              0              0            
    869000   291.3778      -1183.5842      215.6879      -967.89628     -1435.6591      15.05974       15.05974       15.05974       0              0              0            
    870000   302.3332      -1200.846       223.79747     -977.04857     -570.31902      14.983407      14.983407      14.983407      0              0              0            
    871000   285.55706     -1185.3064      211.37919     -973.92718     -1778.6367      15.277542      15.277542      15.277542      0              0              0            
    872000   318.2436      -1201.8377      235.57489     -966.26281      568.08729      14.872828      14.872828      14.872828      0              0              0            
    873000   279.46019     -1209.4769      206.86607     -1002.6109      804.9905       14.922005      14.922005      14.922005      0              0              0            
    874000   275.0292      -1197.5913      203.5861      -994.00519     -320.79558      15.030436      15.030436      15.030436      0              0              0            
    875000   304.34727     -1200.7224      225.28835     -975.43409      405.82695      15.100906      15.100906      15.100906      0              0              0            
    876000   279.04865     -1189.2145      206.56144     -982.65301     -1011.9728      15.282844      15.282844      15.282844      0              0              0            
    877000   301.72268     -1203.8562      223.34554     -980.5107       917.90297      14.822004      14.822004      14.822004      0              0              0            
    878000   308.17676     -1197.1811      228.12307     -969.05805     -377.03817      15.171294      15.171294      15.171294      0              0              0            
    879000   295.51466     -1181.0711      218.75014     -962.32096     -618.51545      15.112125      15.112125      15.112125      0              0              0            
    880000   305.52349     -1191.7237      226.15902     -965.56467     -430.35622      15.026083      15.026083      15.026083      0              0              0            
    881000   288.24271     -1207.7274      213.3672      -994.36018      1018.601       15.018383      15.018383      15.018383      0              0              0            
    882000   294.03183     -1222.2939      217.65251     -1004.6414      1157.3478      14.829005      14.829005      14.829005      0              0              0            
    883000   309.45679     -1177.9456      229.07059     -948.87496      2145.878       15.11746       15.11746       15.11746       0              0              0            
    884000   299.29272     -1222.3498      221.54679     -1000.803      -1813.3589      15.16353       15.16353       15.16353       0              0              0            
    885000   299.02        -1217.6407      221.34492     -996.29575     -1090.6758      15.008185      15.008185      15.008185      0              0              0            
    886000   289.34962     -1213.7691      214.18657     -999.58252      83.247955      14.754746      14.754746      14.754746      0              0              0            
    887000   290.492       -1216.8989      215.0322      -1001.8667     -1429.5482      14.926424      14.926424      14.926424      0              0              0            
    888000   287.43085     -1193.4743      212.76623     -980.70811      253.01502      15.010327      15.010327      15.010327      0              0              0            
    889000   291.14575     -1224.5428      215.51613     -1009.0266      193.93998      14.959346      14.959346      14.959346      0              0              0            
    890000   264.84354     -1188.4584      196.04632     -992.41206     -330.48158      14.997886      14.997886      14.997886      0              0              0            
    891000   310.42441     -1172.5766      229.78686     -942.78972      931.78065      15.124856      15.124856      15.124856      0              0              0            
    892000   286.64459     -1192.875       212.18421     -980.69076     -457.63019      14.828542      14.828542      14.828542      0              0              0            
    893000   316.93099     -1206.3201      234.60325     -971.71686     -614.3466       14.817385      14.817385      14.817385      0              0              0            
    894000   300.10917     -1189.3784      222.15116     -967.22722     -2016.4658      15.068514      15.068514      15.068514      0              0              0            
    895000   282.5873      -1183.4042      209.18087     -974.22331      417.75572      14.871949      14.871949      14.871949      0              0              0            
    896000   277.87212     -1198.5743      205.69053     -992.88377     -402.43569      15.095874      15.095874      15.095874      0              0              0            
    897000   299.69464     -1194.6168      221.84431     -972.77246     -350.13149      15.297512      15.297512      15.297512      0              0              0            
    898000   277.42466     -1242.0782      205.3593      -1036.7189     -346.33999      15.106853      15.106853      15.106853      0              0              0            
    899000   293.5882      -1211.3229      217.32411     -993.99876     -663.90288      15.103955      15.103955      15.103955      0              0              0            
    900000   308.75117     -1223.8875      228.54827     -995.33925      46.802008      15.103477      15.103477      15.103477      0              0              0            
    901000   319.80607     -1238.7428      236.73148     -1002.0113     -2254.8726      15.202351      15.202351      15.202351      0              0              0            
    902000   312.20313     -1209.6478      231.10352     -978.54429     -185.9895       15.123923      15.123923      15.123923      0              0              0            
    903000   306.24653     -1241.6059      226.69425     -1014.9117      695.67915      14.82074       14.82074       14.82074       0              0              0            
    904000   295.36741     -1214.2523      218.64114     -995.61116     -2334.0939      15.292256      15.292256      15.292256      0              0              0            
    905000   325.84537     -1224.9893      241.20199     -983.78731      1753.0438      14.989381      14.989381      14.989381      0              0              0            
    906000   304.70964     -1160.95        225.55658     -935.39344     -878.99665      14.943301      14.943301      14.943301      0              0              0            
    907000   315.8056      -1192.8885      233.7702      -959.11831      634.28307      15.177471      15.177471      15.177471      0              0              0            
    908000   304.82664     -1200.6611      225.64319     -975.01786      1075.996       15.022539      15.022539      15.022539      0              0              0            
    909000   306.51092     -1181.2701      226.88996     -954.38014     -210.03236      15.001482      15.001482      15.001482      0              0              0            
    910000   313.23944     -1182.0038      231.87064     -950.13313      309.31957      15.019626      15.019626      15.019626      0              0              0            
    911000   301.07018     -1185.7305      222.86253     -962.86801     -132.03533      15.323904      15.323904      15.323904      0              0              0            
    912000   314.24081     -1218.4246      232.61189     -985.81274      1916.6458      15.009992      15.009992      15.009992      0              0              0            
    913000   323.20453     -1195.2484      239.24714     -956.00127     -298.2109       15.234365      15.234365      15.234365      0              0              0            
    914000   302.00971     -1190.6246      223.55801     -967.06655      90.119138      15.063538      15.063538      15.063538      0              0              0            
    915000   334.16268     -1209.0997      247.35874     -961.74097      640.93101      14.913453      14.913453      14.913453      0              0              0            
    916000   275.28078     -1189.3246      203.77233     -985.55229      1259.6548      14.97248       14.97248       14.97248       0              0              0            
    917000   312.82803     -1215.3246      231.5661      -983.75848      1940.4097      14.842812      14.842812      14.842812      0              0              0            
    918000   295.15932     -1198.479       218.48711     -979.99192      734.96394      14.948521      14.948521      14.948521      0              0              0            
    919000   307.41933     -1212.5457      227.56239     -984.98329     -625.96517      15.056386      15.056386      15.056386      0              0              0            
    920000   306.00366     -1237.6418      226.51446     -1011.1273      1516.5592      14.997174      14.997174      14.997174      0              0              0            
    921000   269.57551     -1203.3892      199.54909     -1003.8401     -1824.987       15.231234      15.231234      15.231234      0              0              0            
    922000   319.5724      -1212.3208      236.55852     -975.76232     -1592.2846      14.978835      14.978835      14.978835      0              0              0            
    923000   293.24213     -1206.6422      217.06794     -989.57424      344.74178      14.873891      14.873891      14.873891      0              0              0            
    924000   314.43031     -1205.2998      232.75216     -972.54769      530.11328      14.89262       14.89262       14.89262       0              0              0            
    925000   297.79562     -1223.2445      220.43859     -1002.8059      1384.0715      14.815242      14.815242      14.815242      0              0              0            
    926000   298.62085     -1226.6012      221.04945     -1005.5517      691.48388      14.875414      14.875414      14.875414      0              0              0            
    927000   297.15399     -1215.3738      219.96364     -995.41021     -1340.9778      14.845969      14.845969      14.845969      0              0              0            
    928000   288.78882     -1181.5403      213.77144     -967.76887     -0.61566026     14.855099      14.855099      14.855099      0              0              0            
    929000   309.8969      -1203.6333      229.39638     -974.23696     -119.91186      14.974043      14.974043      14.974043      0              0              0            
    930000   276.25309     -1209.7297      204.49207     -1005.2376      574.41024      15.040724      15.040724      15.040724      0              0              0            
    931000   300.18469     -1185.3897      222.20706     -963.18263     -380.70632      15.177337      15.177337      15.177337      0              0              0            
    932000   326.26505     -1196.8783      241.51264     -955.36561      2359.9585      14.897141      14.897141      14.897141      0              0              0            
    933000   291.89775     -1191.3769      216.07278     -975.30408      584.19428      15.136062      15.136062      15.136062      0              0              0            
    934000   306.55715     -1221.1405      226.92418     -994.21632      1801.8245      14.794946      14.794946      14.794946      0              0              0            
    935000   339.97841     -1207.9777      251.66375     -956.31395      1237.7032      15.056599      15.056599      15.056599      0              0              0            
    936000   335.18368     -1212.172       248.11452     -964.05749      2802.4728      14.937051      14.937051      14.937051      0              0              0            
    937000   312.36367     -1193.5531      231.22236     -962.3307       1618.1649      15.04925       15.04925       15.04925       0              0              0            
    938000   306.23128     -1235.1529      226.68296     -1008.47        3646.2801      14.717246      14.717246      14.717246      0              0              0            
    939000   323.95788     -1186.2556      239.8048      -946.45081     -374.93379      14.942312      14.942312      14.942312      0              0              0            
    940000   332.35247     -1232.5509      246.01876     -986.5321       245.39698      14.643316      14.643316      14.643316      0              0              0            
    941000   281.36552     -1187.0886      208.27646     -978.81212     -1176.2733      15.184661      15.184661      15.184661      0              0              0            
    942000   292.98858     -1200.2391      216.88026     -983.35888     -1102.0073      14.959518      14.959518      14.959518      0              0              0            
    943000   302.56621     -1209.5222      223.96994     -985.55223     -1188.6787      14.929361      14.929361      14.929361      0              0              0            
    944000   286.8431      -1179.6195      212.33116     -967.28834     -1362.5203      15.154488      15.154488      15.154488      0              0              0            
    945000   264.67802     -1198.1343      195.9238      -1002.2105     -1292.2736      14.813951      14.813951      14.813951      0              0              0            
    946000   324.73589     -1198.2648      240.38071     -957.88406     -286.59974      14.758651      14.758651      14.758651      0              0              0            
    947000   280.42179     -1194.7522      207.57788     -987.17429      2226.6208      14.780684      14.780684      14.780684      0              0              0            
    948000   283.62173     -1185.877       209.94659     -975.93045     -7.2993382      14.889163      14.889163      14.889163      0              0              0            
    949000   285.61648     -1227.4385      211.42317     -1016.0153      1581.6733      14.723314      14.723314      14.723314      0              0              0            
    950000   308.15624     -1179.053       228.10788     -950.94511     -2277.5034      15.274715      15.274715      15.274715      0              0              0            
    951000   296.00094     -1186.4644      219.11011     -967.35427     -2095.2403      14.966931      14.966931      14.966931      0              0              0            
    952000   294.65023     -1181.6529      218.11026     -963.54269      721.28331      15.124767      15.124767      15.124767      0              0              0            
    953000   278.65459     -1179.9816      206.26974     -973.71191     -317.84227      15.000529      15.000529      15.000529      0              0              0            
    954000   291.59217     -1213.9305      215.84659     -998.08387      406.14305      14.863686      14.863686      14.863686      0              0              0            
    955000   299.53517     -1225.1616      221.72627     -1003.4353      1347.87        14.992715      14.992715      14.992715      0              0              0            
    956000   323.71967     -1223.8705      239.62847     -984.24204     -2340.3389      15.127829      15.127829      15.127829      0              0              0            
    957000   282.46869     -1214.8636      209.09307     -1005.7705      683.74792      14.901908      14.901908      14.901908      0              0              0            
    958000   278.99335     -1228.9757      206.5205      -1022.4552      907.75686      14.967441      14.967441      14.967441      0              0              0            
    959000   317.28928     -1213.5509      234.86847     -978.6824      -153.71419      15.157224      15.157224      15.157224      0              0              0            
    960000   290.1667      -1178.56        214.7914      -963.76863      981.17327      14.846818      14.846818      14.846818      0              0              0            
    961000   305.0087      -1223.532       225.77796     -997.75407      2026.8088      15.13809       15.13809       15.13809       0              0              0            
    962000   316.35698     -1201.9727      234.17835     -967.79438      1308.5886      15.113511      15.113511      15.113511      0              0              0            
    963000   306.56104     -1200.1493      226.92706     -973.22222     -931.70249      15.016586      15.016586      15.016586      0              0              0            
    964000   315.39828     -1199.871       233.46869     -966.40229     -1228.9609      15.123722      15.123722      15.123722      0              0              0            
    965000   314.26979     -1200.2863      232.63334     -967.65297     -640.59804      15.005535      15.005535      15.005535      0              0              0            
    966000   294.1691      -1195.9779      217.75411     -978.22383      1450.5175      14.731282      14.731282      14.731282      0              0              0            
    967000   277.11976     -1195.826       205.13361     -990.69239     -2395.7386      14.794587      14.794587      14.794587      0              0              0            
    968000   313.58704     -1205.0519      232.12794     -972.92396      2799.4435      14.694016      14.694016      14.694016      0              0              0            
    969000   309.87794     -1225.3501      229.38234     -995.96777      626.85792      14.869464      14.869464      14.869464      0              0              0            
    970000   301.56171     -1199.2858      223.22638     -976.05939     -942.99385      14.923828      14.923828      14.923828      0              0              0            
    971000   310.33679     -1207.2155      229.722       -977.49354      979.62218      14.846073      14.846073      14.846073      0              0              0            
    972000   306.40546     -1194.6772      226.81189     -967.86532      451.51806      14.832407      14.832407      14.832407      0              0              0            
    973000   310.14894     -1187.2381      229.58294     -957.65518      1012.8077      15.058616      15.058616      15.058616      0              0              0            
    974000   284.24484     -1183.5521      210.40783     -973.14429      198.6355       15.109652      15.109652      15.109652      0              0              0            
    975000   326.89688     -1168.5703      241.98035     -926.5899      -358.95275      15.339072      15.339072      15.339072      0              0              0            
    976000   281.13796     -1202.571       208.10801     -994.46295      444.03275      14.915727      14.915727      14.915727      0              0              0            
    977000   284.47326     -1189.1104      210.57692     -978.53343      134.70471      14.890792      14.890792      14.890792      0              0              0            
    978000   288.81909     -1183.1489      213.79385     -969.35507     -705.8515       15.084357      15.084357      15.084357      0              0              0            
    979000   307.38847     -1194.6219      227.53955     -967.08232     -1049.7543      15.144619      15.144619      15.144619      0              0              0            
    980000   289.09204     -1202.3028      213.9959      -988.30688     -736.72473      15.109886      15.109886      15.109886      0              0              0            
    981000   300.51631     -1206.3987      222.45254     -983.9462      -358.98429      14.915659      14.915659      14.915659      0              0              0            
    982000   276.56899     -1187.0176      204.7259      -982.29171      2538.267       14.817675      14.817675      14.817675      0              0              0            
    983000   282.20806     -1201.6229      208.90014     -992.72279      2631.0896      14.895422      14.895422      14.895422      0              0              0            
    984000   266.26049     -1199.7787      197.0952      -1002.6835      582.11751      14.693007      14.693007      14.693007      0              0              0            
    985000   292.10652     -1203.2882      216.22732     -987.06091     -1235.4243      14.935896      14.935896      14.935896      0              0              0            
    986000   316.92695     -1201.8178      234.60026     -967.21755      1878.26        14.880377      14.880377      14.880377      0              0              0            
    987000   288.34694     -1188.4312      213.44435     -974.98685      1309.1625      14.889577      14.889577      14.889577      0              0              0            
    988000   295.07845     -1205.6029      218.42724     -987.17562     -671.8359       15.322035      15.322035      15.322035      0              0              0            
    989000   300.35854     -1209.1593      222.33575     -986.82353     -2527.2642      15.006229      15.006229      15.006229      0              0              0            
    990000   295.77217     -1218.3635      218.94076     -999.42269      454.72222      14.914602      14.914602      14.914602      0              0              0            
    991000   327.62136     -1228.5805      242.51663     -986.06386      884.21942      14.794697      14.794697      14.794697      0              0              0            
    992000   303.07717     -1203.8523      224.34818     -979.50408      855.14662      14.901659      14.901659      14.901659      0              0              0            
    993000   272.54476     -1193.5431      201.74704     -991.79609      1434.8633      14.853428      14.853428      14.853428      0              0              0            
    994000   295.43931     -1219.8573      218.69437     -1001.1629     -1171.3186      14.705562      14.705562      14.705562      0              0              0            
    995000   307.11122     -1197.6833      227.33432     -970.34898     -47.411334      14.902436      14.902436      14.902436      0              0              0            
    996000   293.18981     -1202.1741      217.02921     -985.14489     -239.22638      15.060555      15.060555      15.060555      0              0              0            
    997000   333.95971     -1240.1245      247.20849     -992.91596      1446.0763      15.073911      15.073911      15.073911      0              0              0            
    998000   328.90049     -1219.9867      243.46349     -976.52319      1593.5079      14.926757      14.926757      14.926757      0              0              0            
    999000   319.0131      -1190.7373      236.1445      -954.59279     -309.22266      15.331224      15.331224      15.331224      0              0              0            
   1000000   288.08108     -1206.5178      213.24755     -993.2702      -485.30242      14.983087      14.983087      14.983087      0              0              0            
Loop time of 206.658 on 12 procs for 1000000 steps with 320 atoms

Performance: 836.163 ns/day, 0.029 hours/ns, 4838.906 timesteps/s, 1.548 Matom-step/s
88.7% CPU use with 12 MPI tasks x 1 OpenMP threads

MPI task timing breakdown:
Section |  min time  |  avg time  |  max time  |%varavg| %total
---------------------------------------------------------------
Pair    | 22.685     | 24.573     | 25.833     |  23.6 | 11.89
Bond    | 0.63602    | 0.67134    | 0.69894    |   2.3 |  0.32
Kspace  | 81.407     | 83.518     | 86.232     |  15.8 | 40.41
Neigh   | 4.7648     | 4.9168     | 5.0412     |   5.5 |  2.38
Comm    | 23.618     | 25.242     | 27.628     |  22.9 | 12.21
Output  | 10.103     | 11.021     | 13.628     |  26.9 |  5.33
Modify  | 51.32      | 55.219     | 56.393     |  19.0 | 26.72
Other   |            | 1.497      |            |       |  0.72

Nlocal:        26.6667 ave          35 max          22 min
Histogram: 3 2 2 1 0 0 3 0 0 1
Nghost:          806.5 ave         845 max         772 min
Histogram: 1 1 0 3 3 1 0 1 0 2
Neighs:              0 ave           0 max           0 min
Histogram: 12 0 0 0 0 0 0 0 0 0

Total # of neighbors = 0
Ave neighs/atom = 0
Ave special neighs/atom = 1.9875
Neighbor list builds = 74104
Dangerous builds = 5363


Total wall time: 0:03:26
