LAMMPS (7 Feb 2024 - Update 1)
  using 1 OpenMP thread(s) per MPI task
echo both

# Define temperature parameters
variable	temperature equal 300.0 # Simulation temperature in Kelvin
variable	tempDamp equal 100.0 # Relaxation time of themostat - 0.1 ps

# Define pressure parameters
variable	pressure equal 1.0 # Pressure in bars
variable	pressureDamp equal 500.0 # Relaxation time of the barostat 0.5 ps

# Define random seed
variable	seed equal 98475

# Simulation setup
units		real
atom_style	full
variable	out_freq equal 1000 # Thermo output frequency
variable	out_freq2 equal 10 # Dump output frequency
neigh_modify    delay 10 every 1 # Neighbor list setup

### TIP4P/Ew and NaCl Potential Parameters ###
pair_style      hybrid lj/cut/coul/long 5.0 buck/coul/long 5.0 # This cutoff is too short for a real calculation
# Load configuration
read_data       data.nacl
Reading data file ...
  orthogonal box = (0 0 0) to (15.5 15.5 15.5)
  2 by 2 by 3 MPI processor grid
  reading atoms ...
  320 atoms
  scanning bonds ...
  2 = max bonds/atom
  scanning angles ...
  1 = max angles/atom
  reading bonds ...
  212 bonds
  reading angles ...
  106 angles
Finding 1-2 1-3 1-4 neighbors ...
  special bond factors lj:    0        0        0       
  special bond factors coul:  0        0        0       
     2 = max # of 1-2 neighbors
     1 = max # of 1-3 neighbors
     1 = max # of 1-4 neighbors
     2 = max # of special neighbors
  special bonds CPU = 0.001 seconds
  read_data CPU = 0.027 seconds

# create groups ###

group hy type 1
212 atoms in group hy
group ox type 2
106 atoms in group ox
group na type 3
1 atoms in group na
group cl type 4
1 atoms in group cl

## set charges - beside manually ###
set group ox charge -0.830
Setting atom values ...
  106 settings made for charge
set group hy charge 0.415
Setting atom values ...
  212 settings made for charge
set group na charge 1.0
Setting atom values ...
  1 settings made for charge
set group cl charge -1.0
Setting atom values ...
  1 settings made for charge

# Water TIP3P
pair_coeff      1 1 lj/cut/coul/long 0.0 0.0
pair_coeff      2 2 lj/cut/coul/long 0.102 3.188
pair_coeff      1 2 lj/cut/coul/long 0.0 0.0
# Mixed from Pettitt 86
pair_coeff      2 3 lj/cut/coul/long 0.1338549 2.72
pair_coeff      1 3 lj/cut/coul/long 0.1338549 1.31
pair_coeff      2 4 lj/cut/coul/long 0.359825 3.55
pair_coeff      1 4 lj/cut/coul/long 0.359825 2.14
# NaCl from Pettitt 86
pair_coeff      3 4 buck/coul/long 28929.93 0.317 161.2016
pair_coeff      3 3 buck/coul/long 9772.847 0.317 24.18024 # This is not used
pair_coeff      4 4 buck/coul/long 80312.94 0.317 1683.981 # This is not used
bond_style      harmonic
bond_coeff      1 450 0.9572
angle_style     harmonic
angle_coeff     1 55 104.52
kspace_style    pppm 1e-2 # This value is too large for a real calculation

timestep	2.0 # Timestep 2 fs
thermo          ${out_freq}
thermo          1000
thermo_style 	custom step temp pe ke etotal press lx ly lz xy xz yz
restart 	${out_freq} restart restart2
restart 	1000 restart restart2

velocity        all create ${temperature} ${seed} dist gaussian
velocity        all create 300 ${seed} dist gaussian
velocity        all create 300 98475 dist gaussian
# Perform minimization
minimize 1.0e-2 1.0e-3 100 1000
Switching to 'neigh_modify every 1 delay 0 check yes' setting during minimization
PPPM initialization ...
  using 12-bit tables for long-range coulomb (src/lammps-7Feb2024/src/kspace.cpp:342)
  G vector (1/distance) = 0.40023582
  grid = 8 8 8
  stencil order = 5
  estimated absolute RMS force accuracy = 0.7823365
  estimated relative force accuracy = 0.0023559831
  using double precision MKL FFT
  3d grid and FFT values/proc = 1089 48
Generated 0 of 6 mixed pair_coeff terms from geometric mixing rule
Neighbor list info ...
  update: every = 1 steps, delay = 0 steps, check = yes
  max neighbors/atom: 2000, page size: 100000
  master list distance cutoff = 7
  ghost atom cutoff = 7
  binsize = 3.5, bins = 5 5 5
  3 neighbor lists, perpetual/occasional/extra = 3 0 0
  (1) pair lj/cut/coul/long, perpetual, skip from (3)
      attributes: half, newton on
      pair build: skip
      stencil: none
      bin: none
  (2) pair buck/coul/long, perpetual, skip from (3)
      attributes: half, newton on
      pair build: skip
      stencil: none
      bin: none
  (3) neighbor class addition, perpetual
      attributes: half, newton on
      pair build: half/bin/newton
      stencil: half/bin/3d
      bin: standard
Per MPI rank memory allocation (min/avg/max) = 9.416 | 9.418 | 9.42 Mbytes
   Step          Temp          PotEng         KinEng         TotEng         Press            Lx             Ly             Lz             Xy             Xz             Yz      
         0   300            92556250       285.26352      92556536       6.8175783e+09  15.5           15.5           15.5           0              0              0            
        27   300           -1095.9406      285.26352     -810.67712     -2918.7587      15.5           15.5           15.5           0              0              0            
Loop time of 0.0159636 on 12 procs for 27 steps with 320 atoms

79.5% CPU use with 12 MPI tasks x 1 OpenMP threads

Minimization stats:
  Stopping criterion = energy tolerance
  Energy initial, next-to-last, final = 
       92556250.257805     -1089.35799481  -1095.94064566941
  Force two-norm initial, final = 1.8953089e+09 108.40957
  Force max component initial, final = 1.2163668e+09 24.333575
  Final line search alpha, max atom move = 0.0033714434 0.08203927
  Iterations, force evaluations = 27 35

MPI task timing breakdown:
Section |  min time  |  avg time  |  max time  |%varavg| %total
---------------------------------------------------------------
Pair    | 0.00051259 | 0.00070685 | 0.00086744 |   0.0 |  4.43
Bond    | 1.802e-05  | 2.8868e-05 | 3.9659e-05 |   0.0 |  0.18
Kspace  | 0.0064231  | 0.0068522  | 0.0071172  |   0.2 | 42.92
Neigh   | 0.00020641 | 0.00025168 | 0.00029002 |   0.0 |  1.58
Comm    | 0.0018537  | 0.0021583  | 0.0025536  |   0.5 | 13.52
Output  | 0          | 0          | 0          |   0.0 |  0.00
Modify  | 0          | 0          | 0          |   0.0 |  0.00
Other   |            | 0.005966   |            |       | 37.37

Nlocal:        26.6667 ave          32 max          19 min
Histogram: 1 0 2 1 0 1 1 2 2 2
Nghost:        766.167 ave         805 max         727 min
Histogram: 2 0 0 2 3 1 1 1 1 1
Neighs:              0 ave           0 max           0 min
Histogram: 12 0 0 0 0 0 0 0 0 0

Total # of neighbors = 0
Ave neighs/atom = 0
Ave special neighs/atom = 1.9875
Neighbor list builds = 3
Dangerous builds = 0

# Write trajectory to file
dump           	myDump all dcd ${out_freq2} out.dcd
dump           	myDump all dcd 10 out.dcd
#dump_modify    	myDump unwrap yes

# Start simulation

reset_timestep 	0


fix umb all plumed plumedfile plumed_6.dat outfile plumed.out
fix             1 all temp/csvr ${temperature} ${temperature} ${tempDamp} ${seed} # Bussi's thermostat
fix             1 all temp/csvr 300 ${temperature} ${tempDamp} ${seed} 
fix             1 all temp/csvr 300 300 ${tempDamp} ${seed} 
fix             1 all temp/csvr 300 300 100 ${seed} 
fix             1 all temp/csvr 300 300 100 98475 
fix             2 all shake 0.0001 20 0 t 1 2 # Shake algorithm
Finding SHAKE clusters ...
       0 = # of size 2 clusters
     106 = # of size 3 clusters
       0 = # of size 4 clusters
       0 = # of frozen angles
  find clusters CPU = 0.000 seconds
#fix             3 all nve
fix             3 all nph iso ${pressure} ${pressure} ${pressureDamp} # Isotropic barostat
fix             3 all nph iso 1 ${pressure} ${pressureDamp} 
fix             3 all nph iso 1 1 ${pressureDamp} 
fix             3 all nph iso 1 1 500 
fix 		4 all momentum 10000 linear 1 1 1 # Set total linear momentum to zero every 10000 steps

run 1000000
PPPM initialization ...
  using 12-bit tables for long-range coulomb (src/lammps-7Feb2024/src/kspace.cpp:342)
  G vector (1/distance) = 0.40023582
  grid = 8 8 8
  stencil order = 5
  estimated absolute RMS force accuracy = 0.7823365
  estimated relative force accuracy = 0.0023559831
  using double precision MKL FFT
  3d grid and FFT values/proc = 1089 48
Generated 0 of 6 mixed pair_coeff terms from geometric mixing rule
Per MPI rank memory allocation (min/avg/max) = 9.186 | 9.188 | 9.19 Mbytes
   Step          Temp          PotEng         KinEng         TotEng         Press            Lx             Ly             Lz             Xy             Xz             Yz      
         0   385.36913     -1127.6681      285.26352     -842.40459     -1411.0829      15.5           15.5           15.5           0              0              0            
      1000   325.21017     -1221.1201      240.73178     -980.38828      2071.1682      15.009078      15.009078      15.009078      0              0              0            
      2000   284.99646     -1190.7568      210.96421     -979.79256     -19.145985      15.202395      15.202395      15.202395      0              0              0            
      3000   294.01078     -1221.9068      217.63692     -1004.2699     -1896.8281      14.907997      14.907997      14.907997      0              0              0            
      4000   316.53641     -1166.4506      234.31117     -932.13942     -526.82297      14.921146      14.921146      14.921146      0              0              0            
      5000   305.71015     -1203.1251      226.2972      -976.82793     -501.59577      15.247011      15.247011      15.247011      0              0              0            
      6000   304.02672     -1194.4643      225.05107     -969.41321      706.27211      14.929951      14.929951      14.929951      0              0              0            
      7000   281.77696     -1213.7766      208.58103     -1005.1956     -1090.1733      14.969517      14.969517      14.969517      0              0              0            
      8000   302.27031     -1237.9872      223.75091     -1014.2363      774.92667      14.879579      14.879579      14.879579      0              0              0            
      9000   283.42561     -1230.6743      209.80141     -1020.8729     -1390.3359      15.136857      15.136857      15.136857      0              0              0            
     10000   314.88545     -1181.3043      233.08907     -948.21525      1349.3662      15.03447       15.03447       15.03447       0              0              0            
     11000   306.16903     -1198.2893      226.63688     -971.65242     -529.83948      15.099794      15.099794      15.099794      0              0              0            
     12000   301.45111     -1201.7931      223.14451     -978.64863     -1596.7987      14.92314       14.92314       14.92314       0              0              0            
     13000   307.27303     -1218.4188      227.4541      -990.96469      736.62873      14.960075      14.960075      14.960075      0              0              0            
     14000   303.24048     -1246.2177      224.46906     -1021.7486      490.58599      14.956807      14.956807      14.956807      0              0              0            
     15000   276.28023     -1198.4564      204.51215     -993.94428     -794.3487       15.070646      15.070646      15.070646      0              0              0            
     16000   302.41426     -1201.3482      223.85747     -977.49075     -429.75165      15.03383       15.03383       15.03383       0              0              0            
     17000   310.79132     -1188.1703      230.05845     -958.11185     -1762.6845      15.092581      15.092581      15.092581      0              0              0            
     18000   318.21977     -1216.1335      235.55725     -980.57624      1196.222       14.922849      14.922849      14.922849      0              0              0            
     19000   305.02175     -1194.5536      225.78762     -968.76598      1384.7189      15.011192      15.011192      15.011192      0              0              0            
     20000   302.46087     -1204.4906      223.89197     -980.59858     -595.85797      14.895617      14.895617      14.895617      0              0              0            
     21000   315.07707     -1201.0571      233.23091     -967.82618      760.40554      14.748722      14.748722      14.748722      0              0              0            
     22000   324.60881     -1207.2436      240.28664     -966.95699      634.83422      14.850356      14.850356      14.850356      0              0              0            
     23000   291.19331     -1215.1714      215.55134     -999.62002      360.37156      14.844807      14.844807      14.844807      0              0              0            
     24000   306.28175     -1198.8313      226.72031     -972.11095      1871.8312      14.808626      14.808626      14.808626      0              0              0            
     25000   301.40001     -1198.2466      223.10668     -975.13989     -1598.0054      15.288037      15.288037      15.288037      0              0              0            
     26000   312.93246     -1211.4852      231.6434      -979.8418       92.972179      14.924397      14.924397      14.924397      0              0              0            
     27000   309.63722     -1191.6223      229.20415     -962.41816      2312.2783      14.687439      14.687439      14.687439      0              0              0            
     28000   299.63509     -1203.1998      221.80023     -981.39953     -939.08177      15.23755       15.23755       15.23755       0              0              0            
     29000   304.04619     -1210.7082      225.06548     -985.64274      244.81814      15.244127      15.244127      15.244127      0              0              0            
     30000   288.14634     -1230.8554      213.29586     -1017.5595     -828.2763       14.805889      14.805889      14.805889      0              0              0            
     31000   285.87657     -1228.2197      211.6157      -1016.604      -1048.4387      14.801538      14.801538      14.801538      0              0              0            
     32000   298.12479     -1201.543       220.68225     -980.86073      1215.7245      15.026797      15.026797      15.026797      0              0              0            
     33000   293.23238     -1180.2423      217.06072     -963.18162     -718.71317      15.369331      15.369331      15.369331      0              0              0            
     34000   287.93138     -1196.3387      213.13674     -983.20194     -240.32898      14.900507      14.900507      14.900507      0              0              0            
     35000   292.30392     -1221.8083      216.37344     -1005.4348      1206.3978      14.936995      14.936995      14.936995      0              0              0            
     36000   309.03782     -1194.4656      228.76045     -965.70513      80.940332      14.966381      14.966381      14.966381      0              0              0            
     37000   305.30759     -1172.0337      225.99921     -946.03453     -78.276479      15.235687      15.235687      15.235687      0              0              0            
     38000   305.93899     -1181.5798      226.4666      -955.11324      1416.2487      15.030724      15.030724      15.030724      0              0              0            
     39000   301.96931     -1199.4942      223.5281      -975.96608      223.84239      14.724659      14.724659      14.724659      0              0              0            
     40000   285.63757     -1221.6537      211.43878     -1010.2149     -1130.4566      15.103526      15.103526      15.103526      0              0              0            
     41000   303.90381     -1187.424       224.96009     -962.4639      -271.26554      14.921792      14.921792      14.921792      0              0              0            
     42000   274.52015     -1180.2412      203.20929     -977.03193     -758.82245      15.119058      15.119058      15.119058      0              0              0            
     43000   286.71811     -1183.8169      212.23863     -971.57822     -891.23751      15.003571      15.003571      15.003571      0              0              0            
     44000   310.37503     -1199.6847      229.75031     -969.93435      375.39119      15.367782      15.367782      15.367782      0              0              0            
     45000   280.08471     -1191.2544      207.32837     -983.92606     -289.12151      15.126831      15.126831      15.126831      0              0              0            
     46000   289.21993     -1238.8838      214.09057     -1024.7932     -535.00306      14.852775      14.852775      14.852775      0              0              0            
     47000   282.99116     -1202.3267      209.47982     -992.84685     -991.15504      14.969697      14.969697      14.969697      0              0              0            
     48000   311.3071      -1206.8862      230.44026     -976.44594      1.3308072      14.812674      14.812674      14.812674      0              0              0            
     49000   301.33765     -1209.0479      223.06052     -985.98741      187.78033      15.08388       15.08388       15.08388       0              0              0            
     50000   285.39411     -1215.3527      211.25856     -1004.0942     -150.3622       14.874397      14.874397      14.874397      0              0              0            
     51000   274.4649      -1182.537       203.16839     -979.36858      617.48393      15.173751      15.173751      15.173751      0              0              0            
     52000   306.87829     -1187.9677      227.16189     -960.80583      2235.8513      14.71428       14.71428       14.71428       0              0              0            
     53000   281.06999     -1192.0652      208.0577      -984.00754      258.92405      15.118404      15.118404      15.118404      0              0              0            
     54000   320.18906     -1216.2289      237.01499     -979.2139      -701.51878      15.037485      15.037485      15.037485      0              0              0            
     55000   296.96989     -1183.2853      219.82736     -963.45791     -61.454944      14.92027       14.92027       14.92027       0              0              0            
     56000   314.76085     -1187.4628      232.99684     -954.46594     -211.92539      15.124311      15.124311      15.124311      0              0              0            
     57000   296.55886     -1175.2748      219.52309     -955.75171      601.04976      14.790451      14.790451      14.790451      0              0              0            
     58000   291.93542     -1189.8194      216.10067     -973.71877      898.03842      15.030964      15.030964      15.030964      0              0              0            
     59000   307.78079     -1212.4708      227.82995     -984.64081      1237.3766      14.790706      14.790706      14.790706      0              0              0            
     60000   320.66307     -1177.0295      237.36587     -939.66362      3069.6041      14.720151      14.720151      14.720151      0              0              0            
     61000   284.40378     -1197.1079      210.52549     -986.58238      271.37559      14.966395      14.966395      14.966395      0              0              0            
     62000   326.08384     -1223.2066      241.37851     -981.82809      1716.2915      14.749254      14.749254      14.749254      0              0              0            
     63000   317.17676     -1235.7723      234.78518     -1000.9871     -1824.6647      14.622205      14.622205      14.622205      0              0              0            
     64000   275.12821     -1196.9842      203.65939     -993.32478      99.465261      14.963764      14.963764      14.963764      0              0              0            
     65000   305.17123     -1232.0208      225.89827     -1006.1226     -154.35809      14.933368      14.933368      14.933368      0              0              0            
     66000   294.56171     -1199.0031      218.04474     -980.9584       421.07445      15.035905      15.035905      15.035905      0              0              0            
     67000   331.26838     -1189.6078      245.21628     -944.39152     -299.48936      15.033634      15.033634      15.033634      0              0              0            
     68000   293.20021     -1212.0955      217.03691     -995.05859     -140.46309      14.949952      14.949952      14.949952      0              0              0            
     69000   280.87656     -1219.1317      207.91452     -1011.2172      350.93112      15.102851      15.102851      15.102851      0              0              0            
     70000   325.53472     -1229.2255      240.97203     -988.25347      1678.9303      14.705884      14.705884      14.705884      0              0              0            
     71000   298.57459     -1208.5319      221.01521     -987.51666      1324.1187      15.130176      15.130176      15.130176      0              0              0            
     72000   291.00179     -1188.3794      215.40956     -972.9698      -815.31556      15.200856      15.200856      15.200856      0              0              0            
     73000   298.86902     -1213.0666      221.23316     -991.83345      2126.7564      14.764711      14.764711      14.764711      0              0              0            
     74000   307.43863     -1192.5075      227.57668     -964.93081     -573.08829      15.0578        15.0578        15.0578        0              0              0            
     75000   290.56017     -1206.0763      215.08266     -990.99365     -1575.8904      15.278767      15.278767      15.278767      0              0              0            
     76000   314.41978     -1206.1563      232.74437     -973.41193     -2997.7661      15.144732      15.144732      15.144732      0              0              0            
     77000   311.26843     -1190.8352      230.41163     -960.42357      206.80343      15.057961      15.057961      15.057961      0              0              0            
     78000   287.00092     -1192.4321      212.44798     -979.98409      304.74725      15.202934      15.202934      15.202934      0              0              0            
     79000   315.76656     -1210.437       233.7413      -976.6957       713.8742       14.995221      14.995221      14.995221      0              0              0            
     80000   310.79911     -1209.8824      230.06422     -979.81821      2487.3858      15.096054      15.096054      15.096054      0              0              0            
     81000   323.32338     -1219.0164      239.33512     -979.68128     -150.16154      15.263519      15.263519      15.263519      0              0              0            
     82000   292.75001     -1205.3532      216.70366     -988.64957     -2090.039       15.177872      15.177872      15.177872      0              0              0            
     83000   283.20917     -1220.4958      209.6412      -1010.8546     -1237.0417      15.241377      15.241377      15.241377      0              0              0            
     84000   312.57056     -1204.6903      231.37551     -973.31478     -699.5052       15.116602      15.116602      15.116602      0              0              0            
     85000   311.10788     -1172.5297      230.29278     -942.23692     -138.64023      15.116817      15.116817      15.116817      0              0              0            
     86000   299.07333     -1207.8384      221.3844      -986.45404     -327.00933      15.002104      15.002104      15.002104      0              0              0            
     87000   308.03243     -1199.067       228.01623     -971.05073     -103.01351      14.967056      14.967056      14.967056      0              0              0            
     88000   295.90933     -1220.9291      219.04229     -1001.8868      768.58213      14.941149      14.941149      14.941149      0              0              0            
     89000   316.34216     -1226.4513      234.16738     -992.2839      -863.51062      14.874952      14.874952      14.874952      0              0              0            
     90000   316.58041     -1216.6842      234.34374     -982.34047      454.8465       14.998154      14.998154      14.998154      0              0              0            
     91000   325.90168     -1199.6028      241.24367     -958.3591       180.83926      14.951658      14.951658      14.951658      0              0              0            
     92000   318.05758     -1176.8875      235.43719     -941.4503      -1208.5926      15.156653      15.156653      15.156653      0              0              0            
     93000   320.67497     -1210.939       237.37468     -973.56433     -533.73137      14.988997      14.988997      14.988997      0              0              0            
     94000   310.32817     -1194.9846      229.71562     -965.26902     -240.08121      15.071344      15.071344      15.071344      0              0              0            
     95000   288.31819     -1190.5899      213.42307     -977.16681     -1170.3769      15.04204       15.04204       15.04204       0              0              0            
     96000   273.95255     -1195.9367      202.78913     -993.14761     -2708.2573      15.07476       15.07476       15.07476       0              0              0            
     97000   282.83068     -1192.0707      209.36103     -982.70968      646.36893      15.020359      15.020359      15.020359      0              0              0            
     98000   291.85735     -1224.0724      216.04288     -1008.0295      897.53413      14.882956      14.882956      14.882956      0              0              0            
     99000   300.85141     -1204.9851      222.70059     -982.28448     -1375.4419      14.835623      14.835623      14.835623      0              0              0            
    100000   296.89891     -1197.7098      219.77481     -977.93495      608.93238      14.959926      14.959926      14.959926      0              0              0            
    101000   303.07945     -1191.0729      224.34987     -966.72303     -411.05259      14.977414      14.977414      14.977414      0              0              0            
    102000   281.90396     -1202.3258      208.67504     -993.65076      530.50527      14.973287      14.973287      14.973287      0              0              0            
    103000   268.97441     -1205.6749      199.10414     -1006.5707     -552.92418      14.899385      14.899385      14.899385      0              0              0            
    104000   300.09281     -1208.4497      222.13905     -986.3106       2260.7597      14.923909      14.923909      14.923909      0              0              0            
    105000   293.53797     -1193.0406      217.28693     -975.75364      2192.2034      14.939508      14.939508      14.939508      0              0              0            
    106000   326.18936     -1196.8358      241.45662     -955.37915      910.2262       14.959555      14.959555      14.959555      0              0              0            
    107000   311.92893     -1210.5637      230.90055     -979.66319      2129.2804      14.870593      14.870593      14.870593      0              0              0            
    108000   291.39255     -1202.0696      215.69882     -986.37082      781.33109      14.707459      14.707459      14.707459      0              0              0            
    109000   273.27498     -1173.0836      202.28757     -970.79598      28.254622      14.915438      14.915438      14.915438      0              0              0            
    110000   304.6467      -1186.4407      225.50999     -960.9307      -490.62534      15.109827      15.109827      15.109827      0              0              0            
    111000   305.50022     -1194.4059      226.1418      -968.26415      435.59496      14.745237      14.745237      14.745237      0              0              0            
    112000   305.857       -1212.5516      226.4059      -986.1457       1318.7922      14.642625      14.642625      14.642625      0              0              0            
    113000   286.97707     -1195.1973      212.43033     -982.76696     -295.94517      14.978303      14.978303      14.978303      0              0              0            
    114000   285.54327     -1223.8658      211.36898     -1012.4968      2230.8309      14.877519      14.877519      14.877519      0              0              0            
    115000   279.75359     -1220.1764      207.08326     -1013.0931      814.35751      14.747583      14.747583      14.747583      0              0              0            
    116000   290.23262     -1198.0355      214.84019     -983.19533     -411.52784      14.932723      14.932723      14.932723      0              0              0            
    117000   337.88385     -1173.5476      250.11328     -923.43429      2430.1099      15.060697      15.060697      15.060697      0              0              0            
    118000   306.74462     -1159.6807      227.06295     -932.6178      -1293.8303      15.207894      15.207894      15.207894      0              0              0            
    119000   295.20959     -1217.9108      218.52432     -999.38652     -1373.589       14.789094      14.789094      14.789094      0              0              0            
    120000   314.70489     -1192.7093      232.95542     -959.7539      -2454.2407      15.395419      15.395419      15.395419      0              0              0            
    121000   293.97197     -1198.0124      217.60819     -980.4042       1222.9938      15.021165      15.021165      15.021165      0              0              0            
    122000   301.89507     -1192.585       223.47315     -969.11185     -2259.6088      15.102607      15.102607      15.102607      0              0              0            
    123000   292.00537     -1231.6364      216.15244     -1015.4839     -143.22744      14.956101      14.956101      14.956101      0              0              0            
    124000   280.13122     -1206.3639      207.36279     -999.00113      1679.6166      14.897642      14.897642      14.897642      0              0              0            
    125000   318.00351     -1186.158       235.39717     -950.76085      17.058042      15.084179      15.084179      15.084179      0              0              0            
    126000   320.94061     -1210.5411      237.57131     -972.96974      149.79873      14.912443      14.912443      14.912443      0              0              0            
    127000   319.72617     -1198.8853      236.67234     -962.21296      984.61579      15.053666      15.053666      15.053666      0              0              0            
    128000   306.91214     -1210.516       227.18695     -983.32906      712.00323      15.168689      15.168689      15.168689      0              0              0            
    129000   298.71706     -1236.4239      221.12067     -1015.3032     -1501.8887      15.052241      15.052241      15.052241      0              0              0            
    130000   290.01209     -1230.3461      214.67695     -1015.6692      60.607243      14.930263      14.930263      14.930263      0              0              0            
    131000   298.24255     -1198.4892      220.76943     -977.71982      331.32491      14.679559      14.679559      14.679559      0              0              0            
    132000   275.23699     -1198.9043      203.73992     -995.16434      1973.5559      15.099444      15.099444      15.099444      0              0              0            
    133000   328.65973     -1195.7603      243.28527     -952.47501      2346.6716      14.94439       14.94439       14.94439       0              0              0            
    134000   329.04757     -1211.779       243.57236     -968.20661      622.75636      14.717619      14.717619      14.717619      0              0              0            
    135000   283.35787     -1206.7265      209.75127     -996.97523     -1706.8301      15.114812      15.114812      15.114812      0              0              0            
    136000   324.84327     -1222.0566      240.46019     -981.59645      810.06792      15.001917      15.001917      15.001917      0              0              0            
    137000   310.96147     -1232.2937      230.18441     -1002.1092     -281.06541      14.941769      14.941769      14.941769      0              0              0            
    138000   295.2067      -1198.797       218.52218     -980.27482      335.07397      15.126911      15.126911      15.126911      0              0              0            
    139000   301.44851     -1208.9031      223.14258     -985.76047     -1218.1697      15.140262      15.140262      15.140262      0              0              0            
    140000   307.6689      -1198.6791      227.74713     -970.93199      1616.6049      15.065865      15.065865      15.065865      0              0              0            
    141000   307.00158     -1213.1299      227.25316     -985.87669      2242.5194      14.819328      14.819328      14.819328      0              0              0            
    142000   304.76424     -1192.8743      225.597       -967.27726      434.74609      15.117888      15.117888      15.117888      0              0              0            
    143000   298.30306     -1197.923       220.81422     -977.10875     -849.19769      15.05988       15.05988       15.05988       0              0              0            
    144000   278.10516     -1197.1807      205.86304     -991.31767     -1120.8208      15.103554      15.103554      15.103554      0              0              0            
    145000   261.2852      -1219.6863      193.41231     -1026.274      -746.37575      14.932003      14.932003      14.932003      0              0              0            
    146000   273.6919      -1209.4277      202.59619     -1006.8315     -896.68312      15.259176      15.259176      15.259176      0              0              0            
    147000   346.22501     -1213.3229      256.2877      -957.03521     -1151.4558      15.008723      15.008723      15.008723      0              0              0            
    148000   294.06845     -1218.966       217.67961     -1001.2863     -998.19774      15.039019      15.039019      15.039019      0              0              0            
    149000   302.91643     -1220.0122      224.22919     -995.78297     -1006.1102      14.856271      14.856271      14.856271      0              0              0            
    150000   321.52772     -1216.099       238.00591     -978.09306     -1283.8762      15.085852      15.085852      15.085852      0              0              0            
    151000   283.6276      -1228.541       209.95093     -1018.5901     -760.87185      14.773579      14.773579      14.773579      0              0              0            
    152000   276.23253     -1227.6167      204.47685     -1023.1398     -2585.108       15.173996      15.173996      15.173996      0              0              0            
    153000   280.98198     -1227.8224      207.99255     -1019.8298     -585.80543      14.961995      14.961995      14.961995      0              0              0            
    154000   311.63315     -1190.3478      230.6816      -959.66619      164.3233       14.926299      14.926299      14.926299      0              0              0            
    155000   339.22834     -1214.6527      251.10852     -963.54416     -728.16193      14.92367       14.92367       14.92367       0              0              0            
    156000   303.29584     -1208.8237      224.51004     -984.31369     -1790.6676      15.080274      15.080274      15.080274      0              0              0            
    157000   307.60824     -1191.6418      227.70223     -963.93959      2616.924       14.8557        14.8557        14.8557        0              0              0            
    158000   276.03319     -1232.0066      204.32929     -1027.6773      1825.2688      14.919826      14.919826      14.919826      0              0              0            
    159000   285.79151     -1211.8447      211.55273     -1000.2919      107.89738      15.032042      15.032042      15.032042      0              0              0            
    160000   285.87078     -1229.1644      211.61141     -1017.553       29.533832      14.762993      14.762993      14.762993      0              0              0            
    161000   324.08835     -1179.2447      239.90138     -939.34329      693.75994      15.130191      15.130191      15.130191      0              0              0            
    162000   322.53501     -1190.3893      238.75154     -951.63775      495.53677      14.969566      14.969566      14.969566      0              0              0            
    163000   315.4602      -1224.9491      233.51452     -991.43457      51.412955      14.821536      14.821536      14.821536      0              0              0            
    164000   290.11508     -1180.091       214.75319     -965.33781     -281.79555      15.141967      15.141967      15.141967      0              0              0            
    165000   297.49479     -1210.8053      220.21591     -990.58935      442.22335      15.059576      15.059576      15.059576      0              0              0            
    166000   284.66505     -1191.4473      210.71889     -980.72836      845.02139      15.068925      15.068925      15.068925      0              0              0            
    167000   304.88324     -1208.6865      225.68509     -983.00139      86.902458      14.983908      14.983908      14.983908      0              0              0            
    168000   315.22036     -1169.6276      233.33699     -936.29058     -722.15192      15.280617      15.280617      15.280617      0              0              0            
    169000   308.63466     -1212.483       228.46202     -984.02102     -1320.5633      15.000995      15.000995      15.000995      0              0              0            
    170000   319.34884     -1244.702       236.39303     -1008.309      -1068.445       14.825022      14.825022      14.825022      0              0              0            
    171000   301.85111     -1208.4304      223.44061     -984.98977      1267.5994      14.773245      14.773245      14.773245      0              0              0            
    172000   306.13914     -1213.42        226.61475     -986.80525     -1193.5426      14.931349      14.931349      14.931349      0              0              0            
    173000   292.56596     -1215.7597      216.56742     -999.19232     -878.14252      14.733835      14.733835      14.733835      0              0              0            
    174000   297.08612     -1227.2503      219.91339     -1007.3369     -447.89936      14.83766       14.83766       14.83766       0              0              0            
    175000   314.35999     -1204.941       232.70011     -972.24094      2457.8683      14.889106      14.889106      14.889106      0              0              0            
    176000   304.86227     -1200.9219      225.66957     -975.25229     -539.16786      14.899795      14.899795      14.899795      0              0              0            
    177000   283.34761     -1194.1948      209.74368     -984.45107      605.07042      14.892586      14.892586      14.892586      0              0              0            
    178000   293.35012     -1199.7872      217.14788     -982.63931      231.52431      14.94042       14.94042       14.94042       0              0              0            
    179000   289.5941      -1200.4678      214.36754     -986.10026     -29.637272      14.950211      14.950211      14.950211      0              0              0            
    180000   304.25367     -1228.7404      225.21906     -1003.5213      1917.9925      14.707351      14.707351      14.707351      0              0              0            
    181000   300.06784     -1224.0121      222.12057     -1001.8915      514.96258      14.769214      14.769214      14.769214      0              0              0            
    182000   298.98211     -1200.4266      221.31687     -979.10975      117.80701      14.797367      14.797367      14.797367      0              0              0            
    183000   289.74328     -1232.6495      214.47797     -1018.1715     -19.374736      15.124572      15.124572      15.124572      0              0              0            
    184000   295.52339     -1209.9293      218.75661     -991.17266     -2106.3818      15.364954      15.364954      15.364954      0              0              0            
    185000   309.63819     -1203.8905      229.20487     -974.68562     -1893.7736      15.165797      15.165797      15.165797      0              0              0            
    186000   264.52188     -1247.9168      195.80822     -1052.1086      1846.7247      14.723369      14.723369      14.723369      0              0              0            
    187000   279.29983     -1163.8138      206.74737     -957.06645      2109.8486      15.285148      15.285148      15.285148      0              0              0            
    188000   332.57766     -1199.6877      246.18546     -953.50227     -133.80501      15.129253      15.129253      15.129253      0              0              0            
    189000   275.12641     -1192.5453      203.65806     -988.88728      19.423639      14.909902      14.909902      14.909902      0              0              0            
    190000   298.03377     -1198.9059      220.61488     -978.29105     -225.02142      15.098061      15.098061      15.098061      0              0              0            
    191000   314.22925     -1166.5175      232.60333     -933.9142       867.14796      15.011786      15.011786      15.011786      0              0              0            
    192000   312.83887     -1209.4152      231.57413     -977.84106      781.95684      15.04963       15.04963       15.04963       0              0              0            
    193000   325.80818     -1215.3611      241.17445     -974.18669     -7.9249032      14.984561      14.984561      14.984561      0              0              0            
    194000   309.65427     -1204.0169      229.21677     -974.8001      -425.86372      14.911435      14.911435      14.911435      0              0              0            
    195000   300.08694     -1215.1373      222.1347      -993.00261     -230.69392      15.061937      15.061937      15.061937      0              0              0            
    196000   310.09494     -1198.8772      229.54297     -969.33426     -21.30639       15.018689      15.018689      15.018689      0              0              0            
    197000   296.90195     -1159.298       219.77706     -939.52097      163.5262       15.288457      15.288457      15.288457      0              0              0            
    198000   318.02844     -1221.4633      235.41562     -986.0477       1165.1568      14.921369      14.921369      14.921369      0              0              0            
    199000   286.4151      -1181.4639      212.01434     -969.44954     -346.74892      15.178118      15.178118      15.178118      0              0              0            
    200000   293.73982     -1218.0286      217.43635     -1000.5923     -843.39679      14.956079      14.956079      14.956079      0              0              0            
    201000   296.05869     -1208.7081      219.15285     -989.55522      931.53048      14.947062      14.947062      14.947062      0              0              0            
    202000   319.10384     -1189.2072      236.21167     -952.99551     -1552.6651      15.009711      15.009711      15.009711      0              0              0            
    203000   296.64707     -1199.4399      219.5884      -979.85151      1516.5109      14.991516      14.991516      14.991516      0              0              0            
    204000   285.22458     -1167.3706      211.13307     -956.23749     -862.24882      14.976996      14.976996      14.976996      0              0              0            
    205000   275.1445      -1219.3009      203.67145     -1015.6294      123.07114      14.909455      14.909455      14.909455      0              0              0            
    206000   317.98188     -1185.5098      235.38116     -950.12869      781.43052      14.878078      14.878078      14.878078      0              0              0            
    207000   298.90935     -1204.9021      221.26301     -983.63913      1172.4179      14.952676      14.952676      14.952676      0              0              0            
    208000   291.06847     -1206.7355      215.45892     -991.27657      1018.2313      15.101921      15.101921      15.101921      0              0              0            
    209000   301.00387     -1216.4277      222.81345     -993.61424      613.01242      14.92605       14.92605       14.92605       0              0              0            
    210000   284.61502     -1184.0741      210.68186     -973.39222     -2338.3425      14.91809       14.91809       14.91809       0              0              0            
    211000   287.164       -1217.9004      212.5687      -1005.3317     -524.65908      15.139135      15.139135      15.139135      0              0              0            
    212000   310.09055     -1205.2375      229.53972     -975.69781      396.28384      15.026661      15.026661      15.026661      0              0              0            
    213000   333.73578     -1186.2561      247.04274     -939.2134      -16.404062      15.096202      15.096202      15.096202      0              0              0            
    214000   296.81289     -1178.2037      219.71114     -958.49258     -659.54528      14.908998      14.908998      14.908998      0              0              0            
    215000   324.61717     -1212.8259      240.29283     -972.53305     -625.70456      14.979123      14.979123      14.979123      0              0              0            
    216000   291.28964     -1184.7178      215.62264     -969.09521      880.98314      15.227837      15.227837      15.227837      0              0              0            
    217000   311.19473     -1204.5973      230.35707     -974.24025     -210.63484      15.015898      15.015898      15.015898      0              0              0            
    218000   284.23304     -1204.1617      210.3991      -993.76263      800.37439      14.964479      14.964479      14.964479      0              0              0            
    219000   301.11134     -1221.0973      222.893       -998.20434     -2081.058       15.279502      15.279502      15.279502      0              0              0            
    220000   319.47079     -1212.3108      236.4833      -975.82751     -1847.5072      15.183092      15.183092      15.183092      0              0              0            
    221000   317.77173     -1168.4778      235.2256      -933.25219      1306.5266      14.835655      14.835655      14.835655      0              0              0            
    222000   294.4369      -1184.5888      217.95235     -966.63644      1568.9527      15.026966      15.026966      15.026966      0              0              0            
    223000   328.23128     -1161.4739      242.96811     -918.50577      669.17511      14.883363      14.883363      14.883363      0              0              0            
    224000   293.50938     -1203.2275      217.26577     -985.96172     -2391.2466      15.040433      15.040433      15.040433      0              0              0            
    225000   329.43585     -1180.7539      243.85978     -936.89409      922.07234      15.163431      15.163431      15.163431      0              0              0            
    226000   317.73577     -1181.7431      235.19898     -946.54409      2337.0229      14.852785      14.852785      14.852785      0              0              0            
    227000   299.45292     -1201.4694      221.66538     -979.80404     -553.426        15.058836      15.058836      15.058836      0              0              0            
    228000   289.33815     -1208.7455      214.17808     -994.56743     -1309.7809      15.223897      15.223897      15.223897      0              0              0            
    229000   298.75881     -1193.2216      221.15158     -972.07006      69.181332      14.840865      14.840865      14.840865      0              0              0            
    230000   311.4087      -1229.8054      230.51546     -999.28997      1122.2426      14.770088      14.770088      14.770088      0              0              0            
    231000   270.61024     -1201.8397      200.31503     -1001.5247     -1599.8759      15.187243      15.187243      15.187243      0              0              0            
    232000   309.93242     -1227.8141      229.42267     -998.39147      203.80889      14.94473       14.94473       14.94473       0              0              0            
    233000   325.30611     -1189.8811      240.80281     -949.07826     -479.21379      15.141043      15.141043      15.141043      0              0              0            
    234000   317.67389     -1205.7199      235.15317     -970.5667      -775.73171      15.002532      15.002532      15.002532      0              0              0            
    235000   289.17549     -1225.1799      214.05767     -1011.1223      1380.3904      14.958277      14.958277      14.958277      0              0              0            
    236000   302.97405     -1215.0144      224.27185     -990.74256     -834.91337      15.267766      15.267766      15.267766      0              0              0            
    237000   310.58787     -1212.2121      229.90786     -982.30429     -950.15431      15.108137      15.108137      15.108137      0              0              0            
    238000   314.43636     -1196.1379      232.75664     -963.38124      545.96637      14.955345      14.955345      14.955345      0              0              0            
    239000   310.07294     -1216.2555      229.52669     -986.72884      590.13194      15.216229      15.216229      15.216229      0              0              0            
    240000   292.45983     -1214.2798      216.48886     -997.79098      40.646263      14.954893      14.954893      14.954893      0              0              0            
    241000   296.02111     -1194.0717      219.12504     -974.94666     -1334.3154      15.142505      15.142505      15.142505      0              0              0            
    242000   294.32082     -1233.1753      217.86642     -1015.3088     -1466.6756      14.948006      14.948006      14.948006      0              0              0            
    243000   288.03635     -1225.9228      213.21444     -1012.7083      863.22496      14.875544      14.875544      14.875544      0              0              0            
    244000   287.62545     -1235.1688      212.91028     -1022.2585     -1560.1948      14.800945      14.800945      14.800945      0              0              0            
    245000   318.31149     -1223.5856      235.62515     -987.9605      -1340.8908      14.772266      14.772266      14.772266      0              0              0            
    246000   308.23788     -1189.3319      228.16831     -961.16359     -411.57182      15.091597      15.091597      15.091597      0              0              0            
    247000   297.37859     -1257.6145      220.12989     -1037.4846     -311.75178      14.708302      14.708302      14.708302      0              0              0            
    248000   269.64891     -1233.9932      199.60343     -1034.3898      1570.6166      14.673145      14.673145      14.673145      0              0              0            
    249000   287.58223     -1194.3347      212.87828     -981.45638     -127.90865      14.863852      14.863852      14.863852      0              0              0            
    250000   304.16467     -1227.5101      225.15318     -1002.3569      71.313109      14.938785      14.938785      14.938785      0              0              0            
    251000   292.43133     -1217.2704      216.46776     -1000.8027      3187.4862      14.819035      14.819035      14.819035      0              0              0            
    252000   309.45754     -1240.9988      229.07115     -1011.9277     -384.0207       14.798041      14.798041      14.798041      0              0              0            
    253000   282.89032     -1215.2464      209.40517     -1005.8412     -2.344721       14.899691      14.899691      14.899691      0              0              0            
    254000   321.19502     -1211.0633      237.75964     -973.30367     -172.96345      14.830906      14.830906      14.830906      0              0              0            
    255000   293.17112     -1206.5603      217.01538     -989.54488     -1518.8569      15.022288      15.022288      15.022288      0              0              0            
    256000   310.33094     -1202.7079      229.71767     -972.99023      674.71473      15.05468       15.05468       15.05468       0              0              0            
    257000   331.66939     -1200.8679      245.51312     -955.35476     -353.1038       14.894847      14.894847      14.894847      0              0              0            
    258000   275.7381      -1205.8103      204.11085     -1001.6994     -10.51974       15.03496       15.03496       15.03496       0              0              0            
    259000   275.57609     -1186.4879      203.99093     -982.49701     -664.06139      14.982281      14.982281      14.982281      0              0              0            
    260000   281.68678     -1224.0156      208.51427     -1015.5013     -457.07558      14.954597      14.954597      14.954597      0              0              0            
    261000   289.4155      -1191.7421      214.23533     -977.50682     -904.22494      14.965121      14.965121      14.965121      0              0              0            
    262000   307.49426     -1226.5212      227.61786     -998.90333      1011.9422      14.834319      14.834319      14.834319      0              0              0            
    263000   311.90495     -1230.0094      230.88281     -999.12663     -1145.6447      15.161872      15.161872      15.161872      0              0              0            
    264000   321.29775     -1209.8783      237.83568     -972.04264      914.1163       14.958761      14.958761      14.958761      0              0              0            
    265000   279.13113     -1207.4724      206.62249     -1000.8499     -678.16511      15.027214      15.027214      15.027214      0              0              0            
    266000   284.73019     -1217.0158      210.76711     -1006.2486     -592.9416       14.890673      14.890673      14.890673      0              0              0            
    267000   294.09391     -1186.1741      217.69846     -968.47563     -1893.0769      15.306834      15.306834      15.306834      0              0              0            
    268000   293.14572     -1206.3093      216.99657     -989.31277      363.18335      14.992619      14.992619      14.992619      0              0              0            
    269000   278.2146      -1218.2883      205.94404     -1012.3442     -934.60903      14.818797      14.818797      14.818797      0              0              0            
    270000   307.97861     -1206.3346      227.97639     -978.35825     -1685.2529      15.040482      15.040482      15.040482      0              0              0            
    271000   306.34136     -1202.0641      226.76444     -975.29964     -2069.0262      15.074852      15.074852      15.074852      0              0              0            
    272000   326.36801     -1207.0918      241.58886     -965.50294      1304.3506      14.831643      14.831643      14.831643      0              0              0            
    273000   309.229       -1230.8599      228.90197     -1001.9579     -766.75874      14.865783      14.865783      14.865783      0              0              0            
    274000   321.89178     -1212.6393      238.2754      -974.36386      1399.8427      14.950837      14.950837      14.950837      0              0              0            
    275000   275.42421     -1203.9459      203.8785      -1000.0674     -1675.5957      14.960067      14.960067      14.960067      0              0              0            
    276000   293.90253     -1199.3319      217.55679     -981.77514     -926.18156      15.278576      15.278576      15.278576      0              0              0            
    277000   315.05484     -1222.0148      233.21446     -988.80038      351.87483      15.485237      15.485237      15.485237      0              0              0            
    278000   290.42917     -1189.7067      214.98569     -974.72103      1264.7688      15.24501       15.24501       15.24501       0              0              0            
    279000   283.08377     -1214.6799      209.54837     -1005.1315     -1021.5012      15.075301      15.075301      15.075301      0              0              0            
    280000   295.33606     -1239.3551      218.61794     -1020.7372     -367.17943      14.878936      14.878936      14.878936      0              0              0            
    281000   298.98605     -1209.9745      221.31979     -988.65467      533.45116      14.923958      14.923958      14.923958      0              0              0            
    282000   309.7933      -1184.6452      229.31969     -955.3255       1066.6975      14.920776      14.920776      14.920776      0              0              0            
    283000   303.6326      -1242.2525      224.75933     -1017.4931      317.04498      14.967425      14.967425      14.967425      0              0              0            
    284000   298.87061     -1239.4977      221.23434     -1018.2634      1410.374       14.962039      14.962039      14.962039      0              0              0            
    285000   302.55388     -1163.7332      223.96082     -939.77239      612.50768      14.866494      14.866494      14.866494      0              0              0            
    286000   292.0757      -1202.9243      216.20451     -986.71982      765.71378      15.152666      15.152666      15.152666      0              0              0            
    287000   277.54148     -1195.7252      205.44578     -990.27945     -1633.7534      14.880562      14.880562      14.880562      0              0              0            
    288000   308.01434     -1181.1479      228.00284     -953.14505      1621.3436      15.296752      15.296752      15.296752      0              0              0            
    289000   324.74951     -1210.1174      240.39079     -969.72666     -988.92723      15.090952      15.090952      15.090952      0              0              0            
    290000   323.11114     -1199.9991      239.17801     -960.82111     -96.957371      15.069022      15.069022      15.069022      0              0              0            
    291000   281.79465     -1211.3664      208.59412     -1002.7723     -414.95374      15.203677      15.203677      15.203677      0              0              0            
    292000   297.14132     -1211.4942      219.95425     -991.53997     -224.97979      14.846797      14.846797      14.846797      0              0              0            
    293000   298.31796     -1186.6638      220.82524     -965.83852     -1499.9654      15.321599      15.321599      15.321599      0              0              0            
    294000   323.05539     -1222.0181      239.13675     -982.88135      374.74524      15.120759      15.120759      15.120759      0              0              0            
    295000   311.54572     -1166.1056      230.61689     -935.48875      1218.682       15.107305      15.107305      15.107305      0              0              0            
    296000   318.27026     -1224.4778      235.59463     -988.88317     -358.49465      15.056141      15.056141      15.056141      0              0              0            
    297000   299.52172     -1185.9935      221.71631     -964.27715      624.15734      15.121314      15.121314      15.121314      0              0              0            
    298000   300.92447     -1197.2579      222.75467     -974.50323     -1525.5703      14.88288       14.88288       14.88288       0              0              0            
    299000   311.34988     -1174.8676      230.47192     -944.39569      54.878712      15.017807      15.017807      15.017807      0              0              0            
    300000   299.2092      -1183.7456      221.48497     -962.26063      667.35234      15.11958       15.11958       15.11958       0              0              0            
    301000   327.19044     -1188.6048      242.19765     -946.40715     -1189.9633      15.047585      15.047585      15.047585      0              0              0            
    302000   280.57658     -1175.6826      207.69246     -967.99013      24.670325      15.02996       15.02996       15.02996       0              0              0            
    303000   278.40652     -1184.1883      206.08611     -978.10214      1725.8612      14.917979      14.917979      14.917979      0              0              0            
    304000   299.26576     -1230.9036      221.52684     -1009.3768      82.984351      14.947726      14.947726      14.947726      0              0              0            
    305000   283.75151     -1211.2636      210.04266     -1001.2209      171.45743      14.706084      14.706084      14.706084      0              0              0            
    306000   306.7617      -1233.4371      227.07559     -1006.3615     -739.61546      14.975663      14.975663      14.975663      0              0              0            
    307000   287.48949     -1209.2621      212.80964     -996.45243      770.9686       14.878087      14.878087      14.878087      0              0              0            
    308000   288.15017     -1204.6978      213.29869     -991.39915     -594.03434      15.304743      15.304743      15.304743      0              0              0            
    309000   270.95031     -1170.3085      200.56677     -969.7417       1775.6813      14.79265       14.79265       14.79265       0              0              0            
    310000   308.6298      -1203.7962      228.45843     -975.33776     -1462.6349      15.113811      15.113811      15.113811      0              0              0            
    311000   283.9706      -1195.5561      210.20484     -985.35125     -1515.4111      15.216863      15.216863      15.216863      0              0              0            
    312000   317.05562     -1187.6738      234.69551     -952.9783       595.33507      14.99823       14.99823       14.99823       0              0              0            
    313000   296.12052     -1227.5521      219.19863     -1008.3535      2116.1001      15.032409      15.032409      15.032409      0              0              0            
    314000   279.5091      -1182.5167      206.90228     -975.61447     -236.76993      15.042897      15.042897      15.042897      0              0              0            
    315000   301.00547     -1195.6616      222.81463     -972.84702     -1294.6182      15.002743      15.002743      15.002743      0              0              0            
    316000   297.7582      -1199.0508      220.41089     -978.63988      998.49689      15.204611      15.204611      15.204611      0              0              0            
    317000   279.14765     -1211.6771      206.63472     -1005.0424     -28.936052      14.760231      14.760231      14.760231      0              0              0            
    318000   297.24858     -1189.2526      220.03365     -969.21893     -423.20529      14.944963      14.944963      14.944963      0              0              0            
    319000   321.48387     -1245.5965      237.97345     -1007.623      -2.019146       14.70287       14.70287       14.70287       0              0              0            
    320000   317.96119     -1214.3913      235.36584     -979.02551      86.140141      14.82344       14.82344       14.82344       0              0              0            
    321000   322.92977     -1195.6213      239.04376     -956.57752      492.82481      15.176549      15.176549      15.176549      0              0              0            
    322000   309.97694     -1189.2572      229.45563     -959.80155     -741.45958      15.029645      15.029645      15.029645      0              0              0            
    323000   298.12413     -1220.7753      220.68176     -1000.0935     -889.94902      14.971964      14.971964      14.971964      0              0              0            
    324000   307.53151     -1208.0948      227.64543     -980.4494      -1295.8138      14.946916      14.946916      14.946916      0              0              0            
    325000   290.45716     -1171.337       215.00641     -956.33062      1568.9219      15.016688      15.016688      15.016688      0              0              0            
    326000   275.83655     -1228.0315      204.18373     -1023.8477      295.61365      14.855687      14.855687      14.855687      0              0              0            
    327000   312.70466     -1220.8698      231.47477     -989.39506     -842.7325       15.033093      15.033093      15.033093      0              0              0            
    328000   311.00582     -1177.1402      230.21723     -946.923        1118.6678      14.849455      14.849455      14.849455      0              0              0            
    329000   280.97376     -1212.4192      207.98647     -1004.4327      758.62609      14.878555      14.878555      14.878555      0              0              0            
    330000   294.37556     -1223.0109      217.90695     -1005.1039      981.1238       14.972909      14.972909      14.972909      0              0              0            
    331000   306.62584     -1184.514       226.97502     -957.53895      1264.2105      15.144547      15.144547      15.144547      0              0              0            
    332000   322.39363     -1181.5641      238.64688     -942.91719     -540.01485      15.108228      15.108228      15.108228      0              0              0            
    333000   292.39185     -1222.0078      216.43853     -1005.5693      324.64689      15.035815      15.035815      15.035815      0              0              0            
    334000   307.40842     -1190.0979      227.55431     -962.54362      481.03435      15.22362       15.22362       15.22362       0              0              0            
    335000   295.52387     -1221.8964      218.75696     -1003.1395      839.97753      15.211846      15.211846      15.211846      0              0              0            
    336000   314.42865     -1179.7729      232.75093     -947.02192      1277.0368      15.266754      15.266754      15.266754      0              0              0            
    337000   318.62011     -1142.1217      235.85359     -906.26808     -36.545532      15.067144      15.067144      15.067144      0              0              0            
    338000   283.45553     -1196.2492      209.82356     -986.42567      733.44038      14.936825      14.936825      14.936825      0              0              0            
    339000   325.57555     -1175.5685      241.00225     -934.56629     -751.12703      15.147474      15.147474      15.147474      0              0              0            
    340000   282.83317     -1202.887       209.36287     -993.52408      85.593308      15.288679      15.288679      15.288679      0              0              0            
    341000   278.52336     -1214.4822      206.1726      -1008.3096     -2752.2902      15.270367      15.270367      15.270367      0              0              0            
    342000   300.5558      -1213.196       222.48177     -990.71426      1326.5564      14.958559      14.958559      14.958559      0              0              0            
    343000   327.13407     -1195.7669      242.15593     -953.611       -712.25228      15.523236      15.523236      15.523236      0              0              0            
    344000   297.65292     -1226.7593      220.33296     -1006.4263      953.98973      14.930007      14.930007      14.930007      0              0              0            
    345000   315.52977     -1204.8518      233.56602     -971.28574     -835.51108      14.964403      14.964403      14.964403      0              0              0            
    346000   288.61216     -1212.151       213.64067     -998.51034      60.939421      15.023904      15.023904      15.023904      0              0              0            
    347000   306.76469     -1177.4962      227.0778      -950.4184      -672.80522      15.353707      15.353707      15.353707      0              0              0            
    348000   291.57409     -1218.0365      215.8332      -1002.2033      1953.2628      14.873934      14.873934      14.873934      0              0              0            
    349000   293.31298     -1187.209       217.12039     -970.08856     -689.55808      14.892065      14.892065      14.892065      0              0              0            
    350000   270.437       -1194.7613      200.18679     -994.57452     -599.27279      14.925217      14.925217      14.925217      0              0              0            
    351000   290.34314     -1194.6515      214.92201     -979.72947     -1548.1701      15.160292      15.160292      15.160292      0              0              0            
    352000   281.01519     -1210.0804      208.01714     -1002.0632      260.20726      14.909848      14.909848      14.909848      0              0              0            
    353000   317.81402     -1165.139       235.2569      -929.88208     -1161.5595      15.159864      15.159864      15.159864      0              0              0            
    354000   293.3701      -1197.3118      217.16267     -980.14913      1358.1518      14.977193      14.977193      14.977193      0              0              0            
    355000   327.10067     -1171.3046      242.1312      -929.17335     -670.1225       15.264276      15.264276      15.264276      0              0              0            
    356000   290.5757      -1179.6727      215.09416     -964.57852      1554.9412      15.112399      15.112399      15.112399      0              0              0            
    357000   324.43856     -1194.5157      240.16061     -954.35508      349.73319      15.08962       15.08962       15.08962       0              0              0            
    358000   311.90793     -1191.7089      230.88501     -960.82394     -1177.1508      15.054851      15.054851      15.054851      0              0              0            
    359000   283.55837     -1185.624       209.89969     -975.72428      1777.2893      14.877635      14.877635      14.877635      0              0              0            
    360000   294.98757     -1225.7167      218.35998     -1007.3567      766.77075      14.964855      14.964855      14.964855      0              0              0            
    361000   323.05719     -1199.3153      239.13808     -960.1772       818.46827      15.072833      15.072833      15.072833      0              0              0            
    362000   308.9536      -1232.5725      228.69811     -1003.8744      740.51082      14.854218      14.854218      14.854218      0              0              0            
    363000   298.68108     -1210.4424      221.09404     -989.34834      566.74332      14.710783      14.710783      14.710783      0              0              0            
    364000   280.11218     -1208.7192      207.3487      -1001.3705     -127.90396      15.200371      15.200371      15.200371      0              0              0            
    365000   293.29219     -1186.1827      217.105       -969.0777      -1431.4539      15.137569      15.137569      15.137569      0              0              0            
    366000   289.43794     -1180.6931      214.25194     -966.44118      1541.6292      14.934908      14.934908      14.934908      0              0              0            
    367000   291.32038     -1170.1744      215.6454      -954.52902      1262.4782      14.876887      14.876887      14.876887      0              0              0            
    368000   273.60606     -1230.022       202.53265     -1027.4894      1894.0753      14.638055      14.638055      14.638055      0              0              0            
    369000   260.63617     -1203.1636      192.93189     -1010.2317     -1210.5173      15.00004       15.00004       15.00004       0              0              0            
    370000   314.78514     -1202.115       233.01482     -969.10022      591.16307      14.940895      14.940895      14.940895      0              0              0            
    371000   306.12921     -1214.9588      226.6074      -988.35138      1400.7456      14.881167      14.881167      14.881167      0              0              0            
    372000   296.19553     -1213.4751      219.25415     -994.221       -860.24068      15.205359      15.205359      15.205359      0              0              0            
    373000   268.16791     -1190.153       198.50714     -991.64591      889.09022      14.986515      14.986515      14.986515      0              0              0            
    374000   306.50833     -1200.9422      226.88804     -974.05411     -1408.0274      15.055826      15.055826      15.055826      0              0              0            
    375000   317.62049     -1186.8517      235.11365     -951.73806     -1061.8527      14.953546      14.953546      14.953546      0              0              0            
    376000   280.25109     -1178.6724      207.45153     -971.22087     -550.59121      15.211758      15.211758      15.211758      0              0              0            
    377000   274.9708      -1212.8217      203.54287     -1009.2788      2334.7876      14.8317        14.8317        14.8317        0              0              0            
    378000   290.93617     -1192.0775      215.36099     -976.71654     -1255.7155      15.178436      15.178436      15.178436      0              0              0            
    379000   308.93662     -1188.8039      228.68554     -960.11836      2090.2803      14.789995      14.789995      14.789995      0              0              0            
    380000   277.40659     -1236.9229      205.34593     -1031.577       2878.7819      14.922812      14.922812      14.922812      0              0              0            
    381000   273.23847     -1213.353       202.26054     -1011.0925      231.92171      14.812577      14.812577      14.812577      0              0              0            
    382000   291.17228     -1196.3886      215.53577     -980.85283     -168.60215      14.888569      14.888569      14.888569      0              0              0            
    383000   286.23063     -1203.3483      211.87779     -991.47052     -1426.7058      15.0405        15.0405        15.0405        0              0              0            
    384000   302.24856     -1197.3843      223.73481     -973.64952     -85.480338      15.20426       15.20426       15.20426       0              0              0            
    385000   307.7509      -1193.3831      227.80783     -965.57528      862.99556      14.856229      14.856229      14.856229      0              0              0            
    386000   304.72868     -1161.3109      225.57068     -935.74019     -1158.1137      15.059315      15.059315      15.059315      0              0              0            
    387000   295.93855     -1204.6444      219.06392     -985.58047     -853.42254      14.945335      14.945335      14.945335      0              0              0            
    388000   294.60388     -1176.0855      218.07596     -958.0095       90.151151      15.175586      15.175586      15.175586      0              0              0            
    389000   283.83747     -1233.069       210.10629     -1022.9627     -814.30317      14.970329      14.970329      14.970329      0              0              0            
    390000   308.64926     -1191.1641      228.47283     -962.69122      1662.166       15.151812      15.151812      15.151812      0              0              0            
    391000   278.50281     -1234.7129      206.15738     -1028.5555     -562.54513      14.963471      14.963471      14.963471      0              0              0            
    392000   296.69259     -1217.026       219.62209     -997.40387      897.0343       14.80885       14.80885       14.80885       0              0              0            
    393000   301.81408     -1198.4985      223.41319     -975.08528      1977.5394      15.03809       15.03809       15.03809       0              0              0            
    394000   295.54946     -1206.6748      218.7759      -987.89888     -386.04764      15.035334      15.035334      15.035334      0              0              0            
    395000   286.84329     -1243.3054      212.33129     -1030.9741      547.55497      14.884271      14.884271      14.884271      0              0              0            
    396000   302.9606      -1214.3387      224.26188     -990.0768       476.05979      14.931304      14.931304      14.931304      0              0              0            
    397000   323.06586     -1185.8571      239.1445      -946.7126      -857.36509      15.286254      15.286254      15.286254      0              0              0            
    398000   278.72938     -1201.483       206.3251      -995.1579      -2366.7954      15.193777      15.193777      15.193777      0              0              0            
    399000   302.80391     -1204.3642      224.1459      -980.21827     -597.94138      15.036655      15.036655      15.036655      0              0              0            
    400000   303.99393     -1241.6567      225.02679     -1016.6299     -774.24615      15.060956      15.060956      15.060956      0              0              0            
    401000   303.03102     -1174.9669      224.31401     -950.65289     -626.02526      15.370036      15.370036      15.370036      0              0              0            
    402000   306.04892     -1185.3718      226.54797     -958.82382     -1574.275       15.220683      15.220683      15.220683      0              0              0            
    403000   330.70478     -1204.5344      244.79908     -959.73528      450.6662       14.948786      14.948786      14.948786      0              0              0            
    404000   302.64387     -1191.5637      224.02743     -967.53625      2476.2513      15.080267      15.080267      15.080267      0              0              0            
    405000   315.1818      -1208.5858      233.30844     -975.27737     -1129.5693      15.069031      15.069031      15.069031      0              0              0            
    406000   286.63753     -1207.5641      212.17898     -995.38516      926.62312      14.916418      14.916418      14.916418      0              0              0            
    407000   285.54219     -1252.5887      211.36818     -1041.2205      1007.1653      14.836128      14.836128      14.836128      0              0              0            
    408000   284.87937     -1214.3835      210.87753     -1003.506      -178.40211      14.891637      14.891637      14.891637      0              0              0            
    409000   281.35017     -1191.0153      208.2651      -982.75024     -315.25051      14.910246      14.910246      14.910246      0              0              0            
    410000   278.12398     -1203.4936      205.87696     -997.61665     -314.64408      14.877564      14.877564      14.877564      0              0              0            
    411000   282.961       -1193.1732      209.45749     -983.71573     -132.81029      15.081918      15.081918      15.081918      0              0              0            
    412000   275.86295     -1168.0395      204.20327     -963.83628     -193.65424      14.989204      14.989204      14.989204      0              0              0            
    413000   316.49957     -1182.0534      234.2839      -947.76947      409.892        15.294083      15.294083      15.294083      0              0              0            
    414000   291.81998     -1203.8679      216.01522     -987.85273     -470.41318      15.121202      15.121202      15.121202      0              0              0            
    415000   299.50186     -1196.1095      221.7016      -974.40793      1973.7273      14.972521      14.972521      14.972521      0              0              0            
    416000   253.64694     -1205.8966      187.75821     -1018.1384      772.76858      15.088399      15.088399      15.088399      0              0              0            
    417000   295.63984     -1209.2966      218.8428      -990.4538      -1655.5788      15.126723      15.126723      15.126723      0              0              0            
    418000   305.505       -1216.9215      226.14534     -990.77613      1092.7189      14.940653      14.940653      14.940653      0              0              0            
    419000   308.68225     -1197.93        228.49725     -969.43279      232.77006      15.111268      15.111268      15.111268      0              0              0            
    420000   304.80827     -1201.8272      225.6296      -976.19764      1582.2783      15.216968      15.216968      15.216968      0              0              0            
    421000   309.54364     -1181.0388      229.13488     -951.90388     -952.0744       15.111735      15.111735      15.111735      0              0              0            
    422000   323.61522     -1216.8003      239.55115     -977.24919     -821.40941      15.152968      15.152968      15.152968      0              0              0            
    423000   288.68958     -1227.7028      213.69798     -1014.0048     -88.020742      15.092554      15.092554      15.092554      0              0              0            
    424000   310.69767     -1217.0785      229.98914     -987.08935      101.51372      14.938782      14.938782      14.938782      0              0              0            
    425000   286.84817     -1204.9163      212.33491     -992.58136      596.8369       15.24425       15.24425       15.24425       0              0              0            
    426000   289.24474     -1188.9049      214.10893     -974.79594      1752.9526      15.04306       15.04306       15.04306       0              0              0            
    427000   335.15789     -1206.4865      248.09543     -958.39103      253.06049      15.035035      15.035035      15.035035      0              0              0            
    428000   294.51887     -1166.1181      218.01302     -948.10511     -1072.3422      15.342943      15.342943      15.342943      0              0              0            
    429000   299.17466     -1228.5523      221.45941     -1007.0929     -707.15747      14.870394      14.870394      14.870394      0              0              0            
    430000   291.74283     -1208.1563      215.95811     -992.19819      661.13033      14.959999      14.959999      14.959999      0              0              0            
    431000   286.3249      -1193.0966      211.94757     -981.14907      168.14664      15.042482      15.042482      15.042482      0              0              0            
    432000   295.83369     -1187.3722      218.9863      -968.38593     -877.94592      15.083332      15.083332      15.083332      0              0              0            
    433000   297.54301     -1183.3704      220.2516      -963.11883     -764.73914      15.13521       15.13521       15.13521       0              0              0            
    434000   327.75348     -1226.8876      242.61443     -984.2732      -288.93292      15.041683      15.041683      15.041683      0              0              0            
    435000   289.5832      -1198.1568      214.35947     -983.79737     -1541.8213      14.810466      14.810466      14.810466      0              0              0            
    436000   302.61882     -1192.8126      224.00889     -968.80368     -1092.6534      14.827164      14.827164      14.827164      0              0              0            
    437000   303.62744     -1174.765       224.7555      -950.00946      1121.1343      14.793113      14.793113      14.793113      0              0              0            
    438000   303.11885     -1192.3081      224.37903     -967.9291       896.95124      14.895579      14.895579      14.895579      0              0              0            
    439000   305.5327      -1232.7088      226.16584     -1006.543      -864.3345       14.879005      14.879005      14.879005      0              0              0            
    440000   283.09499     -1204.629       209.55668     -995.07234     -959.71553      15.18          15.18          15.18          0              0              0            
    441000   287.07689     -1191.5593      212.50421     -979.05513     -720.15683      15.097906      15.097906      15.097906      0              0              0            
    442000   292.70669     -1183.8431      216.67159     -967.17148     -3.4642666      14.839898      14.839898      14.839898      0              0              0            
    443000   272.70085     -1192.1582      201.86258     -990.29566     -1246.7803      15.178382      15.178382      15.178382      0              0              0            
    444000   283.64615     -1200.0453      209.96467     -990.0806       56.346774      14.774315      14.774315      14.774315      0              0              0            
    445000   298.54055     -1207.5469      220.99002     -986.55684     -1591.7457      15.053934      15.053934      15.053934      0              0              0            
    446000   309.40956     -1172.8149      229.03563     -943.77923     -1447.0004      15.134968      15.134968      15.134968      0              0              0            
    447000   294.51977     -1183.0516      218.01369     -965.03792      2185.2316      14.9688        14.9688        14.9688        0              0              0            
    448000   310.68655     -1197.773       229.9809      -967.79211      1138.3835      15.115566      15.115566      15.115566      0              0              0            
    449000   309.53308     -1179.9987      229.12707     -950.87159      1392.1415      14.955991      14.955991      14.955991      0              0              0            
    450000   301.56739     -1174.1188      223.23058     -950.88819     -542.79311      15.23658       15.23658       15.23658       0              0              0            
    451000   297.46321     -1189.3624      220.19253     -969.16989      456.00246      14.809395      14.809395      14.809395      0              0              0            
    452000   263.60655     -1214.2413      195.13066     -1019.1107     -851.10663      15.089505      15.089505      15.089505      0              0              0            
    453000   289.62546     -1200.0019      214.39076     -985.61113     -350.42899      15.040537      15.040537      15.040537      0              0              0            
    454000   314.2916      -1204.9748      232.64948     -972.32534      940.26446      14.954308      14.954308      14.954308      0              0              0            
    455000   285.01238     -1211.5731      210.976       -1000.5971     -2284.7961      15.023169      15.023169      15.023169      0              0              0            
    456000   281.6108      -1212.5228      208.45803     -1004.0647      767.67534      15.229544      15.229544      15.229544      0              0              0            
    457000   295.99045     -1212.464       219.10234     -993.36163     -280.17913      15.146317      15.146317      15.146317      0              0              0            
    458000   290.05043     -1225.2746      214.70534     -1010.5693     -1005.2422      15.114667      15.114667      15.114667      0              0              0            
    459000   279.86107     -1193.0703      207.16282     -985.90747      1077.5063      15.137649      15.137649      15.137649      0              0              0            
    460000   325.01952     -1199.4241      240.59066     -958.83343      343.4785       15.204976      15.204976      15.204976      0              0              0            
    461000   336.86417     -1203.7559      249.35848     -954.39742      67.991727      14.912186      14.912186      14.912186      0              0              0            
    462000   288.0303      -1194.0934      213.20996     -980.88341     -315.8567       14.795207      14.795207      14.795207      0              0              0            
    463000   283.07416     -1204.8657      209.54126     -995.3244      -1093.4589      14.854512      14.854512      14.854512      0              0              0            
    464000   315.21357     -1189.2604      233.33196     -955.92847      470.83486      14.937375      14.937375      14.937375      0              0              0            
    465000   287.21857     -1181.0079      212.60909     -968.39885     -621.36171      15.115102      15.115102      15.115102      0              0              0            
    466000   280.20923     -1207.9421      207.42054     -1000.5216      510.71762      14.827898      14.827898      14.827898      0              0              0            
    467000   283.16496     -1217.7083      209.60847     -1008.0999     -10.39571       15.03558       15.03558       15.03558       0              0              0            
    468000   306.52817     -1214.0461      226.90273     -987.14333      1672.83        14.873981      14.873981      14.873981      0              0              0            
    469000   306.23758     -1179.5265      226.68762     -952.83887      2233.5572      15.030782      15.030782      15.030782      0              0              0            
    470000   323.92771     -1230.314       239.78247     -990.53157     -629.53468      14.995336      14.995336      14.995336      0              0              0            
    471000   293.42608     -1218.2909      217.2041      -1001.0868     -1337.2328      14.890436      14.890436      14.890436      0              0              0            
    472000   316.3634      -1161.6042      234.1831      -927.42115      609.69604      15.092565      15.092565      15.092565      0              0              0            
    473000   274.4671      -1200.7558      203.17001     -997.5858       1147.6094      14.952348      14.952348      14.952348      0              0              0            
    474000   290.2204      -1248.4222      214.83115     -1033.591      -397.71377      14.863277      14.863277      14.863277      0              0              0            
    475000   302.65457     -1193.2286      224.03535     -969.19321      1398.238       15.282374      15.282374      15.282374      0              0              0            
    476000   299.59479     -1210.604       221.7704      -988.83357      1270.9647      14.925725      14.925725      14.925725      0              0              0            
    477000   300.08566     -1199.9115      222.13376     -977.77773     -786.73548      14.875863      14.875863      14.875863      0              0              0            
    478000   289.91879     -1222.2128      214.60789     -1007.6049     -502.61276      14.849746      14.849746      14.849746      0              0              0            
    479000   280.9573      -1236.0697      207.97429     -1028.0954      998.88372      14.924129      14.924129      14.924129      0              0              0            
    480000   324.4912      -1221.1724      240.19958     -980.9728       312.80664      14.873241      14.873241      14.873241      0              0              0            
    481000   291.40372     -1234.4954      215.70708     -1018.7884      833.91975      14.705933      14.705933      14.705933      0              0              0            
    482000   282.89774     -1238.161       209.41067     -1028.7504     -1542.1706      14.912632      14.912632      14.912632      0              0              0            
    483000   282.45119     -1220.7212      209.08011     -1011.6411     -195.60129      14.899261      14.899261      14.899261      0              0              0            
    484000   312.9273      -1194.2993      231.63958     -962.65974     -668.58182      15.081046      15.081046      15.081046      0              0              0            
    485000   295.88241     -1190.0349      219.02237     -971.01252     -759.92778      14.89131       14.89131       14.89131       0              0              0            
    486000   314.22011     -1175.0904      232.59657     -942.49379     -1446.0721      15.293272      15.293272      15.293272      0              0              0            
    487000   306.75189     -1202.3016      227.06833     -975.2333       628.76688      14.881894      14.881894      14.881894      0              0              0            
    488000   311.85037     -1242.054       230.8424      -1011.2116     -1932.9388      15.131835      15.131835      15.131835      0              0              0            
    489000   266.24008     -1193.4208      197.08009     -996.34071      135.82974      15.047448      15.047448      15.047448      0              0              0            
    490000   299.41431     -1180.1348      221.6368      -958.49795     -794.23111      15.025721      15.025721      15.025721      0              0              0            
    491000   300.64978     -1172.3387      222.55134     -949.78737      505.02326      15.098665      15.098665      15.098665      0              0              0            
    492000   305.97641     -1209.6942      226.4943      -983.19985      517.33389      14.885197      14.885197      14.885197      0              0              0            
    493000   270.8027      -1206.9336      200.4575      -1006.4761     -735.30036      14.876278      14.876278      14.876278      0              0              0            
    494000   294.87522     -1251.6148      218.27681     -1033.338      -2090.9433      14.594856      14.594856      14.594856      0              0              0            
    495000   285.57767     -1238.5921      211.39444     -1027.1977      3519.3225      14.679563      14.679563      14.679563      0              0              0            
    496000   295.53021     -1228.5341      218.76165     -1009.7725     -1271.1846      14.907167      14.907167      14.907167      0              0              0            
    497000   312.74842     -1218.0289      231.50717     -986.52173     -808.2913       14.92022       14.92022       14.92022       0              0              0            
    498000   301.93053     -1167.7698      223.49939     -944.27043     -394.45824      15.203662      15.203662      15.203662      0              0              0            
    499000   273.72195     -1196.2053      202.61843     -993.58687      617.13826      15.023796      15.023796      15.023796      0              0              0            
    500000   310.77844     -1216.2608      230.04892     -986.21186      4897.7073      14.807191      14.807191      14.807191      0              0              0            
    501000   305.36037     -1178.6857      226.03828     -952.64746     -1223.0216      15.134786      15.134786      15.134786      0              0              0            
    502000   272.07309     -1227.4013      201.39789     -1026.0034     -100.35508      14.905972      14.905972      14.905972      0              0              0            
    503000   285.46777     -1205.6819      211.31309     -994.36878      142.6773       14.960625      14.960625      14.960625      0              0              0            
    504000   291.78571     -1201.5915      215.98985     -985.6017      -423.34684      14.994046      14.994046      14.994046      0              0              0            
    505000   265.31357     -1193.0388      196.39426     -996.64454     -1076.5336      15.103735      15.103735      15.103735      0              0              0            
    506000   292.28416     -1194.5542      216.35881     -978.1954       2757.8395      14.949095      14.949095      14.949095      0              0              0            
    507000   306.76555     -1194.0132      227.07845     -966.9348      -2371.0097      14.964859      14.964859      14.964859      0              0              0            
    508000   314.6421      -1187.4354      232.90894     -954.52645     -35.019484      15.062851      15.062851      15.062851      0              0              0            
    509000   308.21197     -1196.917       228.14913     -968.76784     -5.4337006      15.233513      15.233513      15.233513      0              0              0            
    510000   288.76727     -1174.569       213.75549     -960.81349     -123.55393      15.242371      15.242371      15.242371      0              0              0            
    511000   310.07365     -1196.3755      229.52722     -966.84824      758.6694       15.021561      15.021561      15.021561      0              0              0            
    512000   317.61195     -1169.931       235.10732     -934.8237      -2006.1179      15.128008      15.128008      15.128008      0              0              0            
    513000   293.83178     -1222.4468      217.50442     -1004.9424     -933.48677      14.915179      14.915179      14.915179      0              0              0            
    514000   278.81423     -1194.3756      206.38791     -987.98766      1270.9489      14.930575      14.930575      14.930575      0              0              0            
    515000   287.67316     -1190.2337      212.9456      -977.28814      426.12056      15.020254      15.020254      15.020254      0              0              0            
    516000   273.00136     -1219.2113      202.08503     -1017.1263      149.26365      14.833007      14.833007      14.833007      0              0              0            
    517000   314.27707     -1210.3147      232.63873     -977.67602      3748.9193      14.653098      14.653098      14.653098      0              0              0            
    518000   289.9815      -1209.6436      214.65431     -994.98925     -577.63385      14.724686      14.724686      14.724686      0              0              0            
    519000   289.46541     -1230.3324      214.27229     -1016.0601      657.13478      14.896438      14.896438      14.896438      0              0              0            
    520000   309.5683      -1234.5483      229.15313     -1005.3952     -7.8540351      15.110692      15.110692      15.110692      0              0              0            
    521000   316.41134     -1194.5744      234.21859     -960.35583     -2183.5837      15.015671      15.015671      15.015671      0              0              0            
    522000   297.62496     -1190.6791      220.31226     -970.36681     -2322.8606      15.353996      15.353996      15.353996      0              0              0            
    523000   265.29222     -1192.6176      196.37845     -996.23912     -2270.8312      15.066168      15.066168      15.066168      0              0              0            
    524000   288.47301     -1198.3785      213.53767     -984.84079     -1585.7014      15.011621      15.011621      15.011621      0              0              0            
    525000   300.12879     -1173.3603      222.16568     -951.19465      117.33588      15.331591      15.331591      15.331591      0              0              0            
    526000   307.88345     -1223.4897      227.90595     -995.58376      2351.327       14.91796       14.91796       14.91796       0              0              0            
    527000   306.49813     -1238.8674      226.88049     -1011.9869      1713.3026      14.829144      14.829144      14.829144      0              0              0            
    528000   302.14983     -1210.2586      223.66172     -986.59683      1436.3165      14.813425      14.813425      14.813425      0              0              0            
    529000   295.32128     -1184.5461      218.607       -965.93912      467.55664      15.061531      15.061531      15.061531      0              0              0            
    530000   278.63567     -1198.4322      206.25573     -992.17647      1915.354       14.994482      14.994482      14.994482      0              0              0            
    531000   299.88131     -1210.4691      221.98249     -988.48656     -1761.0922      14.982817      14.982817      14.982817      0              0              0            
    532000   298.34253     -1198.1371      220.84343     -977.29369      798.37053      14.953271      14.953271      14.953271      0              0              0            
    533000   333.09365     -1190.1026      246.56741     -943.53522      728.39186      15.023982      15.023982      15.023982      0              0              0            
    534000   277.28094     -1189.0374      205.25292     -983.78448      14.027242      15.196677      15.196677      15.196677      0              0              0            
    535000   316.55391     -1199.0455      234.32413     -964.72138     -872.28288      14.982614      14.982614      14.982614      0              0              0            
    536000   293.94675     -1197.1555      217.58952     -979.56594     -310.15903      15.040412      15.040412      15.040412      0              0              0            
    537000   352.04352     -1192.2973      260.59476     -931.7025      -205.26755      15.163389      15.163389      15.163389      0              0              0            
    538000   305.17742     -1164.8122      225.90285     -938.90931      1078.5861      15.097631      15.097631      15.097631      0              0              0            
    539000   324.28998     -1225.0213      240.05063     -984.97065      1027.0891      14.862478      14.862478      14.862478      0              0              0            
    540000   281.45227     -1183.5292      208.34068     -975.18855      1051.6177      14.88505       14.88505       14.88505       0              0              0            
    541000   319.98324     -1185.4229      236.86263     -948.56025     -1223.7233      15.139244      15.139244      15.139244      0              0              0            
    542000   294.0879      -1203.9853      217.69401     -986.29132     -2065.3802      14.965665      14.965665      14.965665      0              0              0            
    543000   307.62419     -1185.1156      227.71404     -957.4016      -218.63159      14.89553       14.89553       14.89553       0              0              0            
    544000   317.41835     -1176.153       234.96401     -941.18898     -929.79172      15.197229      15.197229      15.197229      0              0              0            
    545000   306.52419     -1193.4008      226.89978     -966.50104     -620.32676      15.110551      15.110551      15.110551      0              0              0            
    546000   284.91116     -1226.9095      210.90107     -1016.0084      2279.9684      14.921906      14.921906      14.921906      0              0              0            
    547000   299.56139     -1177.8759      221.74567     -956.13024     -140.74758      14.993094      14.993094      14.993094      0              0              0            
    548000   311.66008     -1224.6918      230.70154     -993.99028      1404.6929      15.061694      15.061694      15.061694      0              0              0            
    549000   276.93163     -1178.3237      204.99435     -973.32933      317.11992      14.936179      14.936179      14.936179      0              0              0            
    550000   316.4092      -1208.1046      234.21701     -973.88764     -1.3813586      14.808599      14.808599      14.808599      0              0              0            
    551000   295.87328     -1203.0086      219.01561     -983.99299     -79.580267      14.894053      14.894053      14.894053      0              0              0            
    552000   368.56029     -1215.2945      272.82104     -942.47341     -1296.6255      14.751711      14.751711      14.751711      0              0              0            
    553000   308.68801     -1184.7197      228.50151     -956.21817     -1711.8861      15.001593      15.001593      15.001593      0              0              0            
    554000   293.12213     -1192.3934      216.97911     -975.41429     -1345.8719      14.973486      14.973486      14.973486      0              0              0            
    555000   325.0292      -1181.6689      240.59783     -941.07105      2144.0925      15.022276      15.022276      15.022276      0              0              0            
    556000   294.24108     -1212.6485      217.80739     -994.8411       644.2808       14.961711      14.961711      14.961711      0              0              0            
    557000   301.60013     -1184.9541      223.25482     -961.69924      819.02842      14.722275      14.722275      14.722275      0              0              0            
    558000   325.92796     -1197.6187      241.26312     -956.35556      1012.992       14.918043      14.918043      14.918043      0              0              0            
    559000   295.80347     -1216.6255      218.96393     -997.66159     -212.84867      14.938036      14.938036      14.938036      0              0              0            
    560000   311.1051      -1225.5778      230.29072     -995.28704      1573.4456      14.723742      14.723742      14.723742      0              0              0            
    561000   289.66959     -1178.7821      214.42343     -964.35872      754.27951      14.827251      14.827251      14.827251      0              0              0            
    562000   287.04834     -1181.3259      212.48309     -968.84282     -470.46329      15.23297       15.23297       15.23297       0              0              0            
    563000   327.49266     -1170.0684      242.42136     -927.64705     -897.13711      15.133132      15.133132      15.133132      0              0              0            
    564000   301.13791     -1179.4993      222.91267     -956.58661     -1408.0345      15.272815      15.272815      15.272815      0              0              0            
    565000   301.96004     -1216.0673      223.52123     -992.54605      258.54442      15.061675      15.061675      15.061675      0              0              0            
    566000   289.30352     -1190.3344      214.15245     -976.18195     -226.09612      14.747279      14.747279      14.747279      0              0              0            
    567000   302.48757     -1220.7383      223.91173     -996.82661      302.58217      14.97135       14.97135       14.97135       0              0              0            
    568000   272.74645     -1209.3793      201.89633     -1007.483       647.40213      14.870522      14.870522      14.870522      0              0              0            
    569000   282.47459     -1188.8581      209.09743     -979.76068      857.5027       15.111886      15.111886      15.111886      0              0              0            
    570000   293.83339     -1181.6237      217.50561     -964.11807     -795.47591      14.965342      14.965342      14.965342      0              0              0            
    571000   275.98451     -1184.4348      204.29325     -980.14154      703.44067      14.793514      14.793514      14.793514      0              0              0            
    572000   273.05652     -1194.5573      202.12585     -992.43147      526.0928       14.948975      14.948975      14.948975      0              0              0            
    573000   280.69034     -1197.6581      207.77667     -989.88138     -544.49159      14.949031      14.949031      14.949031      0              0              0            
    574000   288.23877     -1210.6822      213.36428     -997.31791     -1011.9461      15.10781       15.10781       15.10781       0              0              0            
    575000   289.028       -1181.1491      213.94849     -967.20061      219.76672      15.114639      15.114639      15.114639      0              0              0            
    576000   326.72164     -1194.451       241.85063     -952.60036      1524.8369      14.88331       14.88331       14.88331       0              0              0            
    577000   283.12452     -1202.0991      209.57854     -992.52053      2562.8051      15.062228      15.062228      15.062228      0              0              0            
    578000   291.61643     -1190.0983      215.86454     -974.23372     -1680.0502      14.919956      14.919956      14.919956      0              0              0            
    579000   285.02933     -1209.7418      210.98854     -998.75322      1457.6177      14.777644      14.777644      14.777644      0              0              0            
    580000   328.12768     -1224.4221      242.89143     -981.53069      569.89252      15.062553      15.062553      15.062553      0              0              0            
    581000   318.04999     -1222.0099      235.43157     -986.57832     -1235.7487      15.051294      15.051294      15.051294      0              0              0            
    582000   305.74013     -1195.9703      226.31939     -969.65089      1094.9202      14.94321       14.94321       14.94321       0              0              0            
    583000   297.33992     -1172.5849      220.10127     -952.48363      1639.5558      14.911038      14.911038      14.911038      0              0              0            
    584000   307.76713     -1216.208       227.81984     -988.38811      1684.9181      14.825419      14.825419      14.825419      0              0              0            
    585000   298.63538     -1175.7968      221.06021     -954.73662      847.01285      15.188169      15.188169      15.188169      0              0              0            
    586000   299.95124     -1207.6372      222.03425     -985.60293     -812.92175      15.348609      15.348609      15.348609      0              0              0            
    587000   319.04863     -1177.7616      236.1708      -941.59082      1729.7914      15.301069      15.301069      15.301069      0              0              0            
    588000   315.12824     -1187.4852      233.2688      -954.21638      936.19727      15.135453      15.135453      15.135453      0              0              0            
    589000   310.3013      -1204.5131      229.69572     -974.81737      704.29238      14.966859      14.966859      14.966859      0              0              0            
    590000   314.64574     -1196.0841      232.91163     -963.1725      -493.48681      14.924194      14.924194      14.924194      0              0              0            
    591000   289.44565     -1213.8592      214.25766     -999.60157     -372.50016      14.947987      14.947987      14.947987      0              0              0            
    592000   324.80868     -1205.6841      240.43459     -965.24953      1000.206       15.086714      15.086714      15.086714      0              0              0            
    593000   282.1668      -1180.6567      208.8696      -971.78708      123.87809      15.256787      15.256787      15.256787      0              0              0            
    594000   275.71439     -1233.4533      204.0933      -1029.36        699.55766      14.991845      14.991845      14.991845      0              0              0            
    595000   318.79085     -1217.2936      235.97998     -981.31359      902.2498       15.158893      15.158893      15.158893      0              0              0            
    596000   293.41588     -1190.0391      217.19655     -972.84254      368.48115      15.013128      15.013128      15.013128      0              0              0            
    597000   296.63698     -1226.9877      219.58092     -1007.4068      173.46784      14.785818      14.785818      14.785818      0              0              0            
    598000   309.288       -1200.1903      228.94565     -971.24466      765.13274      14.815148      14.815148      14.815148      0              0              0            
    599000   289.63515     -1192.2995      214.39793     -977.9016      -972.91029      14.986697      14.986697      14.986697      0              0              0            
    600000   274.44609     -1177.9854      203.15446     -974.83094     -2177.7716      15.060416      15.060416      15.060416      0              0              0            
    601000   274.20171     -1198.8068      202.97356     -995.83323     -1062.1459      14.996921      14.996921      14.996921      0              0              0            
    602000   281.61429     -1223.7275      208.46061     -1015.2669     -1385.1524      14.901595      14.901595      14.901595      0              0              0            
    603000   302.6718      -1179.1332      224.04811     -955.08506      419.51533      14.962301      14.962301      14.962301      0              0              0            
    604000   311.5908      -1205.6961      230.65026     -975.04585     -1390.9049      15.014994      15.014994      15.014994      0              0              0            
    605000   271.70515     -1192.467       201.12553     -991.34145     -770.52312      15.057189      15.057189      15.057189      0              0              0            
    606000   322.67064     -1212.2597      238.85194     -973.40776     -1464.4548      14.945272      14.945272      14.945272      0              0              0            
    607000   329.09668     -1218.9121      243.60872     -975.30334      307.10402      14.984643      14.984643      14.984643      0              0              0            
    608000   316.09272     -1204.76        233.98273     -970.77726     -1048.0485      14.890422      14.890422      14.890422      0              0              0            
    609000   300.69515     -1194.5182      222.58493     -971.93324     -693.05021      15.037636      15.037636      15.037636      0              0              0            
    610000   277.03753     -1227.965       205.07273     -1022.8922      1190.517       15.026476      15.026476      15.026476      0              0              0            
    611000   279.31209     -1197.1457      206.75644     -990.38927      446.51052      15.086912      15.086912      15.086912      0              0              0            
    612000   318.2501      -1227.7245      235.5797      -992.14479      2183.1407      14.711577      14.711577      14.711577      0              0              0            
    613000   309.2214      -1190.4046      228.89634     -961.50826     -1032.5398      15.063989      15.063989      15.063989      0              0              0            
    614000   295.86623     -1189.7309      219.01039     -970.72056      1190.8996      14.824345      14.824345      14.824345      0              0              0            
    615000   309.10549     -1204.149       228.81055     -975.33842     -1679.9864      14.980499      14.980499      14.980499      0              0              0            
    616000   298.61842     -1212.0908      221.04765     -991.04311      880.60916      14.907838      14.907838      14.907838      0              0              0            
    617000   293.78604     -1197.8661      217.47056     -980.39549      1902.6371      14.864197      14.864197      14.864197      0              0              0            
    618000   284.78127     -1195.3566      210.80492     -984.55169     -956.12754      15.171038      15.171038      15.171038      0              0              0            
    619000   293.48869     -1175.4176      217.25046     -958.1671      -547.36947      15.037268      15.037268      15.037268      0              0              0            
    620000   311.2086      -1189.6646      230.36734     -959.29724     -410.02893      14.917057      14.917057      14.917057      0              0              0            
    621000   303.21407     -1225.2363      224.44952     -1000.7868      1058.1643      14.769297      14.769297      14.769297      0              0              0            
    622000   315.07628     -1150.3713      233.23033     -917.14099     -362.77407      14.962347      14.962347      14.962347      0              0              0            
    623000   307.20728     -1198.2133      227.40542     -970.80789      293.59789      15.135402      15.135402      15.135402      0              0              0            
    624000   299.57862     -1225.6748      221.75843     -1003.9164     -657.99059      14.985024      14.985024      14.985024      0              0              0            
    625000   297.80858     -1198.9024      220.44818     -978.45421     -204.5771       14.705934      14.705934      14.705934      0              0              0            
    626000   292.19198     -1212.4564      216.29058     -996.16579      352.94413      15.006488      15.006488      15.006488      0              0              0            
    627000   271.86608     -1217.5924      201.24465     -1016.3478     -1905.6295      15.201823      15.201823      15.201823      0              0              0            
    628000   295.31315     -1246.4778      218.60098     -1027.8769      1865.6409      14.598089      14.598089      14.598089      0              0              0            
    629000   294.70212     -1199.7394      218.14868     -981.59074      874.69634      14.630178      14.630178      14.630178      0              0              0            
    630000   307.42044     -1202.9256      227.56321     -975.36234     -1913.1218      15.007288      15.007288      15.007288      0              0              0            
    631000   301.13661     -1186.3972      222.91171     -963.48546      884.53364      14.901937      14.901937      14.901937      0              0              0            
    632000   304.69297     -1214.3904      225.54425     -988.8461      -828.5854       15.072113      15.072113      15.072113      0              0              0            
    633000   315.44224     -1222.3545      233.50123     -988.85331     -717.67854      14.934404      14.934404      14.934404      0              0              0            
    634000   296.55464     -1180.6079      219.51997     -961.08791     -202.78037      14.856608      14.856608      14.856608      0              0              0            
    635000   293.75602     -1179.0979      217.44834     -961.64958      1017.5584      14.849065      14.849065      14.849065      0              0              0            
    636000   304.78769     -1220.8656      225.61436     -995.25121      809.14961      14.955247      14.955247      14.955247      0              0              0            
    637000   296.54344     -1216.4602      219.51169     -996.94847      539.71612      15.064293      15.064293      15.064293      0              0              0            
    638000   278.17069     -1190.7591      205.91154     -984.84758     -13.573831      15.084291      15.084291      15.084291      0              0              0            
    639000   294.96866     -1224.2716      218.34598     -1005.9256     -849.31923      14.815499      14.815499      14.815499      0              0              0            
    640000   305.21318     -1226.4031      225.92933     -1000.4738      359.53562      14.935797      14.935797      14.935797      0              0              0            
    641000   322.78982     -1208.8988      238.94016     -969.95865     -708.74742      14.957934      14.957934      14.957934      0              0              0            
    642000   289.90095     -1212.2505      214.59469     -997.65584     -2195.1076      14.960293      14.960293      14.960293      0              0              0            
    643000   316.26791     -1204.9405      234.11242     -970.82806      1196.2418      14.845538      14.845538      14.845538      0              0              0            
    644000   308.28267     -1181.8781      228.20147     -953.67665     -703.45167      15.125158      15.125158      15.125158      0              0              0            
    645000   297.28802     -1217.5308      220.06285     -997.46791     -191.25564      14.829485      14.829485      14.829485      0              0              0            
    646000   316.01654     -1219.1483      233.92635     -985.22198     -2132.1172      15.086731      15.086731      15.086731      0              0              0            
    647000   287.5807      -1183.4865      212.87715     -970.60935     -1114.1481      14.898807      14.898807      14.898807      0              0              0            
    648000   298.16003     -1199.5956      220.70834     -978.88728     -245.06578      15.055397      15.055397      15.055397      0              0              0            
    649000   304.68965     -1181.5866      225.54179     -956.04481     -531.80376      14.835292      14.835292      14.835292      0              0              0            
    650000   327.8975      -1207.8501      242.72104     -965.12911      1484.6361      14.945004      14.945004      14.945004      0              0              0            
    651000   300.40998     -1179.7096      222.37383     -957.33576      447.92213      14.97118       14.97118       14.97118       0              0              0            
    652000   300.11554     -1182.3002      222.15587     -960.14433     -744.88777      15.055913      15.055913      15.055913      0              0              0            
    653000   336.46047     -1222.0994      249.05964     -973.03975      682.07446      15.053253      15.053253      15.053253      0              0              0            
    654000   280.58788     -1191.1314      207.70083     -983.4306       373.26768      15.257189      15.257189      15.257189      0              0              0            
    655000   300.03153     -1177.4123      222.09369     -955.3186       2499.3633      14.814171      14.814171      14.814171      0              0              0            
    656000   297.11535     -1179.9862      219.93503     -960.05112     -1351.357       14.887207      14.887207      14.887207      0              0              0            
    657000   312.39561     -1193.3512      231.24601     -962.10518      356.54261      15.054975      15.054975      15.054975      0              0              0            
    658000   283.86324     -1210.1261      210.12536     -1000.0007      601.38735      14.860325      14.860325      14.860325      0              0              0            
    659000   322.53514     -1198.6534      238.75164     -959.90178     -143.34545      14.850914      14.850914      14.850914      0              0              0            
    660000   296.00049     -1212.8657      219.10977     -993.75594     -334.91971      15.023364      15.023364      15.023364      0              0              0            
    661000   276.87793     -1174.4794      204.9546      -969.52482     -262.04176      15.282192      15.282192      15.282192      0              0              0            
    662000   302.4704      -1197.8559      223.89902     -973.95685     -68.325919      14.929466      14.929466      14.929466      0              0              0            
    663000   318.15517     -1196.8358      235.50943     -961.32641      195.22897      15.03222       15.03222       15.03222       0              0              0            
    664000   290.88233     -1204.0438      215.32113     -988.72263     -1235.3698      15.091682      15.091682      15.091682      0              0              0            
    665000   303.60674     -1217.7195      224.74018     -992.97933      2452.9667      14.836482      14.836482      14.836482      0              0              0            
    666000   317.16941     -1227.3795      234.77974     -992.59979      551.27977      15.028867      15.028867      15.028867      0              0              0            
    667000   311.4748      -1218.3095      230.56439     -987.74508      1338.23        14.716337      14.716337      14.716337      0              0              0            
    668000   298.9728      -1229.9228      221.30998     -1008.6128     -782.74349      14.835122      14.835122      14.835122      0              0              0            
    669000   281.43036     -1214.0849      208.32446     -1005.7605      725.43708      14.817165      14.817165      14.817165      0              0              0            
    670000   324.6432      -1200.4652      240.31209     -960.15313      2040.0849      14.960976      14.960976      14.960976      0              0              0            
    671000   292.2385      -1204.0249      216.32502     -987.69992      78.086507      15.155798      15.155798      15.155798      0              0              0            
    672000   260.08316     -1158.4252      192.52253     -965.9027       829.32066      15.247983      15.247983      15.247983      0              0              0            
    673000   320.87267     -1188.9569      237.52102     -951.43587     -2207.7093      15.021442      15.021442      15.021442      0              0              0            
    674000   327.01336     -1225.4631      242.06657     -983.39656     -738.16597      15.062464      15.062464      15.062464      0              0              0            
    675000   286.24046     -1218.5026      211.88506     -1006.6175     -2199.8957      15.071004      15.071004      15.071004      0              0              0            
    676000   266.63918     -1222.3036      197.37552     -1024.9281     -1203.088       14.643845      14.643845      14.643845      0              0              0            
    677000   299.92186     -1188.9386      222.0125      -966.92612      2441.7237      15.13701       15.13701       15.13701       0              0              0            
    678000   297.83239     -1191.4433      220.46581     -970.97754      690.8846       14.803867      14.803867      14.803867      0              0              0            
    679000   309.87679     -1205.9989      229.38149     -976.61743     -2162.5251      15.119273      15.119273      15.119273      0              0              0            
    680000   323.1503      -1209.4081      239.207       -970.20112      390.11628      14.779434      14.779434      14.779434      0              0              0            
    681000   291.24841     -1195.2871      215.59212     -979.69497      1367.3557      14.786876      14.786876      14.786876      0              0              0            
    682000   309.47438     -1195.4122      229.08361     -966.32856     -904.25387      15.062881      15.062881      15.062881      0              0              0            
    683000   295.77831     -1197.1439      218.9453      -978.19859     -810.80151      14.771575      14.771575      14.771575      0              0              0            
    684000   284.59879     -1197.0377      210.66984     -986.3679      -1022.2821      14.908643      14.908643      14.908643      0              0              0            
    685000   308.33732     -1188.3147      228.24192     -960.07282      80.689789      14.910635      14.910635      14.910635      0              0              0            
    686000   299.1673      -1206.1219      221.45395     -984.66794     -600.22715      14.90305       14.90305       14.90305       0              0              0            
    687000   313.90262     -1171.1957      232.36155     -938.83415     -523.71537      15.250712      15.250712      15.250712      0              0              0            
    688000   282.6204      -1186.8074      209.20537     -977.602       -682.42923      15.067616      15.067616      15.067616      0              0              0            
    689000   264.76426     -1229.0586      195.98764     -1033.071       17.6564        14.969483      14.969483      14.969483      0              0              0            
    690000   289.87855     -1232.4801      214.5781      -1017.902      -1861.3544      15.09427       15.09427       15.09427       0              0              0            
    691000   304.21425     -1215.0463      225.18988     -989.85638     -2055.9797      15.157478      15.157478      15.157478      0              0              0            
    692000   269.18747     -1191.4135      199.26185     -992.15165     -1166.0404      15.015958      15.015958      15.015958      0              0              0            
    693000   289.38703     -1215.748       214.21426     -1001.5338     -1285.7132      15.29303       15.29303       15.29303       0              0              0            
    694000   278.52967     -1224.7291      206.17727     -1018.5518     -1584.0705      14.944349      14.944349      14.944349      0              0              0            
    695000   308.56988     -1185.2185      228.41407     -956.80441     -1299.1625      15.085661      15.085661      15.085661      0              0              0            
    696000   308.8797      -1228.9904      228.64341     -1000.347      -1384.584       15.079574      15.079574      15.079574      0              0              0            
    697000   297.16087     -1190.3175      219.96873     -970.34876     -1273.8278      15.12121       15.12121       15.12121       0              0              0            
    698000   320.30289     -1206.1889      237.09924     -969.08962     -961.76093      14.923032      14.923032      14.923032      0              0              0            
    699000   291.71383     -1204.1839      215.93664     -988.24723     -150.63527      14.959777      14.959777      14.959777      0              0              0            
    700000   304.50418     -1228.6353      225.4045      -1003.2308     -105.39621      14.922423      14.922423      14.922423      0              0              0            
    701000   303.78463     -1202.2858      224.87186     -977.41396      63.447066      14.808189      14.808189      14.808189      0              0              0            
    702000   312.89501     -1218.0896      231.61568     -986.47397      1669.8593      14.765891      14.765891      14.765891      0              0              0            
    703000   306.81716     -1212.539       227.11664     -985.42236      635.31448      14.741793      14.741793      14.741793      0              0              0            
    704000   303.15073     -1227.2003      224.40263     -1002.7977      1063.6895      14.806589      14.806589      14.806589      0              0              0            
    705000   303.30573     -1192.8981      224.51737     -968.38074     -1421.6878      15.02797       15.02797       15.02797       0              0              0            
    706000   301.93465     -1156.7199      223.50244     -933.21742      441.86639      15.196233      15.196233      15.196233      0              0              0            
    707000   306.12796     -1207.502       226.60647     -980.89557     -722.9075       15.367514      15.367514      15.367514      0              0              0            
    708000   324.88474     -1192.8301      240.4909      -952.3392       1831.0274      14.920156      14.920156      14.920156      0              0              0            
    709000   299.68687     -1208.5099      221.83856     -986.6713       1113.7163      15.001301      15.001301      15.001301      0              0              0            
    710000   323.42593     -1221.3799      239.41103     -981.96884      128.83078      14.927532      14.927532      14.927532      0              0              0            
    711000   299.12823     -1198.9525      221.42503     -977.52751     -777.74066      15.099791      15.099791      15.099791      0              0              0            
    712000   289.60984     -1186.9463      214.3792      -972.5671      -1669.0104      15.176526      15.176526      15.176526      0              0              0            
    713000   318.08798     -1215.7253      235.4597      -980.26564     -847.67137      14.935567      14.935567      14.935567      0              0              0            
    714000   293.97259     -1219.0367      217.60865     -1001.428       1316.3395      14.909052      14.909052      14.909052      0              0              0            
    715000   297.50148     -1203.1407      220.22086     -982.91984      111.48987      14.834574      14.834574      14.834574      0              0              0            
    716000   284.76311     -1206.0058      210.79147     -995.21428     -1765.7763      14.948968      14.948968      14.948968      0              0              0            
    717000   323.14138     -1192.7075      239.2004      -953.50705     -1106.4266      15.145197      15.145197      15.145197      0              0              0            
    718000   312.51685     -1188.9727      231.33575     -957.63693      232.87345      15.066094      15.066094      15.066094      0              0              0            
    719000   290.91983     -1197.1418      215.3489      -981.79287     -1114.8126      15.008661      15.008661      15.008661      0              0              0            
    720000   317.48684     -1192.0342      235.01471     -957.01946      1020.5022      14.979783      14.979783      14.979783      0              0              0            
    721000   308.03124     -1193.5138      228.01535     -965.49844      664.39555      15.009181      15.009181      15.009181      0              0              0            
    722000   289.56737     -1208.1544      214.34776     -993.80666     -2268.4189      15.090406      15.090406      15.090406      0              0              0            
    723000   280.54038     -1233.6493      207.66567     -1025.9837      2290.6199      14.674535      14.674535      14.674535      0              0              0            
    724000   293.79014     -1230.6391      217.4736      -1013.1655      519.24969      14.816917      14.816917      14.816917      0              0              0            
    725000   307.908       -1217.9801      227.92413     -990.05593     -1023.7108      14.926813      14.926813      14.926813      0              0              0            
    726000   292.62977     -1207.3039      216.61465     -990.68924     -95.2164        14.727183      14.727183      14.727183      0              0              0            
    727000   295.18569     -1235.4721      218.50663     -1016.9654     -241.55872      14.772781      14.772781      14.772781      0              0              0            
    728000   284.61554     -1195.5685      210.68224     -984.8863      -1644.5204      15.114466      15.114466      15.114466      0              0              0            
    729000   293.69362     -1217.9595      217.40215     -1000.5573     -572.68171      14.956038      14.956038      14.956038      0              0              0            
    730000   307.25512     -1194.4709      227.44084     -967.0301       1561.4857      15.383536      15.383536      15.383536      0              0              0            
    731000   287.2477      -1222.0413      212.63066     -1009.4106      86.500018      14.81329       14.81329       14.81329       0              0              0            
    732000   290.10467     -1211.7442      214.74549     -996.99874     -340.88758      14.98094       14.98094       14.98094       0              0              0            
    733000   330.06222     -1226.8046      244.32344     -982.48111     -1274.4765      15.11646       15.11646       15.11646       0              0              0            
    734000   327.80795     -1222.8741      242.65475     -980.21931     -686.89189      14.940801      14.940801      14.940801      0              0              0            
    735000   322.01926     -1213.4203      238.36976     -975.05055     -2134.5116      14.899243      14.899243      14.899243      0              0              0            
    736000   298.71018     -1215.3716      221.11558     -994.25606     -622.87028      15.082619      15.082619      15.082619      0              0              0            
    737000   306.14467     -1217.0592      226.61884     -990.44035      1274.6258      15.059762      15.059762      15.059762      0              0              0            
    738000   291.15223     -1192.1566      215.52093     -976.63565      2403.572       15.010711      15.010711      15.010711      0              0              0            
    739000   282.87706     -1208.3926      209.39536     -998.99722      1745.0496      15.032703      15.032703      15.032703      0              0              0            
    740000   307.79498     -1193.689       227.84046     -965.84854      1183.8201      14.960985      14.960985      14.960985      0              0              0            
    741000   327.41735     -1163.0383      242.36562     -920.6727      -570.58433      15.027134      15.027134      15.027134      0              0              0            
    742000   302.00191     -1214.2043      223.55223     -990.65207      213.85923      15.098494      15.098494      15.098494      0              0              0            
    743000   308.43683     -1212.9089      228.31558     -984.59327      1041.1252      14.867466      14.867466      14.867466      0              0              0            
    744000   292.68032     -1210.1114      216.65207     -993.45933      2718.9238      14.847144      14.847144      14.847144      0              0              0            
    745000   282.08511     -1207.6341      208.80913     -998.82494     -1906.3971      15.224951      15.224951      15.224951      0              0              0            
    746000   285.43498     -1207.5849      211.28881     -996.29608     -1526.0051      15.189491      15.189491      15.189491      0              0              0            
    747000   318.391       -1173.69        235.684       -938.00603     -994.99117      15.004268      15.004268      15.004268      0              0              0            
    748000   307.88395     -1204.385       227.90632     -976.4787      -332.97438      14.959655      14.959655      14.959655      0              0              0            
    749000   274.46966     -1189.0524      203.17191     -985.8805      -913.65045      15.031049      15.031049      15.031049      0              0              0            
    750000   271.40658     -1218.8706      200.90451     -1017.9661     -675.91052      15.02127       15.02127       15.02127       0              0              0            
    751000   263.65229     -1211.2813      195.16452     -1016.1168      228.08198      15.185618      15.185618      15.185618      0              0              0            
    752000   295.45501     -1214.2395      218.70599     -995.53348      299.53484      15.00229       15.00229       15.00229       0              0              0            
    753000   283.61745     -1205.9538      209.94342     -996.01042     -1467.2686      15.115066      15.115066      15.115066      0              0              0            
    754000   318.31882     -1214.7507      235.63057     -979.12013     -1136.0297      15.024697      15.024697      15.024697      0              0              0            
    755000   316.89714     -1193.6814      234.5782      -959.10323      1990.1761      15.024191      15.024191      15.024191      0              0              0            
    756000   307.52116     -1211.5086      227.63777     -983.87079     -286.05988      15.056634      15.056634      15.056634      0              0              0            
    757000   285.39753     -1229.6275      211.2611      -1018.3664      1375.4408      14.864943      14.864943      14.864943      0              0              0            
    758000   319.48694     -1219.3917      236.49526     -982.89642     -260.70106      14.886931      14.886931      14.886931      0              0              0            
    759000   292.80159     -1225.3436      216.74184     -1008.6018     -276.8623       15.121314      15.121314      15.121314      0              0              0            
    760000   300.56732     -1212.7633      222.4903      -990.27305     -1664.7599      14.966238      14.966238      14.966238      0              0              0            
    761000   321.2796      -1184.92        237.82224     -947.09774     -679.83749      15.117817      15.117817      15.117817      0              0              0            
    762000   296.7317      -1202.1589      219.65104     -982.50783     -1061.8219      15.199376      15.199376      15.199376      0              0              0            
    763000   284.02655     -1191.259       210.24625     -981.01271     -171.13378      15.097033      15.097033      15.097033      0              0              0            
    764000   297.11562     -1216.7564      219.93523     -996.82117      3323.6971      14.596258      14.596258      14.596258      0              0              0            
    765000   306.82475     -1195.8947      227.12227     -968.77245     -1325.0683      14.848542      14.848542      14.848542      0              0              0            
    766000   312.13608     -1186.7581      231.05389     -955.70421      32.45259       14.897297      14.897297      14.897297      0              0              0            
    767000   301.59783     -1182.635       223.25312     -959.38184     -1240.7758      15.041967      15.041967      15.041967      0              0              0            
    768000   307.41396     -1180.5656      227.55842     -953.00723     -130.46992      14.978366      14.978366      14.978366      0              0              0            
    769000   294.42521     -1231.1707      217.9437      -1013.227       1752.8136      14.762164      14.762164      14.762164      0              0              0            
    770000   303.32069     -1214.1614      224.52844     -989.63292     -1101.0305      14.978388      14.978388      14.978388      0              0              0            
    771000   291.81435     -1237.8117      216.01105     -1021.8006     -1037.3832      14.910234      14.910234      14.910234      0              0              0            
    772000   314.78079     -1216.2541      233.0116      -983.24248      1446.9423      14.782141      14.782141      14.782141      0              0              0            
    773000   273.40869     -1189.9835      202.38654     -987.59695      503.34967      14.858857      14.858857      14.858857      0              0              0            
    774000   298.87608     -1205.5675      221.23838     -984.32912     -934.03984      14.871508      14.871508      14.871508      0              0              0            
    775000   304.06072     -1162.9593      225.07623     -937.88308     -360.22426      15.136367      15.136367      15.136367      0              0              0            
    776000   315.04509     -1221.389       233.20724     -988.18181     -76.679565      14.79914       14.79914       14.79914       0              0              0            
    777000   292.22239     -1215.0253      216.31309     -998.71222      415.55953      14.752523      14.752523      14.752523      0              0              0            
    778000   286.22209     -1197.1503      211.87146     -985.2788      -286.5775       15.171341      15.171341      15.171341      0              0              0            
    779000   278.74189     -1194.3124      206.33437     -987.97802     -54.753449      15.039         15.039         15.039         0              0              0            
    780000   281.86763     -1190.6587      208.64814     -982.01059      615.83189      14.963069      14.963069      14.963069      0              0              0            
    781000   269.95276     -1191.9964      199.82835     -992.16803      174.67355      14.853642      14.853642      14.853642      0              0              0            
    782000   297.7664      -1209.8368      220.41696     -989.41986     -467.37947      14.93099       14.93099       14.93099       0              0              0            
    783000   298.34486     -1207.8637      220.84515     -987.01858      2849.8816      14.815424      14.815424      14.815424      0              0              0            
    784000   321.91495     -1204.8651      238.29255     -966.57253      1428.1345      14.732549      14.732549      14.732549      0              0              0            
    785000   291.73728     -1198.1796      215.954       -982.2256       578.36979      14.917147      14.917147      14.917147      0              0              0            
    786000   305.58568     -1195.1024      226.20506     -968.89736     -639.06029      15.098658      15.098658      15.098658      0              0              0            
    787000   301.01686     -1199.2141      222.82307     -976.39103      339.89738      15.27044       15.27044       15.27044       0              0              0            
    788000   309.19146     -1202.0259      228.87419     -973.15168     -263.77071      15.041659      15.041659      15.041659      0              0              0            
    789000   294.79442     -1182.9615      218.217       -964.74452      716.14966      15.015002      15.015002      15.015002      0              0              0            
    790000   314.25774     -1175.3338      232.62442     -942.70936      949.63437      15.195394      15.195394      15.195394      0              0              0            
    791000   310.11081     -1185.1594      229.55472     -955.60472      1119.0917      15.308202      15.308202      15.308202      0              0              0            
    792000   340.05937     -1222.0249      251.72367     -970.30123     -270.20711      14.961656      14.961656      14.961656      0              0              0            
    793000   331.94813     -1193.6374      245.71946     -947.91797     -692.79024      15.049237      15.049237      15.049237      0              0              0            
    794000   300.78926     -1194.3815      222.65458     -971.72693     -1235.9172      15.012044      15.012044      15.012044      0              0              0            
    795000   291.377       -1216.9884      215.6873      -1001.3011     -2241.4141      15.235255      15.235255      15.235255      0              0              0            
    796000   287.62245     -1220.7749      212.90806     -1007.8668     -1966.7405      15.001754      15.001754      15.001754      0              0              0            
    797000   322.76284     -1219.3384      238.92019     -980.41817      2962.5951      14.746566      14.746566      14.746566      0              0              0            
    798000   305.76456     -1199.0807      226.33747     -972.74319      1461.5734      14.951278      14.951278      14.951278      0              0              0            
    799000   303.13405     -1231.728       224.39028     -1007.3377      2442.7646      14.976203      14.976203      14.976203      0              0              0            
    800000   311.42255     -1206.81        230.52572     -976.28429      916.77525      14.708478      14.708478      14.708478      0              0              0            
    801000   284.97179     -1206.0461      210.94595     -995.10018      1318.9504      14.881092      14.881092      14.881092      0              0              0            
    802000   275.00571     -1200.5251      203.56871     -996.95639     -438.62041      14.879447      14.879447      14.879447      0              0              0            
    803000   321.80302     -1226.4636      238.20969     -988.25393      2272.2391      14.76176       14.76176       14.76176       0              0              0            
    804000   293.36262     -1194.6077      217.15713     -977.45056     -318.27493      15.151372      15.151372      15.151372      0              0              0            
    805000   282.42827     -1209.3112      209.06315     -1000.248       1248.6009      15.090281      15.090281      15.090281      0              0              0            
    806000   308.81776     -1196.7349      228.59756     -968.13739      884.70108      14.888709      14.888709      14.888709      0              0              0            
    807000   277.08408     -1222.7879      205.1072      -1017.6807     -81.338684      14.79314       14.79314       14.79314       0              0              0            
    808000   292.23945     -1185.1042      216.32572     -968.77853      365.67198      15.002612      15.002612      15.002612      0              0              0            
    809000   300.58027     -1199.5987      222.49988     -977.09882      429.72771      14.951975      14.951975      14.951975      0              0              0            
    810000   309.75014     -1237.111       229.28774     -1007.8233     -336.83056      14.989103      14.989103      14.989103      0              0              0            
    811000   293.32718     -1215.8379      217.1309      -998.70701     -750.34115      14.953361      14.953361      14.953361      0              0              0            
    812000   301.51946     -1218.7845      223.1951      -995.58938     -626.13652      14.928526      14.928526      14.928526      0              0              0            
    813000   289.04657     -1158.4533      213.96224     -944.49104     -1217.909       15.107507      15.107507      15.107507      0              0              0            
    814000   289.43917     -1228.839       214.25286     -1014.5862     -179.97032      14.95636       14.95636       14.95636       0              0              0            
    815000   294.28449     -1193.9115      217.83953     -976.07196     -124.27391      15.139537      15.139537      15.139537      0              0              0            
    816000   299.38836     -1210.0462      221.61759     -988.42858     -1242.7349      15.150493      15.150493      15.150493      0              0              0            
    817000   319.33033     -1181.099       236.37933     -944.71965      2346.8333      14.860175      14.860175      14.860175      0              0              0            
    818000   269.47308     -1219.6834      199.47327     -1020.2101      1046.376       14.731618      14.731618      14.731618      0              0              0            
    819000   310.73574     -1231.5714      230.01731     -1001.5541     -171.74383      14.920379      14.920379      14.920379      0              0              0            
    820000   296.26902     -1194.4827      219.30855     -975.17412     -743.31316      14.837615      14.837615      14.837615      0              0              0            
    821000   305.31987     -1185.4994      226.0083      -959.49112     -1763.9203      15.154353      15.154353      15.154353      0              0              0            
    822000   303.58584     -1194.8397      224.72471     -970.11498      723.46701      15.278932      15.278932      15.278932      0              0              0            
    823000   301.03987     -1213.669       222.84009     -990.82893     -218.43149      14.928731      14.928731      14.928731      0              0              0            
    824000   300.26719     -1176.795       222.26813     -954.52682     -1212.918       15.050834      15.050834      15.050834      0              0              0            
    825000   287.83648     -1197.3742      213.06649     -984.30769     -11.941953      14.829351      14.829351      14.829351      0              0              0            
    826000   301.77702     -1216.2768      223.38576     -992.891       -1019.9219      15.093976      15.093976      15.093976      0              0              0            
    827000   300.92226     -1211.4116      222.75304     -988.65855     -69.666858      15.195142      15.195142      15.195142      0              0              0            
    828000   265.40605     -1199.3027      196.46271     -1002.84        81.655047      14.827224      14.827224      14.827224      0              0              0            
    829000   277.31734     -1213.0118      205.27986     -1007.7319      2052.1025      14.926478      14.926478      14.926478      0              0              0            
    830000   288.71917     -1206.6702      213.71989     -992.95027     -579.38663      15.022774      15.022774      15.022774      0              0              0            
    831000   274.03016     -1191.349       202.84657     -988.50243     -716.85836      15.048095      15.048095      15.048095      0              0              0            
    832000   317.93309     -1175.36        235.34504     -940.01491     -67.303899      15.074675      15.074675      15.074675      0              0              0            
    833000   301.5623      -1188.1913      223.22681     -964.96447      654.80001      14.895933      14.895933      14.895933      0              0              0            
    834000   328.87832     -1214.1379      243.44708     -970.69081      3287.852       14.800694      14.800694      14.800694      0              0              0            
    835000   295.67505     -1189.6561      218.86887     -970.78718     -1389.2761      15.156487      15.156487      15.156487      0              0              0            
    836000   289.52648     -1221.1384      214.31749     -1006.8209     -735.35443      15.093093      15.093093      15.093093      0              0              0            
    837000   313.31804     -1201.5118      231.92882     -969.58293     -907.22555      15.103129      15.103129      15.103129      0              0              0            
    838000   317.8694      -1215.2641      235.2979      -979.96617     -1998.5754      15.067881      15.067881      15.067881      0              0              0            
    839000   318.5059      -1203.7328      235.76906     -967.96378     -1474.8547      14.977638      14.977638      14.977638      0              0              0            
    840000   297.86419     -1214.9096      220.48935     -994.42023      5.4717672      15.043438      15.043438      15.043438      0              0              0            
    841000   315.86573     -1190.7717      233.81471     -956.95703      3839.3821      15.037967      15.037967      15.037967      0              0              0            
    842000   291.17894     -1223.7093      215.5407      -1008.1686      744.99506      14.878371      14.878371      14.878371      0              0              0            
    843000   287.13231     -1222.104       212.54524     -1009.5588     -1993.7333      15.100543      15.100543      15.100543      0              0              0            
    844000   304.13855     -1215.1801      225.13384     -990.04624     -712.86954      14.883972      14.883972      14.883972      0              0              0            
    845000   307.45824     -1220.7708      227.5912      -993.17958     -37.444533      14.80857       14.80857       14.80857       0              0              0            
    846000   286.17529     -1164.1994      211.83682     -952.36256      174.1657       15.284804      15.284804      15.284804      0              0              0            
    847000   309.62288     -1206.0633      229.19354     -976.86975      1488.9842      14.845096      14.845096      14.845096      0              0              0            
    848000   306.87191     -1210.134       227.15718     -982.97679      523.67427      14.881127      14.881127      14.881127      0              0              0            
    849000   298.88982     -1196.0331      221.24855     -974.78458     -773.52642      15.304789      15.304789      15.304789      0              0              0            
    850000   299.03163     -1173.3205      221.35353     -951.967       -295.30863      14.873592      14.873592      14.873592      0              0              0            
    851000   287.80831     -1175.7529      213.04564     -962.70729      167.15075      14.850126      14.850126      14.850126      0              0              0            
    852000   298.83286     -1208.8979      221.20639     -987.69154      1331.4652      14.761542      14.761542      14.761542      0              0              0            
    853000   274.94075     -1210.1507      203.52063     -1006.63        1204.2536      14.766646      14.766646      14.766646      0              0              0            
    854000   318.99785     -1219.926       236.13322     -983.79282      267.28103      14.804417      14.804417      14.804417      0              0              0            
    855000   320.23277     -1196.8888      237.04734     -959.84151      2303.8046      14.739653      14.739653      14.739653      0              0              0            
    856000   296.02035     -1200.9435      219.12447     -981.81899     -1796.621       15.071928      15.071928      15.071928      0              0              0            
    857000   325.08088     -1205.9984      240.63608     -965.36228     -311.97139      14.908833      14.908833      14.908833      0              0              0            
    858000   301.2862      -1193.6977      223.02243     -970.67528      594.17065      15.162603      15.162603      15.162603      0              0              0            
    859000   308.1984      -1179.2308      228.13909     -951.09172      272.45778      15.045164      15.045164      15.045164      0              0              0            
    860000   303.35515     -1189.5794      224.55395     -965.02547     -1622.6249      15.02665       15.02665       15.02665       0              0              0            
    861000   291.3847      -1201.3606      215.69301     -985.66762     -26.527332      15.058032      15.058032      15.058032      0              0              0            
    862000   296.17396     -1212.1496      219.23818     -992.91145      583.9931       14.798876      14.798876      14.798876      0              0              0            
    863000   299.54921     -1171.7549      221.73666     -950.01825      373.21424      15.241158      15.241158      15.241158      0              0              0            
    864000   301.03355     -1200.4937      222.83542     -977.65827     -2803.3415      15.065714      15.065714      15.065714      0              0              0            
    865000   311.62704     -1181.6684      230.67709     -950.99136     -1149.3752      15.251351      15.251351      15.251351      0              0              0            
    866000   345.47741     -1180.2633      255.7343      -924.52902      320.3223       15.079438      15.079438      15.079438      0              0              0            
    867000   286.89114     -1187.2154      212.36672     -974.84866     -1.2712806      15.071719      15.071719      15.071719      0              0              0            
    868000   300.96592     -1198.283       222.78536     -975.49767      2214.8242      14.990045      14.990045      14.990045      0              0              0            
    869000   337.89902     -1208.8277      250.12451     -958.70319      705.73443      14.966398      14.966398      14.966398      0              0              0            
    870000   317.27        -1200.8893      234.8542      -966.0351       2481.4777      14.867326      14.867326      14.867326      0              0              0            
    871000   280.22573     -1190.5505      207.43275     -983.1177      -557.01241      15.043991      15.043991      15.043991      0              0              0            
    872000   296.09689     -1182.2614      219.18113     -963.08025      992.31317      15.176958      15.176958      15.176958      0              0              0            
    873000   302.7358      -1214.1946      224.09548     -990.09911     -169.41215      14.777952      14.777952      14.777952      0              0              0            
    874000   277.95927     -1200.5791      205.75504     -994.82406     -1074.226       15.188437      15.188437      15.188437      0              0              0            
    875000   287.73057     -1165.1897      212.98809     -952.2016      -2576.0774      15.365123      15.365123      15.365123      0              0              0            
    876000   280.08335     -1197.884       207.32735     -990.55666     -1400.0115      15.082603      15.082603      15.082603      0              0              0            
    877000   302.58152     -1217.2544      223.98128     -993.27307     -961.22692      15.074448      15.074448      15.074448      0              0              0            
    878000   318.07087     -1216.5512      235.44703     -981.10422     -398.19482      15.188189      15.188189      15.188189      0              0              0            
    879000   325.61841     -1206.2129      241.03398     -965.17897      2603.9073      15.041255      15.041255      15.041255      0              0              0            
    880000   320.75224     -1228.4658      237.43187     -991.0339       3165.1133      14.752135      14.752135      14.752135      0              0              0            
    881000   309.57864     -1242.2317      229.16079     -1013.0709      918.65659      14.860477      14.860477      14.860477      0              0              0            
    882000   310.91682     -1220.1718      230.15135     -990.02045      591.53582      15.098268      15.098268      15.098268      0              0              0            
    883000   297.46015     -1184.286       220.19026     -964.09569      655.06555      15.085153      15.085153      15.085153      0              0              0            
    884000   290.25687     -1210.5747      214.85815     -995.71656      2349.7546      14.716151      14.716151      14.716151      0              0              0            
    885000   311.13192     -1212.5024      230.31058     -982.19183      234.3075       15.032469      15.032469      15.032469      0              0              0            
    886000   296.97599     -1193.5573      219.83187     -973.72538      218.01753      15.136776      15.136776      15.136776      0              0              0            
    887000   295.05005     -1203.0898      218.40622     -984.68355     -630.42984      15.163819      15.163819      15.163819      0              0              0            
    888000   304.49507     -1206.6381      225.39775     -981.24035     -1537.829       14.988543      14.988543      14.988543      0              0              0            
    889000   281.80342     -1215.3851      208.60061     -1006.7845     -370.0983       14.885329      14.885329      14.885329      0              0              0            
    890000   305.59845     -1251.1668      226.21451     -1024.9523      382.94936      14.83135       14.83135       14.83135       0              0              0            
    891000   303.034       -1191.6621      224.31622     -967.34591     -687.37983      14.972636      14.972636      14.972636      0              0              0            
    892000   283.75441     -1205.086       210.0448      -995.0412      -1066.7337      15.055529      15.055529      15.055529      0              0              0            
    893000   302.10864     -1188.5093      223.63124     -964.87803      2731.4282      14.748812      14.748812      14.748812      0              0              0            
    894000   306.60441     -1203.8394      226.95916     -976.88022      1002.0194      15.062704      15.062704      15.062704      0              0              0            
    895000   323.92726     -1207.4915      239.78213     -967.7094       1181.4909      14.879216      14.879216      14.879216      0              0              0            
    896000   305.93443     -1225.0083      226.46322     -998.5451      -1926.8568      14.981035      14.981035      14.981035      0              0              0            
    897000   307.88161     -1217.8652      227.90459     -989.96058     -1518.3004      14.824815      14.824815      14.824815      0              0              0            
    898000   278.12316     -1233.6095      205.87636     -1027.7331      2509.1715      14.903907      14.903907      14.903907      0              0              0            
    899000   301.50342     -1220.4786      223.18323     -997.29533     -627.60462      14.837085      14.837085      14.837085      0              0              0            
    900000   292.95466     -1208.2689      216.85515     -991.41376     -1799.3085      14.837722      14.837722      14.837722      0              0              0            
    901000   297.50634     -1201.9958      220.22446     -981.77137     -1361.9556      14.896951      14.896951      14.896951      0              0              0            
    902000   315.48489     -1187.0864      233.5328      -953.5536      -1410.6232      14.961052      14.961052      14.961052      0              0              0            
    903000   309.3365      -1246.8019      228.98155     -1017.8203      1550.8         14.915431      14.915431      14.915431      0              0              0            
    904000   286.66279     -1234.4928      212.19768     -1022.2952     -713.91287      14.733416      14.733416      14.733416      0              0              0            
    905000   326.90947     -1201.3974      241.98967     -959.40772      956.23453      14.906585      14.906585      14.906585      0              0              0            
    906000   313.51073     -1186.344       232.07146     -954.27249      1943.9582      14.963838      14.963838      14.963838      0              0              0            
    907000   317.52883     -1219.1845      235.04579     -984.13874     -79.127678      15.237841      15.237841      15.237841      0              0              0            
    908000   317.69245     -1212.3903      235.16691     -977.22336      2361.3588      14.880901      14.880901      14.880901      0              0              0            
    909000   287.94468     -1175.4768      213.14659     -962.33022      762.19612      15.115333      15.115333      15.115333      0              0              0            
    910000   316.18626     -1199.9531      234.05197     -965.90111     -2252.3684      15.078322      15.078322      15.078322      0              0              0            
    911000   317.55712     -1194.1762      235.06673     -959.10945     -1177.5825      15.22645       15.22645       15.22645       0              0              0            
    912000   315.60995     -1200.8506      233.62537     -967.22524     -398.79559      15.224924      15.224924      15.224924      0              0              0            
    913000   300.00091     -1172.1854      222.07102     -950.11434      255.56089      14.942111      14.942111      14.942111      0              0              0            
    914000   302.19988     -1184.8427      223.69878     -961.14392     -559.27621      15.171088      15.171088      15.171088      0              0              0            
    915000   306.53088     -1188.72        226.90473     -961.81528      1985.045       14.99542       14.99542       14.99542       0              0              0            
    916000   294.59383     -1193.1612      218.06851     -975.09269     -1415.7078      15.109156      15.109156      15.109156      0              0              0            
    917000   295.43907     -1209.1433      218.69419     -990.4491       346.92125      15.0786        15.0786        15.0786        0              0              0            
    918000   285.86561     -1183.7373      211.60759     -972.12976     -201.31566      15.05329       15.05329       15.05329       0              0              0            
    919000   293.4127      -1208.5866      217.1942      -991.39241      1379.3987      15.051184      15.051184      15.051184      0              0              0            
    920000   297.06981     -1222.6675      219.90132     -1002.7662     -448.36297      14.846234      14.846234      14.846234      0              0              0            
    921000   282.89453     -1235.7021      209.40829     -1026.2939     -208.08525      15.111653      15.111653      15.111653      0              0              0            
    922000   317.47439     -1205.7852      235.00549     -970.77969     -1165.2931      14.949586      14.949586      14.949586      0              0              0            
    923000   280.78553     -1202.4549      207.84714     -994.60771      1149.1227      14.767329      14.767329      14.767329      0              0              0            
    924000   284.65612     -1183.5528      210.71228     -972.8405       815.56435      15.033175      15.033175      15.033175      0              0              0            
    925000   302.27371     -1200.8463      223.75343     -977.09288      242.16572      15.061927      15.061927      15.061927      0              0              0            
    926000   314.94403     -1230.5711      233.13243     -997.43863     -97.48603       14.996835      14.996835      14.996835      0              0              0            
    927000   278.79525     -1198.2323      206.37386     -991.85846     -365.22607      15.124605      15.124605      15.124605      0              0              0            
    928000   302.26454     -1208.3084      223.74664     -984.56179      1127.7285      14.898397      14.898397      14.898397      0              0              0            
    929000   293.45843     -1198.5432      217.22805     -981.31515     -712.19596      14.93831       14.93831       14.93831       0              0              0            
    930000   271.52934     -1219.5238      200.99539     -1018.5284     -1706.5199      15.088998      15.088998      15.088998      0              0              0            
    931000   306.03092     -1222.5854      226.53464     -996.05079      1858.1497      14.801673      14.801673      14.801673      0              0              0            
    932000   302.05875     -1188.3755      223.59431     -964.7812      -298.46494      14.969866      14.969866      14.969866      0              0              0            
    933000   284.41681     -1187.1707      210.53513     -976.63559      448.52001      15.291048      15.291048      15.291048      0              0              0            
    934000   286.25515     -1211.6089      211.89594     -999.71295     -992.25924      15.357186      15.357186      15.357186      0              0              0            
    935000   306.09714     -1209.3613      226.58366     -982.77761     -614.62087      15.067426      15.067426      15.067426      0              0              0            
    936000   295.877       -1188.6484      219.01836     -969.63007      21.21541       15.109496      15.109496      15.109496      0              0              0            
    937000   314.66935     -1200.9675      232.92911     -968.03841      541.15271      14.711004      14.711004      14.711004      0              0              0            
    938000   312.24486     -1251.357       231.13442     -1020.2226     -319.19742      14.747459      14.747459      14.747459      0              0              0            
    939000   314.98764     -1184.5325      233.16472     -951.36778      1546.7832      14.836097      14.836097      14.836097      0              0              0            
    940000   292.10632     -1198.0572      216.22718     -981.82999      134.56607      15.089592      15.089592      15.089592      0              0              0            
    941000   284.89754     -1205.0716      210.89098     -994.18059     -50.667596      14.807403      14.807403      14.807403      0              0              0            
    942000   277.95795     -1202.1878      205.75406     -996.43371     -1137.3392      14.923817      14.923817      14.923817      0              0              0            
    943000   292.37321     -1190.4743      216.42474     -974.04955     -603.38615      14.961055      14.961055      14.961055      0              0              0            
    944000   273.41818     -1186.7566      202.39357     -984.36305     -950.67508      14.872688      14.872688      14.872688      0              0              0            
    945000   316.51505     -1207.8224      234.29536     -973.52704      810.24018      15.060942      15.060942      15.060942      0              0              0            
    946000   304.09493     -1176.8397      225.10156     -951.73818     -1035.7886      14.888592      14.888592      14.888592      0              0              0            
    947000   287.89119     -1206.9159      213.10699     -993.80886      1673.104       15.063062      15.063062      15.063062      0              0              0            
    948000   312.80143     -1203.4984      231.54641     -971.95202      389.57732      14.838635      14.838635      14.838635      0              0              0            
    949000   302.21899     -1218.27        223.71292     -994.55712     -527.22027      14.946766      14.946766      14.946766      0              0              0            
    950000   298.04159     -1186.9168      220.62067     -966.29617      979.93738      15.006107      15.006107      15.006107      0              0              0            
    951000   306.81672     -1197.0925      227.11632     -969.97614      1443.1005      14.928308      14.928308      14.928308      0              0              0            
    952000   317.9291      -1217.2117      235.34208     -981.86965      1968.6865      14.813005      14.813005      14.813005      0              0              0            
    953000   296.09586     -1200.23        219.18037     -981.04961     -250.82054      14.91661       14.91661       14.91661       0              0              0            
    954000   295.36829     -1199.1816      218.6418      -980.53982     -1327.6651      14.896726      14.896726      14.896726      0              0              0            
    955000   285.23723     -1204.8163      211.14244     -993.67387     -1293.7309      15.100594      15.100594      15.100594      0              0              0            
    956000   316.88548     -1193.3774      234.56956     -958.80788     -1490.1803      15.168716      15.168716      15.168716      0              0              0            
    957000   284.67536     -1232.6132      210.72652     -1021.8867     -506.40266      14.856412      14.856412      14.856412      0              0              0            
    958000   319.23687     -1257.407       236.31014     -1021.0968      389.41469      14.831926      14.831926      14.831926      0              0              0            
    959000   310.41525     -1193.5034      229.78008     -963.72333     -965.04889      15.149447      15.149447      15.149447      0              0              0            
    960000   292.14877     -1184.1991      216.2586      -967.94047     -245.64137      15.087681      15.087681      15.087681      0              0              0            
    961000   298.31578     -1230.6438      220.82363     -1009.8202      591.32372      14.970049      14.970049      14.970049      0              0              0            
    962000   310.69888     -1205.6065      229.99003     -975.61648      270.6484       15.063747      15.063747      15.063747      0              0              0            
    963000   286.82033     -1194.5934      212.3143      -982.27907     -1014.3148      15.235953      15.235953      15.235953      0              0              0            
    964000   286.77582     -1224.6599      212.28136     -1012.3785      2564.7934      14.850927      14.850927      14.850927      0              0              0            
    965000   293.26327     -1188.2231      217.08359     -971.1395      -745.71535      15.017819      15.017819      15.017819      0              0              0            
    966000   308.03317     -1210.5         228.01677     -982.4832       1828.3815      14.9593        14.9593        14.9593        0              0              0            
    967000   302.06767     -1190.7724      223.60091     -967.17148     -962.96928      15.075192      15.075192      15.075192      0              0              0            
    968000   293.97569     -1198.2235      217.61095     -980.61251      1579.3867      14.936011      14.936011      14.936011      0              0              0            
    969000   290.2869      -1203.9277      214.88038     -989.04731     -753.14375      15.09605       15.09605       15.09605       0              0              0            
    970000   312.97296     -1203.0263      231.67338     -971.35292     -580.6474       15.037336      15.037336      15.037336      0              0              0            
    971000   286.74264     -1181.7215      212.2568      -969.46473      272.82109      15.187933      15.187933      15.187933      0              0              0            
    972000   316.50298     -1184.0028      234.28642     -949.7164      -819.97463      15.126232      15.126232      15.126232      0              0              0            
    973000   318.11493     -1229.3908      235.47965     -993.91112      2326.2926      14.791162      14.791162      14.791162      0              0              0            
    974000   299.86194     -1217.1735      221.96815     -995.20533      811.02014      14.770298      14.770298      14.770298      0              0              0            
    975000   349.59804     -1195.2092      258.78453     -936.42468      1705.9953      14.845292      14.845292      14.845292      0              0              0            
    976000   300.79253     -1214.7042      222.65701     -992.04716     -498.9812       14.976057      14.976057      14.976057      0              0              0            
    977000   291.08903     -1206.814       215.47414     -991.3399      -205.71691      14.861524      14.861524      14.861524      0              0              0            
    978000   317.4069      -1190.1436      234.95554     -955.18807      1314.9195      14.872507      14.872507      14.872507      0              0              0            
    979000   312.1487      -1202.5712      231.06324     -971.50794      3958.9244      14.84431       14.84431       14.84431       0              0              0            
    980000   299.28567     -1210.1127      221.54157     -988.57111     -264.45651      14.948057      14.948057      14.948057      0              0              0            
    981000   307.34098     -1209.7716      227.50439     -982.26718     -604.7366       15.150964      15.150964      15.150964      0              0              0            
    982000   306.5397      -1198.0046      226.91126     -971.09335     -47.127429      15.111191      15.111191      15.111191      0              0              0            
    983000   270.912       -1213.8753      200.5384      -1013.3369      219.55543      14.869766      14.869766      14.869766      0              0              0            
    984000   254.26386     -1204.0018      188.21488     -1015.7869      586.97101      14.776448      14.776448      14.776448      0              0              0            
    985000   307.28506     -1213.9671      227.463       -986.50411     -2702.9508      15.142853      15.142853      15.142853      0              0              0            
    986000   335.97436     -1209.9908      248.69981     -961.29094      872.17384      15.147528      15.147528      15.147528      0              0              0            
    987000   318.77427     -1204.9317      235.96771     -968.96396     -590.79271      14.927459      14.927459      14.927459      0              0              0            
    988000   315.46005     -1226.7885      233.51441     -993.27407      138.47137      14.966407      14.966407      14.966407      0              0              0            
    989000   279.83137     -1183.7402      207.14083     -976.59939     -475.38171      15.106939      15.106939      15.106939      0              0              0            
    990000   307.05187     -1225.6843      227.29039     -998.39393     -214.06824      14.933316      14.933316      14.933316      0              0              0            
    991000   323.3827      -1207.5783      239.37903     -968.19927      329.83368      15.020815      15.020815      15.020815      0              0              0            
    992000   299.07407     -1211.0264      221.38494     -989.64149     -477.07106      15.160337      15.160337      15.160337      0              0              0            
    993000   274.05095     -1198.5559      202.86197     -995.69389      1721.8946      14.994541      14.994541      14.994541      0              0              0            
    994000   284.37304     -1204.8131      210.50273     -994.31036      1295.8047      14.918716      14.918716      14.918716      0              0              0            
    995000   304.34053     -1210.2963      225.28336     -985.01296      658.92862      14.83374       14.83374       14.83374       0              0              0            
    996000   316.09064     -1220.3032      233.9812      -986.32199      1090.9681      14.845177      14.845177      14.845177      0              0              0            
    997000   300.68618     -1180.602       222.57828     -958.02375      34.122706      14.977562      14.977562      14.977562      0              0              0            
    998000   293.81499     -1205.5434      217.49199     -988.05145      356.68292      14.830067      14.830067      14.830067      0              0              0            
    999000   318.388       -1190.3638      235.68178     -954.682        665.00237      14.970058      14.970058      14.970058      0              0              0            
   1000000   320.10305     -1210.8458      236.95132     -973.89446      1315.9533      15.02652       15.02652       15.02652       0              0              0            
Loop time of 344.782 on 12 procs for 1000000 steps with 320 atoms

Performance: 501.187 ns/day, 0.048 hours/ns, 2900.385 timesteps/s, 928.123 katom-step/s
88.5% CPU use with 12 MPI tasks x 1 OpenMP threads

MPI task timing breakdown:
Section |  min time  |  avg time  |  max time  |%varavg| %total
---------------------------------------------------------------
Pair    | 23.601     | 25.409     | 27.46      |  21.2 |  7.37
Bond    | 0.66031    | 0.71237    | 0.81974    |   5.6 |  0.21
Kspace  | 144.06     | 151.78     | 157.08     |  34.0 | 44.02
Neigh   | 5.3111     | 6.3322     | 7.2273     |  27.9 |  1.84
Comm    | 49.646     | 55.889     | 65.421     |  66.6 | 16.21
Output  | 13.453     | 14.761     | 18.154     |  32.3 |  4.28
Modify  | 83.185     | 87.947     | 91.441     |  24.0 | 25.51
Other   |            | 1.956      |            |       |  0.57

Nlocal:        26.6667 ave          34 max          21 min
Histogram: 3 1 1 0 2 0 2 2 0 1
Nghost:        800.667 ave         841 max         767 min
Histogram: 2 0 1 0 4 2 1 1 0 1
Neighs:              0 ave           0 max           0 min
Histogram: 12 0 0 0 0 0 0 0 0 0

Total # of neighbors = 0
Ave neighs/atom = 0
Ave special neighs/atom = 1.9875
Neighbor list builds = 74036
Dangerous builds = 5205


Total wall time: 0:05:44
