LAMMPS (7 Feb 2024 - Update 1)
  using 1 OpenMP thread(s) per MPI task
echo both

# Define temperature parameters
variable	temperature equal 300.0 # Simulation temperature in Kelvin
variable	tempDamp equal 100.0 # Relaxation time of themostat - 0.1 ps

# Define pressure parameters
variable	pressure equal 1.0 # Pressure in bars
variable	pressureDamp equal 500.0 # Relaxation time of the barostat 0.5 ps

# Define random seed
variable	seed equal 98475

# Simulation setup
units		real
atom_style	full
variable	out_freq equal 1000 # Thermo output frequency
variable	out_freq2 equal 10 # Dump output frequency
neigh_modify    delay 10 every 1 # Neighbor list setup

### TIP4P/Ew and NaCl Potential Parameters ###
pair_style      hybrid lj/cut/coul/long 5.0 buck/coul/long 5.0 # This cutoff is too short for a real calculation
# Load configuration
read_data       data.nacl
Reading data file ...
  orthogonal box = (0 0 0) to (15.5 15.5 15.5)
  2 by 2 by 3 MPI processor grid
  reading atoms ...
  320 atoms
  scanning bonds ...
  2 = max bonds/atom
  scanning angles ...
  1 = max angles/atom
  reading bonds ...
  212 bonds
  reading angles ...
  106 angles
Finding 1-2 1-3 1-4 neighbors ...
  special bond factors lj:    0        0        0       
  special bond factors coul:  0        0        0       
     2 = max # of 1-2 neighbors
     1 = max # of 1-3 neighbors
     1 = max # of 1-4 neighbors
     2 = max # of special neighbors
  special bonds CPU = 0.001 seconds
  read_data CPU = 0.009 seconds

# create groups ###

group hy type 1
212 atoms in group hy
group ox type 2
106 atoms in group ox
group na type 3
1 atoms in group na
group cl type 4
1 atoms in group cl

## set charges - beside manually ###
set group ox charge -0.830
Setting atom values ...
  106 settings made for charge
set group hy charge 0.415
Setting atom values ...
  212 settings made for charge
set group na charge 1.0
Setting atom values ...
  1 settings made for charge
set group cl charge -1.0
Setting atom values ...
  1 settings made for charge

# Water TIP3P
pair_coeff      1 1 lj/cut/coul/long 0.0 0.0
pair_coeff      2 2 lj/cut/coul/long 0.102 3.188
pair_coeff      1 2 lj/cut/coul/long 0.0 0.0
# Mixed from Pettitt 86
pair_coeff      2 3 lj/cut/coul/long 0.1338549 2.72
pair_coeff      1 3 lj/cut/coul/long 0.1338549 1.31
pair_coeff      2 4 lj/cut/coul/long 0.359825 3.55
pair_coeff      1 4 lj/cut/coul/long 0.359825 2.14
# NaCl from Pettitt 86
pair_coeff      3 4 buck/coul/long 28929.93 0.317 161.2016
pair_coeff      3 3 buck/coul/long 9772.847 0.317 24.18024 # This is not used
pair_coeff      4 4 buck/coul/long 80312.94 0.317 1683.981 # This is not used
bond_style      harmonic
bond_coeff      1 450 0.9572
angle_style     harmonic
angle_coeff     1 55 104.52
kspace_style    pppm 1e-2 # This value is too large for a real calculation

timestep	2.0 # Timestep 2 fs
thermo          ${out_freq}
thermo          1000
thermo_style 	custom step temp pe ke etotal press lx ly lz xy xz yz
restart 	${out_freq} restart restart2
restart 	1000 restart restart2

velocity        all create ${temperature} ${seed} dist gaussian
velocity        all create 300 ${seed} dist gaussian
velocity        all create 300 98475 dist gaussian
# Perform minimization
minimize 1.0e-2 1.0e-3 100 1000
Switching to 'neigh_modify every 1 delay 0 check yes' setting during minimization
PPPM initialization ...
  using 12-bit tables for long-range coulomb (src/lammps-7Feb2024/src/kspace.cpp:342)
  G vector (1/distance) = 0.40023582
  grid = 8 8 8
  stencil order = 5
  estimated absolute RMS force accuracy = 0.7823365
  estimated relative force accuracy = 0.0023559831
  using double precision MKL FFT
  3d grid and FFT values/proc = 1089 48
Generated 0 of 6 mixed pair_coeff terms from geometric mixing rule
Neighbor list info ...
  update: every = 1 steps, delay = 0 steps, check = yes
  max neighbors/atom: 2000, page size: 100000
  master list distance cutoff = 7
  ghost atom cutoff = 7
  binsize = 3.5, bins = 5 5 5
  3 neighbor lists, perpetual/occasional/extra = 3 0 0
  (1) pair lj/cut/coul/long, perpetual, skip from (3)
      attributes: half, newton on
      pair build: skip
      stencil: none
      bin: none
  (2) pair buck/coul/long, perpetual, skip from (3)
      attributes: half, newton on
      pair build: skip
      stencil: none
      bin: none
  (3) neighbor class addition, perpetual
      attributes: half, newton on
      pair build: half/bin/newton
      stencil: half/bin/3d
      bin: standard
Per MPI rank memory allocation (min/avg/max) = 9.416 | 9.418 | 9.42 Mbytes
   Step          Temp          PotEng         KinEng         TotEng         Press            Lx             Ly             Lz             Xy             Xz             Yz      
         0   300            92556250       285.26352      92556536       6.8175783e+09  15.5           15.5           15.5           0              0              0            
        27   300           -1095.9406      285.26352     -810.67712     -2918.7587      15.5           15.5           15.5           0              0              0            
Loop time of 0.0114583 on 12 procs for 27 steps with 320 atoms

70.1% CPU use with 12 MPI tasks x 1 OpenMP threads

Minimization stats:
  Stopping criterion = energy tolerance
  Energy initial, next-to-last, final = 
       92556250.257805     -1089.35799481  -1095.94064566941
  Force two-norm initial, final = 1.8953089e+09 108.40957
  Force max component initial, final = 1.2163668e+09 24.333575
  Final line search alpha, max atom move = 0.0033714434 0.08203927
  Iterations, force evaluations = 27 35

MPI task timing breakdown:
Section |  min time  |  avg time  |  max time  |%varavg| %total
---------------------------------------------------------------
Pair    | 0.00055059 | 0.00075191 | 0.00090215 |   0.0 |  6.56
Bond    | 1.8777e-05 | 2.7771e-05 | 3.5654e-05 |   0.0 |  0.24
Kspace  | 0.0040414  | 0.004175   | 0.004398   |   0.2 | 36.44
Neigh   | 0.00017052 | 0.00018745 | 0.00019706 |   0.0 |  1.64
Comm    | 0.0010664  | 0.0011243  | 0.0012042  |   0.1 |  9.81
Output  | 0          | 0          | 0          |   0.0 |  0.00
Modify  | 0          | 0          | 0          |   0.0 |  0.00
Other   |            | 0.005192   |            |       | 45.31

Nlocal:        26.6667 ave          32 max          19 min
Histogram: 1 0 2 1 0 1 1 2 2 2
Nghost:        766.167 ave         805 max         727 min
Histogram: 2 0 0 2 3 1 1 1 1 1
Neighs:              0 ave           0 max           0 min
Histogram: 12 0 0 0 0 0 0 0 0 0

Total # of neighbors = 0
Ave neighs/atom = 0
Ave special neighs/atom = 1.9875
Neighbor list builds = 3
Dangerous builds = 0

# Write trajectory to file
dump           	myDump all dcd ${out_freq2} out.dcd
dump           	myDump all dcd 10 out.dcd
#dump_modify    	myDump unwrap yes

# Start simulation

reset_timestep 	0


fix umb all plumed plumedfile plumed_4.dat outfile plumed.out
fix             1 all temp/csvr ${temperature} ${temperature} ${tempDamp} ${seed} # Bussi's thermostat
fix             1 all temp/csvr 300 ${temperature} ${tempDamp} ${seed} 
fix             1 all temp/csvr 300 300 ${tempDamp} ${seed} 
fix             1 all temp/csvr 300 300 100 ${seed} 
fix             1 all temp/csvr 300 300 100 98475 
fix             2 all shake 0.0001 20 0 t 1 2 # Shake algorithm
Finding SHAKE clusters ...
       0 = # of size 2 clusters
     106 = # of size 3 clusters
       0 = # of size 4 clusters
       0 = # of frozen angles
  find clusters CPU = 0.000 seconds
#fix             3 all nve
fix             3 all nph iso ${pressure} ${pressure} ${pressureDamp} # Isotropic barostat
fix             3 all nph iso 1 ${pressure} ${pressureDamp} 
fix             3 all nph iso 1 1 ${pressureDamp} 
fix             3 all nph iso 1 1 500 
fix 		4 all momentum 10000 linear 1 1 1 # Set total linear momentum to zero every 10000 steps

run 1000000
PPPM initialization ...
  using 12-bit tables for long-range coulomb (src/lammps-7Feb2024/src/kspace.cpp:342)
  G vector (1/distance) = 0.40023582
  grid = 8 8 8
  stencil order = 5
  estimated absolute RMS force accuracy = 0.7823365
  estimated relative force accuracy = 0.0023559831
  using double precision MKL FFT
  3d grid and FFT values/proc = 1089 48
Generated 0 of 6 mixed pair_coeff terms from geometric mixing rule
Per MPI rank memory allocation (min/avg/max) = 9.186 | 9.188 | 9.19 Mbytes
   Step          Temp          PotEng         KinEng         TotEng         Press            Lx             Ly             Lz             Xy             Xz             Yz      
         0   385.36913     -1127.6681      285.26352     -842.40459     -1554.3309      15.5           15.5           15.5           0              0              0            
      1000   300.08742     -1203.2938      222.13506     -981.15871     -1595.4563      15.004399      15.004399      15.004399      0              0              0            
      2000   287.69463     -1176.7394      212.96149     -963.77789      1758.4946      15.301662      15.301662      15.301662      0              0              0            
      3000   314.31794     -1196.8082      232.66898     -964.13923      762.59903      15.329592      15.329592      15.329592      0              0              0            
      4000   329.61605     -1178.7223      243.99317     -934.72913     -582.91804      15.18685       15.18685       15.18685       0              0              0            
      5000   300.10392     -1201.7217      222.14727     -979.57439     -556.74984      14.934596      14.934596      14.934596      0              0              0            
      6000   298.48495     -1218.0931      220.94885     -997.14424     -1206.9494      15.097761      15.097761      15.097761      0              0              0            
      7000   268.06019     -1212.4508      198.4274      -1014.0234      1261.3212      14.719645      14.719645      14.719645      0              0              0            
      8000   287.42399     -1194.9879      212.76115     -982.22678     -954.03259      15.034071      15.034071      15.034071      0              0              0            
      9000   272.81818     -1211.9169      201.94943     -1009.9675      1436.1624      14.812716      14.812716      14.812716      0              0              0            
     10000   294.42358     -1170.0969      217.94249     -952.15444     -327.98379      15.070415      15.070415      15.070415      0              0              0            
     11000   268.12932     -1192.3913      198.47857     -993.91271      526.31218      14.846973      14.846973      14.846973      0              0              0            
     12000   321.09042     -1180.7282      237.68221     -943.04595      442.92062      15.172468      15.172468      15.172468      0              0              0            
     13000   302.74507     -1203.6577      224.10235     -979.55534      1240.3339      14.938338      14.938338      14.938338      0              0              0            
     14000   281.79677     -1232.708       208.59569     -1024.1123      701.69812      14.852652      14.852652      14.852652      0              0              0            
     15000   282.99687     -1221.7051      209.48405     -1012.221      -1386.8452      14.841142      14.841142      14.841142      0              0              0            
     16000   302.41952     -1221.646       223.86136     -997.78459      1071.5737      15.023336      15.023336      15.023336      0              0              0            
     17000   305.60776     -1185.054       226.2214      -958.83257     -317.90729      14.772639      14.772639      14.772639      0              0              0            
     18000   299.68111     -1186.9354      221.83429     -965.10113     -380.82594      14.90224       14.90224       14.90224       0              0              0            
     19000   291.6684      -1196.6664      215.90301     -980.76341      167.88905      14.995595      14.995595      14.995595      0              0              0            
     20000   318.32937     -1210.2378      235.63838     -974.5994      -531.76719      15.281305      15.281305      15.281305      0              0              0            
     21000   314.15337     -1199.3713      232.54716     -966.82414      1474.1649      14.871231      14.871231      14.871231      0              0              0            
     22000   315.32873     -1175.9552      233.4172      -942.53802      376.00257      15.006174      15.006174      15.006174      0              0              0            
     23000   286.74751     -1217.8597      212.2604      -1005.5993     -347.50913      14.958137      14.958137      14.958137      0              0              0            
     24000   303.78556     -1196.7879      224.87255     -971.91534      421.50494      14.780069      14.780069      14.780069      0              0              0            
     25000   308.03674     -1229.8342      228.01942     -1001.8147      661.11491      14.966032      14.966032      14.966032      0              0              0            
     26000   319.00531     -1248.9092      236.13874     -1012.7705      103.92611      14.747077      14.747077      14.747077      0              0              0            
     27000   310.40551     -1212.9608      229.77286     -983.18798      749.36538      14.954249      14.954249      14.954249      0              0              0            
     28000   301.11191     -1195.5486      222.89342     -972.65521     -1270.9496      15.011964      15.011964      15.011964      0              0              0            
     29000   278.31162     -1213.4814      206.01586     -1007.4655      1438.7029      14.710421      14.710421      14.710421      0              0              0            
     30000   304.25038     -1246.2306      225.21662     -1021.014       1785.0732      14.7749        14.7749        14.7749        0              0              0            
     31000   289.41108     -1210.2997      214.23206     -996.06769     -1345.4352      15.174235      15.174235      15.174235      0              0              0            
     32000   298.19059     -1200.7925      220.73096     -980.06154      2110.2055      14.871356      14.871356      14.871356      0              0              0            
     33000   300.84556     -1204.6802      222.69626     -981.98394      857.33422      14.895367      14.895367      14.895367      0              0              0            
     34000   293.45726     -1210.494       217.22719     -993.26683     -230.37306      14.775363      14.775363      14.775363      0              0              0            
     35000   281.44303     -1214.6027      208.33384     -1006.2688     -179.33042      15.003179      15.003179      15.003179      0              0              0            
     36000   303.5922      -1204.1538      224.72942     -979.42439      1968.2847      14.875292      14.875292      14.875292      0              0              0            
     37000   305.22109     -1191.5914      225.93518     -965.65625      1840.3041      14.689855      14.689855      14.689855      0              0              0            
     38000   286.02579     -1197.416       211.72616     -985.68981      409.86084      14.893046      14.893046      14.893046      0              0              0            
     39000   304.38786     -1196.8491      225.31839     -971.53074      42.652122      14.979723      14.979723      14.979723      0              0              0            
     40000   295.73191     -1226.6391      218.91096     -1007.7281     -565.71902      15.127482      15.127482      15.127482      0              0              0            
     41000   321.54916     -1218.1211      238.02178     -980.0993       1159.8745      14.778476      14.778476      14.778476      0              0              0            
     42000   317.07353     -1215.4783      234.70876     -980.76951      910.13938      15.03017       15.03017       15.03017       0              0              0            
     43000   291.73773     -1200.8461      215.95433     -984.89181     -1128.6123      14.910689      14.910689      14.910689      0              0              0            
     44000   315.05194     -1190.4378      233.21231     -957.22553     -1552.3753      15.145178      15.145178      15.145178      0              0              0            
     45000   305.23811     -1223.2574      225.94778     -997.30962     -347.64424      15.119504      15.119504      15.119504      0              0              0            
     46000   288.28438     -1237.0871      213.39805     -1023.6891      825.79009      14.977967      14.977967      14.977967      0              0              0            
     47000   301.3268      -1213.3651      223.05249     -990.31265     -587.70371      14.901247      14.901247      14.901247      0              0              0            
     48000   317.80503     -1214.7236      235.25024     -979.47333     -481.73901      14.955774      14.955774      14.955774      0              0              0            
     49000   282.86601     -1205.0648      209.38718     -995.67762     -944.94568      14.903807      14.903807      14.903807      0              0              0            
     50000   292.91218     -1222.12        216.8237      -1005.2963      102.9548       14.826266      14.826266      14.826266      0              0              0            
     51000   271.91347     -1198.4916      201.27973     -997.21191      165.61446      14.964333      14.964333      14.964333      0              0              0            
     52000   316.90802     -1216.9594      234.58625     -982.37317      1318.8121      15.162001      15.162001      15.162001      0              0              0            
     53000   312.10161     -1216.4037      231.02838     -985.37529     -1256.2619      15.011004      15.011004      15.011004      0              0              0            
     54000   279.51792     -1170.1701      206.90881     -963.26127     -297.26729      15.175264      15.175264      15.175264      0              0              0            
     55000   310.69287     -1205.9225      229.98558     -975.9369      -177.22454      14.886537      14.886537      14.886537      0              0              0            
     56000   315.94837     -1209.6898      233.87588     -975.81395      1373.088       14.986836      14.986836      14.986836      0              0              0            
     57000   317.61826     -1207.5058      235.11199     -972.39385     -625.48693      14.886614      14.886614      14.886614      0              0              0            
     58000   315.96578     -1238.7792      233.88877     -1004.8904      666.72605      14.760172      14.760172      14.760172      0              0              0            
     59000   279.96727     -1218.5623      207.24143     -1011.3209      804.40313      14.875636      14.875636      14.875636      0              0              0            
     60000   306.09835     -1200.6588      226.58456     -974.07424     -1699.6378      14.970337      14.970337      14.970337      0              0              0            
     61000   280.3738      -1208.2764      207.54236     -1000.7341     -481.95482      14.856711      14.856711      14.856711      0              0              0            
     62000   314.88786     -1200.3397      233.09086     -967.24882      841.50689      14.792428      14.792428      14.792428      0              0              0            
     63000   298.7324      -1204.3341      221.13203     -983.20208     -1166.7522      15.184877      15.184877      15.184877      0              0              0            
     64000   284.18579     -1216.4989      210.36413     -1006.1348      369.15604      14.878793      14.878793      14.878793      0              0              0            
     65000   295.7734      -1199.5467      218.94168     -980.605       -118.85181      14.827296      14.827296      14.827296      0              0              0            
     66000   295.34916     -1196.1413      218.62764     -977.51369     -284.24628      15.211565      15.211565      15.211565      0              0              0            
     67000   318.4081      -1175.0326      235.69666     -939.33589     -1713.4496      15.168736      15.168736      15.168736      0              0              0            
     68000   274.85523     -1212.5553      203.45733     -1009.0979      2874.0158      14.945554      14.945554      14.945554      0              0              0            
     69000   260.99878     -1193.6284      193.2003      -1000.4281     -1320.5012      15.259774      15.259774      15.259774      0              0              0            
     70000   289.40155     -1166.2293      214.22501     -952.00431      63.099283      15.167545      15.167545      15.167545      0              0              0            
     71000   299.60785     -1200.847       221.78007     -979.06697      1161.031       14.980616      14.980616      14.980616      0              0              0            
     72000   305.79565     -1196.5278      226.36049     -970.16731     -27.367721      15.093924      15.093924      15.093924      0              0              0            
     73000   307.31365     -1220.0742      227.48416     -992.59006      2055.3649      14.609118      14.609118      14.609118      0              0              0            
     74000   293.67411     -1193.747       217.3877      -976.3593       515.05964      14.976499      14.976499      14.976499      0              0              0            
     75000   293.19847     -1188.3064      217.03562     -971.27079     -1152.3612      14.969281      14.969281      14.969281      0              0              0            
     76000   323.16873     -1196.6202      239.22064     -957.3996       36.836478      14.780622      14.780622      14.780622      0              0              0            
     77000   317.27274     -1202.1039      234.85623     -967.24768      526.81082      15.075482      15.075482      15.075482      0              0              0            
     78000   304.91709     -1209.4852      225.71014     -983.77509      55.123147      14.991805      14.991805      14.991805      0              0              0            
     79000   290.04599     -1208.113       214.70205     -993.41099      2278.6547      14.793293      14.793293      14.793293      0              0              0            
     80000   295.66738     -1218.5685      218.8632      -999.7053      -314.74684      14.894845      14.894845      14.894845      0              0              0            
     81000   298.51066     -1225.4772      220.96789     -1004.5093      1397.8983      14.870399      14.870399      14.870399      0              0              0            
     82000   275.93903     -1185.0069      204.25959     -980.74735     -350.30802      15.280811      15.280811      15.280811      0              0              0            
     83000   262.48652     -1209.04        194.30158     -1014.7384      2157.3895      15.137467      15.137467      15.137467      0              0              0            
     84000   324.26454     -1197.4853      240.0318      -957.45346     -298.32901      14.797518      14.797518      14.797518      0              0              0            
     85000   308.87878     -1190.4026      228.64273     -961.75984     -800.7554       14.916111      14.916111      14.916111      0              0              0            
     86000   276.18355     -1210.3371      204.44059     -1005.8965     -348.97662      14.997028      14.997028      14.997028      0              0              0            
     87000   310.36639     -1241.2396      229.74391     -1011.4957      1657.8668      14.709984      14.709984      14.709984      0              0              0            
     88000   268.08258     -1198.9521      198.44397     -1000.5081     -1233.0501      15.182466      15.182466      15.182466      0              0              0            
     89000   293.44881     -1175.8186      217.22093     -958.59767     -137.86214      14.809518      14.809518      14.809518      0              0              0            
     90000   306.5966      -1179.4755      226.95338     -952.52212     -38.657186      14.918553      14.918553      14.918553      0              0              0            
     91000   303.11448     -1187.6467      224.37579     -963.27092     -0.74879411     14.998387      14.998387      14.998387      0              0              0            
     92000   319.87752     -1174.2469      236.78437     -937.46249     -1937.9863      15.027308      15.027308      15.027308      0              0              0            
     93000   325.9274      -1196.9655      241.26271     -955.70282     -487.3647       15.128884      15.128884      15.128884      0              0              0            
     94000   325.62612     -1227.5054      241.03969     -986.4657      -361.87855      14.94609       14.94609       14.94609       0              0              0            
     95000   294.24261     -1218.3225      217.80853     -1000.514       1667.8285      15.026613      15.026613      15.026613      0              0              0            
     96000   290.10063     -1205.4162      214.7425      -990.67374     -297.5438       14.883421      14.883421      14.883421      0              0              0            
     97000   309.38604     -1212.242       229.01822     -983.22376      227.61052      14.968708      14.968708      14.968708      0              0              0            
     98000   306.53105     -1233.6162      226.90486     -1006.7113     -97.36698       15.003166      15.003166      15.003166      0              0              0            
     99000   308.26554     -1211.3325      228.18879     -983.14367     -613.91165      14.891641      14.891641      14.891641      0              0              0            
    100000   297.4667      -1198.618       220.19511     -978.42285     -583.65333      15.095545      15.095545      15.095545      0              0              0            
    101000   298.79976     -1206.1169      221.18189     -984.93504      2346.496       15.013529      15.013529      15.013529      0              0              0            
    102000   268.36955     -1181.0784      198.65639     -982.42202      41.321167      15.01997       15.01997       15.01997       0              0              0            
    103000   277.83305     -1194.9917      205.66161     -989.33008      292.75998      14.81418       14.81418       14.81418       0              0              0            
    104000   307.35763     -1220.0104      227.51672     -992.49363     -430.3          14.866917      14.866917      14.866917      0              0              0            
    105000   304.82171     -1202.6452      225.63954     -977.00569     -709.0346       14.908         14.908         14.908         0              0              0            
    106000   334.49113     -1201.0475      247.60187     -953.4456       1501.7274      15.033215      15.033215      15.033215      0              0              0            
    107000   301.64552     -1227.4856      223.28842     -1004.1972      610.60496      14.802526      14.802526      14.802526      0              0              0            
    108000   311.74583     -1220.2653      230.76502     -989.50024      87.694881      14.970897      14.970897      14.970897      0              0              0            
    109000   308.60847     -1177.559       228.44263     -949.11632     -555.74099      15.382713      15.382713      15.382713      0              0              0            
    110000   304.29182     -1193.7811      225.2473      -968.53378      519.92949      15.160096      15.160096      15.160096      0              0              0            
    111000   295.36635     -1183.9274      218.64036     -965.28707      643.06855      14.664812      14.664812      14.664812      0              0              0            
    112000   299.79432     -1203.0756      221.9181      -981.15751     -376.74575      15.012473      15.012473      15.012473      0              0              0            
    113000   281.67862     -1208.6272      208.50823     -1000.1189     -1237.8555      15.064158      15.064158      15.064158      0              0              0            
    114000   264.75602     -1213.4529      195.98154     -1017.4714     -531.21726      14.980062      14.980062      14.980062      0              0              0            
    115000   281.0235      -1215.7051      208.02329     -1007.6818     -21.663766      14.843189      14.843189      14.843189      0              0              0            
    116000   298.94067     -1204.3102      221.2862      -983.02401     -1575.3579      15.230559      15.230559      15.230559      0              0              0            
    117000   308.32803     -1174.2426      228.23504     -946.00751     -1405.8127      15.353203      15.353203      15.353203      0              0              0            
    118000   305.80864     -1150.7787      226.3701      -924.40855      681.49668      15.788912      15.788912      15.788912      0              0              0            
    119000   291.9891      -1212.8013      216.1404      -996.66091      817.71004      15.002165      15.002165      15.002165      0              0              0            
    120000   325.77399     -1219.3661      241.14915     -978.21698     -2742.9824      14.781985      14.781985      14.781985      0              0              0            
    121000   310.20823     -1217.8312      229.62683     -988.20432     -52.989417      14.974027      14.974027      14.974027      0              0              0            
    122000   316.11641     -1214.607       234.00027     -980.60673     -1219.2818      15.159762      15.159762      15.159762      0              0              0            
    123000   291.16327     -1241.6097      215.5291      -1026.0806      1001.9402      14.953586      14.953586      14.953586      0              0              0            
    124000   279.62046     -1217.144       206.98471     -1010.1592      770.34574      14.902163      14.902163      14.902163      0              0              0            
    125000   300.67136     -1209.3638      222.56731     -986.79653     -1080.7352      15.004809      15.004809      15.004809      0              0              0            
    126000   304.1907      -1191.8204      225.17245     -966.64793      1010.0346      14.965321      14.965321      14.965321      0              0              0            
    127000   304.49526     -1192.4968      225.39789     -967.09891     -632.23357      15.231273      15.231273      15.231273      0              0              0            
    128000   270.71295     -1175.8562      200.39107     -975.46509      841.20794      14.985084      14.985084      14.985084      0              0              0            
    129000   273.57105     -1213.9354      202.50673     -1011.4287     -392.54148      15.025283      15.025283      15.025283      0              0              0            
    130000   279.22555     -1217.1612      206.69239     -1010.4688      222.16856      15.054849      15.054849      15.054849      0              0              0            
    131000   302.7925      -1201.2667      224.13745     -977.12923     -28.639177      15.11811       15.11811       15.11811       0              0              0            
    132000   277.1759      -1210.2651      205.17516     -1005.09        268.55579      14.825242      14.825242      14.825242      0              0              0            
    133000   306.35968     -1195.2302      226.778       -968.45223     -1000.0104      14.803332      14.803332      14.803332      0              0              0            
    134000   314.27324     -1199.5105      232.63589     -966.87459     -1293.6701      14.961324      14.961324      14.961324      0              0              0            
    135000   283.5822      -1208.5401      209.91733     -998.6228       358.26762      14.923287      14.923287      14.923287      0              0              0            
    136000   327.3769      -1223.5505      242.33568     -981.21483      236.46098      15.022872      15.022872      15.022872      0              0              0            
    137000   293.53582     -1223.1838      217.28534     -1005.8984      1131.2267      14.849365      14.849365      14.849365      0              0              0            
    138000   302.96169     -1195.0005      224.26269     -970.73781     -732.76122      15.093046      15.093046      15.093046      0              0              0            
    139000   281.703       -1209.0392      208.52628     -1000.5129     -225.52937      14.855297      14.855297      14.855297      0              0              0            
    140000   308.61498     -1204.871       228.44745     -976.42357      414.09781      14.873834      14.873834      14.873834      0              0              0            
    141000   301.57103     -1207.9896      223.23328     -984.75627     -1251.1796      15.122226      15.122226      15.122226      0              0              0            
    142000   299.9213      -1170.581       222.01209     -948.5689      -313.11443      15.155073      15.155073      15.155073      0              0              0            
    143000   336.06435     -1218.2513      248.76643     -969.48489     -683.19855      14.773616      14.773616      14.773616      0              0              0            
    144000   284.73823     -1201.7638      210.77306     -990.99077      796.00208      14.69326       14.69326       14.69326       0              0              0            
    145000   269.45233     -1218.8134      199.45791     -1019.3555     -1523.5667      15.072908      15.072908      15.072908      0              0              0            
    146000   287.08904     -1199.7703      212.51321     -987.25711     -261.59407      15.087728      15.087728      15.087728      0              0              0            
    147000   324.77933     -1170.4685      240.41286     -930.05567     -500.97399      15.057617      15.057617      15.057617      0              0              0            
    148000   290.93186     -1201.8373      215.3578      -986.47946     -278.27102      14.869596      14.869596      14.869596      0              0              0            
    149000   314.82505     -1223.8547      233.04437     -990.81035      1221.0243      14.945992      14.945992      14.945992      0              0              0            
    150000   318.45749     -1211.7034      235.73322     -975.97015     -371.45251      14.872543      14.872543      14.872543      0              0              0            
    151000   283.17732     -1220.3462      209.61762     -1010.7285     -18.813982      14.893742      14.893742      14.893742      0              0              0            
    152000   269.29216     -1212.0535      199.33935     -1012.7142     -110.32131      14.789132      14.789132      14.789132      0              0              0            
    153000   309.17033     -1237.1924      228.85854     -1008.3338      1332.3167      14.709934      14.709934      14.709934      0              0              0            
    154000   302.41954     -1182.7595      223.86138     -958.89813      1052.9216      14.98217       14.98217       14.98217       0              0              0            
    155000   302.02409     -1170.3274      223.56865     -946.75878     -2853.1176      15.101925      15.101925      15.101925      0              0              0            
    156000   298.57251     -1208.621       221.01367     -987.60736     -1250.5429      14.988323      14.988323      14.988323      0              0              0            
    157000   311.99131     -1187.8932      230.94673     -956.94651     -151.06373      15.035112      15.035112      15.035112      0              0              0            
    158000   267.14005     -1207.1571      197.74628     -1009.4108     -476.80726      15.080408      15.080408      15.080408      0              0              0            
    159000   287.48588     -1217.3691      212.80696     -1004.5621      2288.9178      14.796175      14.796175      14.796175      0              0              0            
    160000   276.45759     -1222.9191      204.64344     -1018.2757      714.535        14.891465      14.891465      14.891465      0              0              0            
    161000   319.81687     -1180.196       236.73948     -943.45649      617.63153      15.156667      15.156667      15.156667      0              0              0            
    162000   340.89789     -1196.111       252.34438     -943.76661      1115.2744      15.107825      15.107825      15.107825      0              0              0            
    163000   321.08779     -1211.6152      237.68026     -973.93492      742.41106      15.122272      15.122272      15.122272      0              0              0            
    164000   276.52713     -1182.6478      204.69492     -977.95293     -2123.0284      15.549144      15.549144      15.549144      0              0              0            
    165000   306.77452     -1211.7884      227.08508     -984.70333     -476.39997      15.273237      15.273237      15.273237      0              0              0            
    166000   278.05446     -1189.2008      205.8255      -983.37532      539.70964      15.12177       15.12177       15.12177       0              0              0            
    167000   280.49408     -1210.882       207.63139     -1003.2506      1140.4501      14.7606        14.7606        14.7606        0              0              0            
    168000   294.63436     -1181.9369      218.09852     -963.83841     -207.82643      14.899872      14.899872      14.899872      0              0              0            
    169000   286.36072     -1218.5875      211.97408     -1006.6134      1062.6533      14.928117      14.928117      14.928117      0              0              0            
    170000   305.62533     -1214.7598      226.23441     -988.52539      1832.3745      14.833566      14.833566      14.833566      0              0              0            
    171000   303.4834      -1198.0896      224.64888     -973.44075     -1239.0851      15.095213      15.095213      15.095213      0              0              0            
    172000   313.10483     -1201.6299      231.771       -969.85887     -808.39895      15.104145      15.104145      15.104145      0              0              0            
    173000   287.69376     -1240.5854      212.96085     -1027.6246      2572.9234      14.517476      14.517476      14.517476      0              0              0            
    174000   283.78225     -1246.7643      210.06541     -1036.6989      210.59513      14.804714      14.804714      14.804714      0              0              0            
    175000   304.498       -1189.2798      225.39992     -963.87991     -186.17614      15.076537      15.076537      15.076537      0              0              0            
    176000   292.29714     -1188.3763      216.36843     -972.00783      1370.7668      15.059439      15.059439      15.059439      0              0              0            
    177000   307.49657     -1201.5674      227.61957     -973.94787      326.49273      14.856676      14.856676      14.856676      0              0              0            
    178000   299.03466     -1193.7458      221.35577     -972.39         233.82672      15.197352      15.197352      15.197352      0              0              0            
    179000   307.8162      -1198.5712      227.85617     -970.71501      62.094006      15.223899      15.223899      15.223899      0              0              0            
    180000   299.71775     -1217.3306      221.86142     -995.46915      333.25105      15.092519      15.092519      15.092519      0              0              0            
    181000   272.50889     -1207.4205      201.72048     -1005.7        -2521.4012      15.059021      15.059021      15.059021      0              0              0            
    182000   316.58515     -1207.7768      234.34725     -973.42951     -445.54847      15.010632      15.010632      15.010632      0              0              0            
    183000   270.20438     -1198.6644      200.0146      -998.6498      -2249.3274      15.069996      15.069996      15.069996      0              0              0            
    184000   289.52002     -1212.2074      214.3127      -997.89465      1080.9483      14.929888      14.929888      14.929888      0              0              0            
    185000   314.24274     -1215.795       232.61332     -983.18169      3022.1309      14.727709      14.727709      14.727709      0              0              0            
    186000   285.91786     -1259.0833      211.64627     -1047.437       425.47007      14.837548      14.837548      14.837548      0              0              0            
    187000   308.24432     -1207.347       228.17308     -979.17395     -759.42117      14.969961      14.969961      14.969961      0              0              0            
    188000   311.93824     -1189.0028      230.90745     -958.09539      3709.8377      14.827938      14.827938      14.827938      0              0              0            
    189000   297.85633     -1203.7735      220.48353     -983.28999     -441.75534      14.891404      14.891404      14.891404      0              0              0            
    190000   267.43911     -1180.1868      197.96765     -982.21917     -1437.2137      15.084582      15.084582      15.084582      0              0              0            
    191000   299.99509     -1179.9446      222.06671     -957.8779      -1176.031       15.007592      15.007592      15.007592      0              0              0            
    192000   339.7284      -1234.1972      251.47868     -982.71853      148.34196      14.947902      14.947902      14.947902      0              0              0            
    193000   308.54304     -1188.5891      228.3942      -960.19487      377.42659      15.130432      15.130432      15.130432      0              0              0            
    194000   319.17616     -1223.7133      236.26521     -987.44813      113.28895      15.050713      15.050713      15.050713      0              0              0            
    195000   314.32953     -1217.8783      232.67756     -985.20077     -2030.6318      15.060584      15.060584      15.060584      0              0              0            
    196000   304.56351     -1178.0702      225.44842     -952.62182      2304.8758      15.107479      15.107479      15.107479      0              0              0            
    197000   292.38134     -1203.6785      216.43075     -987.2477      -1658.178       15.068251      15.068251      15.068251      0              0              0            
    198000   314.40432     -1198.4436      232.73292     -965.71064      580.42462      14.868034      14.868034      14.868034      0              0              0            
    199000   309.34526     -1203.9939      228.98803     -975.00585      1173.2721      14.856761      14.856761      14.856761      0              0              0            
    200000   275.0741      -1213.4988      203.61934     -1009.8794     -161.73598      14.775498      14.775498      14.775498      0              0              0            
    201000   298.58055     -1221.1979      221.01962     -1000.1782     -1822.4886      15.197369      15.197369      15.197369      0              0              0            
    202000   319.1515      -1188.6442      236.24695     -952.39723     -893.10182      15.01252       15.01252       15.01252       0              0              0            
    203000   269.63911     -1204.2615      199.59617     -1004.6653      1862.0721      14.912879      14.912879      14.912879      0              0              0            
    204000   292.99235     -1193.7736      216.88304     -976.89054      1069.147       14.942952      14.942952      14.942952      0              0              0            
    205000   255.01534     -1200.5512      188.77115     -1011.78        887.69368      14.95278       14.95278       14.95278       0              0              0            
    206000   309.32052     -1159.8637      228.96972     -930.89403     -553.16626      15.321386      15.321386      15.321386      0              0              0            
    207000   309.9552      -1182.2398      229.43953     -952.80029     -1362.441       14.99457       14.99457       14.99457       0              0              0            
    208000   286.09332     -1224.157       211.77615     -1012.3808      958.29817      15.043731      15.043731      15.043731      0              0              0            
    209000   274.41262     -1184.5648      203.12969     -981.4351      -746.18233      14.869097      14.869097      14.869097      0              0              0            
    210000   305.46928     -1195.2052      226.1189      -969.08626     -1564.0236      15.172781      15.172781      15.172781      0              0              0            
    211000   281.3769      -1211.6113      208.28489     -1003.3264      1596.4261      14.798138      14.798138      14.798138      0              0              0            
    212000   312.40206     -1189.9544      231.25078     -958.70361     -1154.5185      14.935626      14.935626      14.935626      0              0              0            
    213000   332.80863     -1178.2867      246.35643     -931.93029     -627.62223      15.091121      15.091121      15.091121      0              0              0            
    214000   320.75929     -1195.6701      237.43709     -958.23301     -2536.3214      15.259323      15.259323      15.259323      0              0              0            
    215000   305.99184     -1209.954       226.50571     -983.44826     -93.80846       14.920878      14.920878      14.920878      0              0              0            
    216000   281.37606     -1191.877       208.28426     -983.59271     -401.65956      15.117802      15.117802      15.117802      0              0              0            
    217000   292.25405     -1202.3126      216.33653     -985.97605     -1398.1744      15.219059      15.219059      15.219059      0              0              0            
    218000   289.02083     -1195.9671      213.94319     -982.02391      293.49034      15.02755       15.02755       15.02755       0              0              0            
    219000   299.4113      -1226.5377      221.63457     -1004.9031     -415.81835      14.831528      14.831528      14.831528      0              0              0            
    220000   305.70862     -1203.7088      226.29607     -977.41278      1222.2553      15.133639      15.133639      15.133639      0              0              0            
    221000   304.42111     -1146.3531      225.343       -921.01014     -1514.253       15.467038      15.467038      15.467038      0              0              0            
    222000   294.35008     -1185.2976      217.88808     -967.40953      808.58586      14.946002      14.946002      14.946002      0              0              0            
    223000   338.03537     -1157.9242      250.22544     -907.69877      334.77736      14.975712      14.975712      14.975712      0              0              0            
    224000   285.58002     -1228.4152      211.39618     -1017.019       213.63438      14.861596      14.861596      14.861596      0              0              0            
    225000   325.01904     -1209.0854      240.5903      -968.49512     -797.6383       15.067936      15.067936      15.067936      0              0              0            
    226000   317.11236     -1213.7598      234.73751     -979.02226      165.88493      14.843953      14.843953      14.843953      0              0              0            
    227000   303.63121     -1216.1171      224.75829     -991.35882     -916.84207      15.075988      15.075988      15.075988      0              0              0            
    228000   286.76689     -1213.7215      212.27475     -1001.4468      2977.014       15.020957      15.020957      15.020957      0              0              0            
    229000   319.74901     -1193.1562      236.68925     -956.46698      2506.2298      14.95636       14.95636       14.95636       0              0              0            
    230000   301.57248     -1224.6869      223.23436     -1001.4525      1164.9165      15.040413      15.040413      15.040413      0              0              0            
    231000   287.86361     -1214.4262      213.08657     -1001.3396     -1378.6479      15.023041      15.023041      15.023041      0              0              0            
    232000   293.99        -1197.8675      217.62154     -980.24593     -425.1582       14.976047      14.976047      14.976047      0              0              0            
    233000   293.72785     -1197.4742      217.42748     -980.04672     -936.44739      15.082554      15.082554      15.082554      0              0              0            
    234000   300.96985     -1189.0481      222.78827     -966.25988     -1614.4635      15.113023      15.113023      15.113023      0              0              0            
    235000   294.89634     -1205.2373      218.29244     -986.94482     -1073.236       15.045151      15.045151      15.045151      0              0              0            
    236000   300.89912     -1201.5533      222.73591     -978.81737     -438.56827      14.86275       14.86275       14.86275       0              0              0            
    237000   279.6476      -1192.5613      207.0048      -985.55645     -1719.1017      15.181406      15.181406      15.181406      0              0              0            
    238000   308.30949     -1179.4816      228.22132     -951.26024     -450.25915      15.314728      15.314728      15.314728      0              0              0            
    239000   315.34356     -1206.6558      233.42818     -973.22758      1816.7999      15.010493      15.010493      15.010493      0              0              0            
    240000   298.59364     -1214.1818      221.02931     -993.15246     -617.02481      15.098572      15.098572      15.098572      0              0              0            
    241000   307.18982     -1224.9482      227.3925      -997.55567     -491.06787      14.732571      14.732571      14.732571      0              0              0            
    242000   302.20275     -1220.8737      223.7009      -997.17285     -479.85536      14.970473      14.970473      14.970473      0              0              0            
    243000   296.49365     -1211.5168      219.47483     -992.042       -570.57993      14.925253      14.925253      14.925253      0              0              0            
    244000   283.39404     -1193.3088      209.77805     -983.53072      958.44738      14.86833       14.86833       14.86833       0              0              0            
    245000   301.2288      -1174.5349      222.97995     -951.55496     -1265.7766      15.207966      15.207966      15.207966      0              0              0            
    246000   305.9101      -1197.4463      226.44521     -971.00114      968.07528      14.822864      14.822864      14.822864      0              0              0            
    247000   270.89399     -1192.1973      200.52508     -991.67218     -606.09368      14.936668      14.936668      14.936668      0              0              0            
    248000   285.96342     -1237.8496      211.67999     -1026.1696     -905.35306      14.995667      14.995667      14.995667      0              0              0            
    249000   306.14905     -1207.7273      226.62209     -981.1052       605.09279      14.842874      14.842874      14.842874      0              0              0            
    250000   277.92367     -1222.8444      205.72868     -1017.1157      705.64027      14.834049      14.834049      14.834049      0              0              0            
    251000   303.30572     -1223.6707      224.51735     -999.15337     -774.82212      14.852572      14.852572      14.852572      0              0              0            
    252000   277.14755     -1205.717       205.15418     -1000.5628     -1270.6605      15.014536      15.014536      15.014536      0              0              0            
    253000   295.3628      -1228.2419      218.63773     -1009.6042     -2664.3901      15.175016      15.175016      15.175016      0              0              0            
    254000   305.13937     -1193.5361      225.87469     -967.66146     -849.00944      15.137287      15.137287      15.137287      0              0              0            
    255000   291.58404     -1180.2296      215.84057     -964.38903      145.82705      15.081756      15.081756      15.081756      0              0              0            
    256000   306.61493     -1215.5743      226.96695     -988.60733     -1582.38        15.021826      15.021826      15.021826      0              0              0            
    257000   325.08304     -1201.9669      240.63768     -961.32919     -114.03129      14.883656      14.883656      14.883656      0              0              0            
    258000   294.83525     -1210.343       218.24722     -992.09581     -299.61541      15.046242      15.046242      15.046242      0              0              0            
    259000   294.92077     -1233.8871      218.31053     -1015.5765     -464.86151      14.836315      14.836315      14.836315      0              0              0            
    260000   276.24588     -1221.6602      204.48673     -1017.1735      188.62898      14.959898      14.959898      14.959898      0              0              0            
    261000   283.58642     -1178.0828      209.92045     -968.16237     -769.0112       15.054811      15.054811      15.054811      0              0              0            
    262000   278.72415     -1203.4105      206.32123     -997.08929      1213.8864      14.974878      14.974878      14.974878      0              0              0            
    263000   285.61304     -1204.0732      211.42062     -992.65255      4048.8482      14.938328      14.938328      14.938328      0              0              0            
    264000   315.66485     -1194.72        233.66601     -961.05395      3242.4982      14.698073      14.698073      14.698073      0              0              0            
    265000   270.25991     -1195.58        200.05571     -995.52424     -1120.7233      15.081232      15.081232      15.081232      0              0              0            
    266000   289.9355      -1221.5916      214.62026     -1006.9713     -46.297907      14.84514       14.84514       14.84514       0              0              0            
    267000   294.28353     -1212.2998      217.83882     -994.46101     -1274.3443      14.8956        14.8956        14.8956        0              0              0            
    268000   302.49273     -1212.7498      223.91555     -988.83422      550.35221      15.035005      15.035005      15.035005      0              0              0            
    269000   279.48357     -1199.1211      206.88338     -992.2377      -659.09872      14.963344      14.963344      14.963344      0              0              0            
    270000   309.63133     -1201.5474      229.19979     -972.34765      410.60652      14.805754      14.805754      14.805754      0              0              0            
    271000   303.11563     -1181.0788      224.37664     -956.70218      430.82061      15.360588      15.360588      15.360588      0              0              0            
    272000   318.90268     -1184.5203      236.06277     -948.45752      1087.2987      15.248851      15.248851      15.248851      0              0              0            
    273000   288.3703      -1188.3557      213.46164     -974.89409     -2270.3253      15.18279       15.18279       15.18279       0              0              0            
    274000   325.7968      -1174.9264      241.16603     -933.76042      844.78535      15.425381      15.425381      15.425381      0              0              0            
    275000   277.71816     -1203.6199      205.57657     -998.04333      431.91517      14.889431      14.889431      14.889431      0              0              0            
    276000   304.72744     -1183.7042      225.56976     -958.13443     -1463.47        15.128835      15.128835      15.128835      0              0              0            
    277000   298.02775     -1197.9278      220.61042     -977.31741      628.53751      14.902518      14.902518      14.902518      0              0              0            
    278000   306.41431     -1187.4821      226.81844     -960.66364     -887.40501      15.118757      15.118757      15.118757      0              0              0            
    279000   299.92602     -1226.9147      222.01558     -1004.8991     -602.89706      14.964465      14.964465      14.964465      0              0              0            
    280000   303.85301     -1230.5135      224.92248     -1005.5911     -194.87502      14.824346      14.824346      14.824346      0              0              0            
    281000   293.84517     -1185.5437      217.51433     -968.02938      264.90383      15.233855      15.233855      15.233855      0              0              0            
    282000   294.97905     -1178.8343      218.35366     -960.48063     -1180.8177      15.083456      15.083456      15.083456      0              0              0            
    283000   301.53846     -1201.8657      223.20917     -978.65656     -2017.1242      15.043681      15.043681      15.043681      0              0              0            
    284000   308.40345     -1213.0423      228.29087     -984.7514       1544.025       14.978352      14.978352      14.978352      0              0              0            
    285000   298.43842     -1182.3294      220.91441     -961.41497     -1617.8213      15.196379      15.196379      15.196379      0              0              0            
    286000   288.28278     -1204.1766      213.39686     -990.77976     -2350.6264      14.856317      14.856317      14.856317      0              0              0            
    287000   294.41916     -1220.4287      217.93922     -1002.4894     -666.56731      14.923392      14.923392      14.923392      0              0              0            
    288000   316.91432     -1205.1762      234.59092     -970.58527      691.79997      15.01252       15.01252       15.01252       0              0              0            
    289000   320.50518     -1219.2595      237.24899     -982.01053     -345.55694      14.898529      14.898529      14.898529      0              0              0            
    290000   319.0738      -1199.5746      236.18943     -963.38517     -1207.7639      14.956901      14.956901      14.956901      0              0              0            
    291000   284.26806     -1209.0161      210.42502     -998.59109     -847.69418      14.853333      14.853333      14.853333      0              0              0            
    292000   308.30043     -1211.7729      228.21462     -983.55833      701.30994      14.970105      14.970105      14.970105      0              0              0            
    293000   305.50097     -1209.3463      226.14235     -983.20395     -691.88508      15.033178      15.033178      15.033178      0              0              0            
    294000   317.37294     -1214.7605      234.9304      -979.83012      77.419173      14.867493      14.867493      14.867493      0              0              0            
    295000   332.65057     -1210.418       246.23943     -964.17862     -58.157671      15.147301      15.147301      15.147301      0              0              0            
    296000   295.86718     -1205.5411      219.01109     -986.53001      621.60179      15.162663      15.162663      15.162663      0              0              0            
    297000   318.9651      -1198.6619      236.10897     -962.55298      97.794119      15.060639      15.060639      15.060639      0              0              0            
    298000   310.73728     -1197.6907      230.01845     -967.67226      288.68523      14.978964      14.978964      14.978964      0              0              0            
    299000   326.07838     -1203.8805      241.37446     -962.50607      448.63905      14.898503      14.898503      14.898503      0              0              0            
    300000   315.55813     -1202.1236      233.58702     -968.53662      1690.1428      14.873539      14.873539      14.873539      0              0              0            
    301000   332.63757     -1192.6123      246.2298      -946.38247     -26.979936      14.750995      14.750995      14.750995      0              0              0            
    302000   289.09407     -1218.8875      213.99741     -1004.8901     -2582.7687      15.022167      15.022167      15.022167      0              0              0            
    303000   287.73807     -1212.4658      212.99364     -999.47217      767.57696      14.875604      14.875604      14.875604      0              0              0            
    304000   282.44195     -1207.1155      209.07328     -998.04224     -1090.577       15.130973      15.130973      15.130973      0              0              0            
    305000   297.75967     -1211.3773      220.41198     -990.96534     -11.352574      15.055334      15.055334      15.055334      0              0              0            
    306000   280.56497     -1198.0918      207.68387     -990.40792     -698.80367      15.215476      15.215476      15.215476      0              0              0            
    307000   298.86405     -1199.3658      221.22948     -978.13636      763.61691      14.823211      14.823211      14.823211      0              0              0            
    308000   284.34866     -1217.691       210.48469     -1007.2063     -2011.1863      14.930134      14.930134      14.930134      0              0              0            
    309000   296.01989     -1203.3621      219.12413     -984.23792     -2169.4464      14.993618      14.993618      14.993618      0              0              0            
    310000   307.2381      -1178.6188      227.42824     -951.19058      561.01704      15.036289      15.036289      15.036289      0              0              0            
    311000   297.91139     -1209.4546      220.52429     -988.93029      1670.7842      14.989738      14.989738      14.989738      0              0              0            
    312000   309.73711     -1159.6407      229.27809     -930.36256     -994.89279      15.26261       15.26261       15.26261       0              0              0            
    313000   285.52014     -1203.8794      211.35186     -992.52757     -279.90816      15.110474      15.110474      15.110474      0              0              0            
    314000   277.66317     -1165.7741      205.53586     -960.23829      297.17857      14.966134      14.966134      14.966134      0              0              0            
    315000   292.17421     -1196.7569      216.27743     -980.47951     -367.30722      15.08147       15.08147       15.08147       0              0              0            
    316000   293.53781     -1205.672       217.28681     -988.38518     -1246.8777      15.197863      15.197863      15.197863      0              0              0            
    317000   290.37332     -1206.2059      214.94435     -991.26152      1130.4704      14.884957      14.884957      14.884957      0              0              0            
    318000   320.83952     -1212.9075      237.49648     -975.41102      372.20004      14.973274      14.973274      14.973274      0              0              0            
    319000   291.74609     -1211.3144      215.96052     -995.35384     -549.73942      14.990497      14.990497      14.990497      0              0              0            
    320000   308.37384     -1190.0769      228.26895     -961.80795     -1922.3277      15.15703       15.15703       15.15703       0              0              0            
    321000   329.54984     -1206.5985      243.94416     -962.65432      246.64325      14.828245      14.828245      14.828245      0              0              0            
    322000   299.5931      -1200.0155      221.76914     -978.24636      3062.0327      14.75322       14.75322       14.75322       0              0              0            
    323000   273.62906     -1190.4266      202.54967     -987.87698      1201.7735      15.059465      15.059465      15.059465      0              0              0            
    324000   296.22748     -1191.9129      219.2778      -972.63505     -731.71696      15.448135      15.448135      15.448135      0              0              0            
    325000   336.63325     -1201.8954      249.18755     -952.70787     -337.36692      15.409634      15.409634      15.409634      0              0              0            
    326000   286.7561      -1218.9676      212.26676     -1006.7008     -1462.6574      15.169058      15.169058      15.169058      0              0              0            
    327000   292.68851     -1223.2358      216.65813     -1006.5777      837.57859      14.864298      14.864298      14.864298      0              0              0            
    328000   308.43359     -1186.1762      228.31318     -957.86297      615.2671       15.051234      15.051234      15.051234      0              0              0            
    329000   298.11028     -1230.7047      220.67151     -1010.0332      3300.6696      14.847871      14.847871      14.847871      0              0              0            
    330000   300.4696      -1185.5834      222.41796     -963.16539      2111.0362      15.077273      15.077273      15.077273      0              0              0            
    331000   319.94499     -1215.5463      236.83432     -978.71199      673.4607       14.889241      14.889241      14.889241      0              0              0            
    332000   335.69621     -1203.3385      248.49392     -954.84463      2344.5478      14.945018      14.945018      14.945018      0              0              0            
    333000   279.5677      -1217.5133      206.94565     -1010.5677     -988.9582       15.018401      15.018401      15.018401      0              0              0            
    334000   319.06432     -1193.1812      236.18242     -956.99883      601.24727      14.826631      14.826631      14.826631      0              0              0            
    335000   296.44274     -1209.7201      219.43714     -990.28292     -1908.1647      14.910038      14.910038      14.910038      0              0              0            
    336000   309.77648     -1180.9474      229.30724     -951.64019     -1106.0624      15.257018      15.257018      15.257018      0              0              0            
    337000   332.29105     -1160.9905      245.9733      -915.0172       184.68425      15.403411      15.403411      15.403411      0              0              0            
    338000   279.45887     -1218.5668      206.8651      -1011.7017      228.19118      15.032204      15.032204      15.032204      0              0              0            
    339000   337.19746     -1192.7137      249.6052      -943.10846     -410.75536      14.890637      14.890637      14.890637      0              0              0            
    340000   293.53309     -1229.0884      217.28332     -1011.8051     -1453.3194      14.876231      14.876231      14.876231      0              0              0            
    341000   270.24978     -1229.4943      200.04821     -1029.4461     -2501.7067      15.310425      15.310425      15.310425      0              0              0            
    342000   304.84318     -1207.2713      225.65544     -981.61588      1875.0933      14.755751      14.755751      14.755751      0              0              0            
    343000   295.58548     -1199.384       218.80257     -980.58147     -1494.0672      14.887399      14.887399      14.887399      0              0              0            
    344000   302.78708     -1241.9124      224.13344     -1017.7789      1550.3499      14.684334      14.684334      14.684334      0              0              0            
    345000   293.0984      -1203.0177      216.96154     -986.05619     -1106.7849      15.103229      15.103229      15.103229      0              0              0            
    346000   302.69152     -1230.2283      224.06271     -1006.1656      1251.1794      14.657636      14.657636      14.657636      0              0              0            
    347000   313.19096     -1202.9866      231.83475     -971.15183      0.94076845     15.032712      15.032712      15.032712      0              0              0            
    348000   276.82764     -1193.3218      204.91737     -988.40444      1361.5944      14.850634      14.850634      14.850634      0              0              0            
    349000   312.65457     -1212.5338      231.4377      -981.09606     -787.29598      15.148305      15.148305      15.148305      0              0              0            
    350000   286.57988     -1211.0616      212.13632     -998.92532     -2471.2955      15.01134       15.01134       15.01134       0              0              0            
    351000   297.75998     -1214.09        220.41221     -993.67781     -254.32279      15.015122      15.015122      15.015122      0              0              0            
    352000   318.45513     -1240.2985      235.73147     -1004.5671      698.10395      14.797541      14.797541      14.797541      0              0              0            
    353000   308.67454     -1187.385       228.49154     -958.89348      563.26341      14.854321      14.854321      14.854321      0              0              0            
    354000   307.18058     -1207.8307      227.38566     -980.44504      639.71716      14.776022      14.776022      14.776022      0              0              0            
    355000   306.68277     -1174.1905      227.01716     -947.17335     -1311.6587      15.150975      15.150975      15.150975      0              0              0            
    356000   300.11936     -1192.1883      222.1587      -970.02957      306.91854      15.066356      15.066356      15.066356      0              0              0            
    357000   308.67961     -1192.3019      228.49529     -963.8066       3157.1816      14.850703      14.850703      14.850703      0              0              0            
    358000   330.41913     -1226.9875      244.58764     -982.39989      96.6824        14.918958      14.918958      14.918958      0              0              0            
    359000   274.22588     -1213.2618      202.99145     -1010.2704     -573.50017      15.046827      15.046827      15.046827      0              0              0            
    360000   292.46878     -1227.4732      216.49548     -1010.9777      727.11165      14.675192      14.675192      14.675192      0              0              0            
    361000   316.26339     -1187.0399      234.10907     -952.93084      771.11674      15.014017      15.014017      15.014017      0              0              0            
    362000   316.37218     -1197.679       234.1896      -963.48944     -2298.5513      15.415956      15.415956      15.415956      0              0              0            
    363000   303.57202     -1197.1359      224.71448     -972.42143      754.99357      14.948501      14.948501      14.948501      0              0              0            
    364000   297.029       -1219.1416      219.87111     -999.27045     -817.42117      14.880264      14.880264      14.880264      0              0              0            
    365000   300.37868     -1220.715       222.35066     -998.36431      541.34178      15.168481      15.168481      15.168481      0              0              0            
    366000   327.33698     -1222.7851      242.30613     -980.47895      810.26376      15.077009      15.077009      15.077009      0              0              0            
    367000   298.00484     -1171.5759      220.59346     -950.98247      21.340678      15.196248      15.196248      15.196248      0              0              0            
    368000   270.83473     -1205.6842      200.48121     -1005.203      -1038.8402      15.048896      15.048896      15.048896      0              0              0            
    369000   282.10386     -1220.801       208.82301     -1011.9779     -302.20035      14.907521      14.907521      14.907521      0              0              0            
    370000   296.19083     -1163.1055      219.25067     -943.85481     -81.508783      15.27718       15.27718       15.27718       0              0              0            
    371000   306.668       -1197.5819      227.00623     -970.57565     -1578.2867      14.971302      14.971302      14.971302      0              0              0            
    372000   281.16828     -1198.4233      208.13046     -990.29288      442.4684       15.132247      15.132247      15.132247      0              0              0            
    373000   278.09338     -1205.6068      205.85431     -999.75253     -2059.1794      14.949686      14.949686      14.949686      0              0              0            
    374000   315.41852     -1211.9614      233.48367     -978.47776     -36.104695      14.903118      14.903118      14.903118      0              0              0            
    375000   291.80513     -1185.362       216.00422     -969.35782      305.10459      14.915102      14.915102      14.915102      0              0              0            
    376000   288.87082     -1215.9106      213.83215     -1002.0785      198.59619      15.135655      15.135655      15.135655      0              0              0            
    377000   309.37363     -1220.6403      229.00903     -991.63129     -102.22238      15.01599       15.01599       15.01599       0              0              0            
    378000   290.7977      -1203.8513      215.25849     -988.59281     -1345.9833      14.824841      14.824841      14.824841      0              0              0            
    379000   308.6706      -1189.0121      228.48863     -960.52346     -992.23834      15.18385       15.18385       15.18385       0              0              0            
    380000   278.26179     -1262.5751      205.97897     -1056.5961      627.37317      14.653848      14.653848      14.653848      0              0              0            
    381000   288.67587     -1245.7824      213.68784     -1032.0946      1398.6665      14.625926      14.625926      14.625926      0              0              0            
    382000   298.16283     -1225.5212      220.71041     -1004.8108     -1288.2083      14.876902      14.876902      14.876902      0              0              0            
    383000   304.87252     -1203.9472      225.67716     -978.27002      936.52529      15.025424      15.025424      15.025424      0              0              0            
    384000   295.80753     -1202.528       218.96693     -983.5611       813.3482       14.893474      14.893474      14.893474      0              0              0            
    385000   314.19857     -1198.5215      232.58062     -965.94091      3775.5178      14.837831      14.837831      14.837831      0              0              0            
    386000   312.14405     -1189.1991      231.05979     -958.13931     -1447.656       15.163936      15.163936      15.163936      0              0              0            
    387000   293.36639     -1205.7833      217.15992     -988.62335     -613.50576      14.974206      14.974206      14.974206      0              0              0            
    388000   305.66729     -1190.673       226.26547     -964.40757      1132.5883      14.895076      14.895076      14.895076      0              0              0            
    389000   269.00764     -1219.6536      199.12874     -1020.5249     -790.48913      15.055501      15.055501      15.055501      0              0              0            
    390000   306.61315     -1175.1212      226.96563     -948.15562      863.34292      15.111652      15.111652      15.111652      0              0              0            
    391000   288.5179      -1227.3647      213.5709      -1013.7938     -20.646072      15.013111      15.013111      15.013111      0              0              0            
    392000   287.88666     -1199.8553      213.10364     -986.75169     -947.07025      15.09585       15.09585       15.09585       0              0              0            
    393000   294.18155     -1189.8339      217.76333     -972.07057     -691.38548      14.965389      14.965389      14.965389      0              0              0            
    394000   299.55408     -1211.1123      221.74026     -989.37208     -132.77355      15.095499      15.095499      15.095499      0              0              0            
    395000   276.77505     -1220.076       204.87844     -1015.1975      1328.0109      14.862856      14.862856      14.862856      0              0              0            
    396000   284.29192     -1189.8554      210.44269     -979.41269     -1126.1483      15.145473      15.145473      15.145473      0              0              0            
    397000   306.59852     -1192.2548      226.9548      -965.29999     -900.1735       15.341882      15.341882      15.341882      0              0              0            
    398000   307.14658     -1217.6169      227.3605      -990.25643      113.2269       14.875797      14.875797      14.875797      0              0              0            
    399000   291.92823     -1214.5329      216.09535     -998.43752     -589.84195      14.838757      14.838757      14.838757      0              0              0            
    400000   288.19208     -1220.6787      213.32972     -1007.349       249.5671       14.866532      14.866532      14.866532      0              0              0            
    401000   317.23973     -1210.8082      234.83179     -975.97644      411.6252       14.861384      14.861384      14.861384      0              0              0            
    402000   312.91496     -1204.3312      231.63045     -972.70079     -236.11773      15.044215      15.044215      15.044215      0              0              0            
    403000   285.60935     -1162.7636      211.41789     -951.34568     -105.87003      15.209684      15.209684      15.209684      0              0              0            
    404000   297.90858     -1201.4936      220.52221     -980.97144     -214.67243      15.196939      15.196939      15.196939      0              0              0            
    405000   312.20371     -1197.3612      231.10395     -966.25727      1152.2003      15.008048      15.008048      15.008048      0              0              0            
    406000   299.63734     -1203.2372      221.80189     -981.4353       189.08382      15.074231      15.074231      15.074231      0              0              0            
    407000   283.81503     -1242.3207      210.08967     -1032.2311      818.38394      14.871723      14.871723      14.871723      0              0              0            
    408000   309.09966     -1237.8495      228.80623     -1009.0433     -52.033094      15.077341      15.077341      15.077341      0              0              0            
    409000   284.05768     -1206.4796      210.2693      -996.21027     -58.148087      15.022712      15.022712      15.022712      0              0              0            
    410000   288.67029     -1207.4218      213.6837      -993.73811     -734.55305      15.192239      15.192239      15.192239      0              0              0            
    411000   280.23176     -1220.4962      207.43722     -1013.059       1714.6296      14.80191       14.80191       14.80191       0              0              0            
    412000   305.48825     -1208.0927      226.13294     -981.95972      77.407054      15.236403      15.236403      15.236403      0              0              0            
    413000   315.14385     -1195.9237      233.28035     -962.64337     -302.67397      15.12534       15.12534       15.12534       0              0              0            
    414000   295.19591     -1204.5908      218.5142      -986.07659      1202.6276      15.243492      15.243492      15.243492      0              0              0            
    415000   295.79664     -1187.6452      218.95887     -968.68636      108.1453       15.031289      15.031289      15.031289      0              0              0            
    416000   279.0119      -1253.4784      206.53423     -1046.9442      553.492        14.71876       14.71876       14.71876       0              0              0            
    417000   316.18231     -1219.24        234.04905     -985.19099      1015.747       14.783953      14.783953      14.783953      0              0              0            
    418000   311.33347     -1202.8678      230.45978     -972.40798     -794.49211      15.056151      15.056151      15.056151      0              0              0            
    419000   306.35529     -1198.1598      226.77475     -971.38502     -17.466344      14.950426      14.950426      14.950426      0              0              0            
    420000   305.92717     -1190.2077      226.45785     -963.74984      2308.8693      14.844474      14.844474      14.844474      0              0              0            
    421000   304.90899     -1183.2824      225.70415     -957.57822     -42.366583      15.106593      15.106593      15.106593      0              0              0            
    422000   301.8685      -1204.2131      223.45348     -980.75959      1906.2604      15.075053      15.075053      15.075053      0              0              0            
    423000   297.90261     -1237.4507      220.51779     -1016.933      -718.11258      14.956836      14.956836      14.956836      0              0              0            
    424000   301.48574     -1178.3078      223.17014     -955.13768      1343.1991      14.910363      14.910363      14.910363      0              0              0            
    425000   304.97722     -1207.663       225.75466     -981.90837     -868.03659      15.120957      15.120957      15.120957      0              0              0            
    426000   302.53633     -1197.4748      223.94783     -973.52701      1527.2624      14.871831      14.871831      14.871831      0              0              0            
    427000   314.39944     -1193.0898      232.72931     -960.36044      432.55199      14.694226      14.694226      14.694226      0              0              0            
    428000   311.40901     -1166.3507      230.51569     -935.83499      1091.2204      14.811209      14.811209      14.811209      0              0              0            
    429000   294.31727     -1198.0613      217.8638      -980.19754      899.31267      14.980721      14.980721      14.980721      0              0              0            
    430000   287.31194     -1188.5493      212.67821     -975.87112     -1307.0797      15.065945      15.065945      15.065945      0              0              0            
    431000   277.89722     -1178.6061      205.70911     -972.89703     -971.24497      15.633485      15.633485      15.633485      0              0              0            
    432000   297.7659      -1173.3933      220.41659     -952.97667      1745.3295      14.885364      14.885364      14.885364      0              0              0            
    433000   325.77927     -1220.0168      241.15306     -978.86378     -339.15923      14.72562       14.72562       14.72562       0              0              0            
    434000   317.73204     -1232.453       235.19621     -997.25683     -1292.473       14.779313      14.779313      14.779313      0              0              0            
    435000   290.44133     -1204.0325      214.99469     -989.03777     -1769.1751      14.928492      14.928492      14.928492      0              0              0            
    436000   304.83757     -1202.2109      225.65129     -976.55957      1653.609       14.83502       14.83502       14.83502       0              0              0            
    437000   322.41863     -1180.1917      238.66539     -941.52628      293.45536      15.194187      15.194187      15.194187      0              0              0            
    438000   293.65944     -1173.3192      217.37684     -955.94232     -1020.3682      14.951742      14.951742      14.951742      0              0              0            
    439000   288.86502     -1211.2255      213.82785     -997.39769     -332.77515      14.875266      14.875266      14.875266      0              0              0            
    440000   299.16197     -1223.2929      221.45001     -1001.8429      1482.5239      14.78968       14.78968       14.78968       0              0              0            
    441000   297.14656     -1204.7946      219.95813     -984.83651      2062.2932      14.933316      14.933316      14.933316      0              0              0            
    442000   330.3299      -1211.0937      244.52159     -966.5721       1945.5691      14.801527      14.801527      14.801527      0              0              0            
    443000   264.3458      -1178.4569      195.67788     -982.77897      1206.3934      15.104933      15.104933      15.104933      0              0              0            
    444000   287.96377     -1202.4484      213.16072     -989.28771      186.01195      14.881557      14.881557      14.881557      0              0              0            
    445000   277.32292     -1215.1585      205.28399     -1009.8745     -2986.714       14.967867      14.967867      14.967867      0              0              0            
    446000   299.99802     -1180.6834      222.06888     -958.61453      448.11047      14.990183      14.990183      14.990183      0              0              0            
    447000   285.35254     -1195.897       211.22779     -984.66917      1133.281       15.158125      15.158125      15.158125      0              0              0            
    448000   302.04774     -1201.8343      223.58616     -978.24816     -1382.5762      14.924816      14.924816      14.924816      0              0              0            
    449000   303.47244     -1174.6977      224.64077     -950.05694      541.85724      15.062267      15.062267      15.062267      0              0              0            
    450000   314.87286     -1186.8982      233.07975     -953.81845      1494.826       15.08085       15.08085       15.08085       0              0              0            
    451000   298.70831     -1185.169       221.11419     -964.05479      240.42733      15.239139      15.239139      15.239139      0              0              0            
    452000   265.11771     -1193.4407      196.24928     -997.19142      529.307        14.990724      14.990724      14.990724      0              0              0            
    453000   281.85258     -1216.8857      208.63701     -1008.2487      353.89632      14.897994      14.897994      14.897994      0              0              0            
    454000   326.70412     -1205.8203      241.83766     -963.9826      -369.83416      15.042183      15.042183      15.042183      0              0              0            
    455000   270.35301     -1207.067       200.12463     -1006.9424     -2077.2483      15.10225       15.10225       15.10225       0              0              0            
    456000   303.37668     -1230.0719      224.56988     -1005.5021      1366.2274      14.791261      14.791261      14.791261      0              0              0            
    457000   290.08774     -1186.8853      214.73295     -972.1524       453.29851      14.899566      14.899566      14.899566      0              0              0            
    458000   282.78727     -1202.5681      209.32889     -993.23926     -1007.9221      15.040986      15.040986      15.040986      0              0              0            
    459000   320.91022     -1216.8301      237.54881     -979.28124      577.62289      15.009013      15.009013      15.009013      0              0              0            
    460000   316.81208     -1188.0137      234.51523     -953.49851     -204.87826      15.003997      15.003997      15.003997      0              0              0            
    461000   300.97779     -1171.5417      222.79414     -948.74757      536.01041      15.052967      15.052967      15.052967      0              0              0            
    462000   293.77929     -1202.0634      217.46557     -984.59781      759.72764      14.953129      14.953129      14.953129      0              0              0            
    463000   294.92723     -1210.39        218.31531     -992.07472      744.10049      14.892491      14.892491      14.892491      0              0              0            
    464000   323.26177     -1197.3715      239.28952     -958.08203      789.2854       14.957248      14.957248      14.957248      0              0              0            
    465000   319.05564     -1216.8728      236.17599     -980.69684     -193.81712      15.177618      15.177618      15.177618      0              0              0            
    466000   296.58278     -1232.2893      219.54081     -1012.7485     -1387.0066      14.832557      14.832557      14.832557      0              0              0            
    467000   294.72528     -1241.2753      218.16582     -1023.1094     -469.00075      14.944037      14.944037      14.944037      0              0              0            
    468000   315.14498     -1248.5584      233.28119     -1015.2772     -43.406762      14.795396      14.795396      14.795396      0              0              0            
    469000   317.09837     -1191.162       234.72715     -956.43489     -776.42671      15.043831      15.043831      15.043831      0              0              0            
    470000   320.11626     -1240.4389      236.9611      -1003.4778      641.91593      14.749907      14.749907      14.749907      0              0              0            
    471000   287.92286     -1192.4271      213.13043     -979.29667     -570.65147      15.018449      15.018449      15.018449      0              0              0            
    472000   326.63546     -1182.4578      241.78683     -940.67096     -498.48162      15.35644       15.35644       15.35644       0              0              0            
    473000   281.6412      -1231.739       208.48053     -1023.2585      161.82141      14.940482      14.940482      14.940482      0              0              0            
    474000   292.03347     -1242.5599      216.17325     -1026.3867     -1543.1101      15.016374      15.016374      15.016374      0              0              0            
    475000   310.47324     -1199.5173      229.823       -969.69428     -1946.8632      15.192369      15.192369      15.192369      0              0              0            
    476000   308.79982     -1208.2644      228.58428     -979.68013      252.93288      14.995617      14.995617      14.995617      0              0              0            
    477000   312.5678      -1217.0128      231.37347     -985.63929      294.19783      15.051269      15.051269      15.051269      0              0              0            
    478000   292.67211     -1225.1684      216.64599     -1008.5224     -752.89535      14.910004      14.910004      14.910004      0              0              0            
    479000   279.72586     -1240.2261      207.06273     -1033.1633      1075.8354      14.772902      14.772902      14.772902      0              0              0            
    480000   315.28068     -1219.6118      233.38164     -986.23013     -1041.6603      14.979355      14.979355      14.979355      0              0              0            
    481000   296.85313     -1236.3989      219.74093     -1016.6579      1181.1221      14.821325      14.821325      14.821325      0              0              0            
    482000   281.02227     -1245.8536      208.02238     -1037.8312      1777.7615      14.598568      14.598568      14.598568      0              0              0            
    483000   284.259       -1179.5031      210.41832     -969.08474      253.70089      15.181761      15.181761      15.181761      0              0              0            
    484000   298.45506     -1177.1966      220.92673     -956.26985     -389.38639      15.135194      15.135194      15.135194      0              0              0            
    485000   301.07139     -1188.5981      222.86343     -965.73464      41.626073      14.913569      14.913569      14.913569      0              0              0            
    486000   308.19439     -1200.45        228.13612     -972.31391     -620.88022      14.903146      14.903146      14.903146      0              0              0            
    487000   293.25505     -1199.5418      217.0775      -982.46429     -907.89846      15.13404       15.13404       15.13404       0              0              0            
    488000   298.5039      -1176.4996      220.96288     -955.5367      -337.09361      15.165301      15.165301      15.165301      0              0              0            
    489000   274.32579     -1199.5899      203.06541     -996.52452     -985.60044      15.116314      15.116314      15.116314      0              0              0            
    490000   316.29085     -1203.9025      234.1294      -969.77312     -937.06011      14.90624       14.90624       14.90624       0              0              0            
    491000   326.10988     -1174.7182      241.39778     -933.32039      164.4978       15.10619       15.10619       15.10619       0              0              0            
    492000   303.99159     -1206.6817      225.02506     -981.65666     -2546.7641      15.226847      15.226847      15.226847      0              0              0            
    493000   279.29404     -1208.5277      206.74309     -1001.7846     -2286.5983      15.150725      15.150725      15.150725      0              0              0            
    494000   293.15809     -1210.2063      217.00573     -993.20053      774.31896      15.012112      15.012112      15.012112      0              0              0            
    495000   278.35882     -1225.4244      206.0508      -1019.3736     -2815.5746      15.085156      15.085156      15.085156      0              0              0            
    496000   287.15623     -1204.7384      212.56295     -992.17545     -767.22333      14.983769      14.983769      14.983769      0              0              0            
    497000   327.77771     -1218.9785      242.63237     -976.34618      401.35956      14.814331      14.814331      14.814331      0              0              0            
    498000   329.26595     -1203.4958      243.73401     -959.76174      1959.2197      14.816766      14.816766      14.816766      0              0              0            
    499000   284.1506      -1227.0408      210.33808     -1016.7028     -1417.7788      14.865623      14.865623      14.865623      0              0              0            
    500000   303.35592     -1195.4136      224.55452     -970.85912      493.63185      15.045765      15.045765      15.045765      0              0              0            
    501000   304.69461     -1169.5016      225.54546     -943.95616     -17.799738      15.138201      15.138201      15.138201      0              0              0            
    502000   279.09481     -1244.3974      206.59561     -1037.8018      1631.9039      14.695782      14.695782      14.695782      0              0              0            
    503000   301.74306     -1217.4885      223.36062     -994.12786     -2084.4813      14.966082      14.966082      14.966082      0              0              0            
    504000   297.90954     -1203.1562      220.52292     -982.63329     -1535.5643      14.896781      14.896781      14.896781      0              0              0            
    505000   282.90967     -1187.4872      209.41949     -978.06775     -634.51583      15.082636      15.082636      15.082636      0              0              0            
    506000   301.65506     -1223.5514      223.29548     -1000.2559     -2944.4029      15.114601      15.114601      15.114601      0              0              0            
    507000   284.35129     -1173.4908      210.48664     -963.00415      396.85781      15.119099      15.119099      15.119099      0              0              0            
    508000   295.88582     -1180.1516      219.02489     -961.12673     -1088.2969      14.825117      14.825117      14.825117      0              0              0            
    509000   295.64967     -1193.0668      218.85009     -974.21667      2533.309       15.12627       15.12627       15.12627       0              0              0            
    510000   302.09358     -1190.4687      223.62009     -966.84858     -684.56183      14.985652      14.985652      14.985652      0              0              0            
    511000   312.6287      -1199.5463      231.41855     -968.12772      1249.1385      15.093913      15.093913      15.093913      0              0              0            
    512000   340.5148      -1176.7522      252.0608      -924.69142      17.899003      15.15372       15.15372       15.15372       0              0              0            
    513000   309.00476     -1213.3378      228.73599     -984.60178      783.32798      15.110286      15.110286      15.110286      0              0              0            
    514000   283.23413     -1192.6507      209.65967     -982.99106     -1300.2121      15.153107      15.153107      15.153107      0              0              0            
    515000   302.17111     -1202.8965      223.67748     -979.21899      352.2355       14.887325      14.887325      14.887325      0              0              0            
    516000   268.12592     -1215.6585      198.47605     -1017.1824     -1396.9075      15.153637      15.153637      15.153637      0              0              0            
    517000   297.32912     -1195.2155      220.09327     -975.1222      -517.89164      14.79506       14.79506       14.79506       0              0              0            
    518000   312.13976     -1221.642       231.05662     -990.58541     -777.53562      14.907986      14.907986      14.907986      0              0              0            
    519000   308.51606     -1230.6336      228.37423     -1002.2594     -1091.8383      14.74455       14.74455       14.74455       0              0              0            
    520000   301.00494     -1209.3039      222.81424     -986.48968     -792.41135      15.013969      15.013969      15.013969      0              0              0            
    521000   313.36725     -1200.5461      231.96525     -968.58084     -129.12555      14.869502      14.869502      14.869502      0              0              0            
    522000   288.3105      -1200.363       213.41737     -986.94562      305.95508      15.174744      15.174744      15.174744      0              0              0            
    523000   292.21944     -1234.002       216.31091     -1017.6911     -1407.9176      14.910168      14.910168      14.910168      0              0              0            
    524000   300.59255     -1194.0293      222.50898     -971.52028     -2126.112       15.255619      15.255619      15.255619      0              0              0            
    525000   294.10702     -1198.7424      217.70816     -981.03425     -598.94678      14.968597      14.968597      14.968597      0              0              0            
    526000   312.95721     -1243.473       231.66172     -1011.8113      2137.6351      14.636312      14.636312      14.636312      0              0              0            
    527000   298.34131     -1249.3207      220.84253     -1028.4782      1048.1145      14.752105      14.752105      14.752105      0              0              0            
    528000   289.07659     -1200.3551      213.98446     -986.37063      1433.4282      14.990918      14.990918      14.990918      0              0              0            
    529000   310.28031     -1184.0713      229.68019     -954.3911       2204.913       15.109069      15.109069      15.109069      0              0              0            
    530000   325.84292     -1231.9465      241.20017     -990.74631      1645.807       14.839255      14.839255      14.839255      0              0              0            
    531000   284.47396     -1195.8026      210.57744     -985.2252       167.29844      14.97785       14.97785       14.97785       0              0              0            
    532000   306.09634     -1207.1713      226.58307     -980.58822      363.80437      14.954705      14.954705      14.954705      0              0              0            
    533000   312.40229     -1176.2424      231.25095     -944.99141      104.46641      15.231591      15.231591      15.231591      0              0              0            
    534000   292.02308     -1209.8648      216.16556     -993.69924     -1205.1932      15.258251      15.258251      15.258251      0              0              0            
    535000   310.01373     -1186.186       229.48286     -956.70314     -493.39931      14.922951      14.922951      14.922951      0              0              0            
    536000   299.30919     -1210.8509      221.55899     -989.29192     -2052.6896      15.009516      15.009516      15.009516      0              0              0            
    537000   342.88504     -1187.5001      253.81534     -933.68481      682.14537      14.722852      14.722852      14.722852      0              0              0            
    538000   321.68699     -1192.7574      238.1238      -954.63355      269.28278      15.014937      15.014937      15.014937      0              0              0            
    539000   293.16984     -1194.7481      217.01443     -977.73369     -1151.7609      15.082326      15.082326      15.082326      0              0              0            
    540000   299.7932      -1188.3589      221.91727     -966.44163      463.2733       15.157698      15.157698      15.157698      0              0              0            
    541000   294.9992      -1174.2498      218.36858     -955.8812      -648.16492      15.049756      15.049756      15.049756      0              0              0            
    542000   294.05766     -1205.0885      217.67162     -987.41691     -816.53534      14.945006      14.945006      14.945006      0              0              0            
    543000   298.87786     -1199.6078      221.2397      -978.36815     -1399.8839      15.186139      15.186139      15.186139      0              0              0            
    544000   308.10389     -1169.9678      228.06913     -941.89872      1461.9         14.990424      14.990424      14.990424      0              0              0            
    545000   297.91848     -1163.2418      220.52954     -942.71228      47.486635      14.980722      14.980722      14.980722      0              0              0            
    546000   277.00752     -1204.5165      205.05052     -999.46593     -2282.2405      15.117668      15.117668      15.117668      0              0              0            
    547000   331.92386     -1209.6404      245.70149     -963.93896      1361.0653      14.751332      14.751332      14.751332      0              0              0            
    548000   301.69123     -1225.4184      223.32225     -1002.0962      2134.1983      14.867312      14.867312      14.867312      0              0              0            
    549000   301.31556     -1220.302       223.04417     -997.25783     -1677.518       14.919447      14.919447      14.919447      0              0              0            
    550000   330.25762     -1203.0373      244.46808     -958.56925     -725.05824      15.00893       15.00893       15.00893       0              0              0            
    551000   283.91778     -1176.1957      210.16573     -966.02997     -2152.4821      15.121125      15.121125      15.121125      0              0              0            
    552000   339.8256      -1167.3197      251.55063     -915.76904      491.58386      15.379855      15.379855      15.379855      0              0              0            
    553000   300.16337     -1197.7913      222.19128     -975.60005     -773.97528      15.185304      15.185304      15.185304      0              0              0            
    554000   298.10471     -1175.4321      220.66739     -954.76475     -1908.5559      15.088239      15.088239      15.088239      0              0              0            
    555000   310.51292     -1169.477       229.85238     -939.62459     -96.29917       15.121338      15.121338      15.121338      0              0              0            
    556000   290.42489     -1198.3498      214.98252     -983.36731      277.03527      14.976563      14.976563      14.976563      0              0              0            
    557000   306.51846     -1177.2084      226.89554     -950.31284      480.5306       15.163331      15.163331      15.163331      0              0              0            
    558000   333.01718     -1215.8372      246.5108      -969.3264       251.52485      15.28122       15.28122       15.28122       0              0              0            
    559000   298.21996     -1207.9219      220.7527      -987.16919      311.84029      15.035171      15.035171      15.035171      0              0              0            
    560000   269.59892     -1187.1968      199.56642     -987.63033      1333.7648      15.03911       15.03911       15.03911       0              0              0            
    561000   328.38737     -1207.6121      243.08366     -964.52844     -701.15403      15.01166       15.01166       15.01166       0              0              0            
    562000   292.85267     -1196.1671      216.77965     -979.38742     -233.93646      15.21784       15.21784       15.21784       0              0              0            
    563000   320.57026     -1173.9591      237.29717     -936.6619      -513.16189      14.940532      14.940532      14.940532      0              0              0            
    564000   306.15157     -1205.37        226.62396     -978.74602      17.930426      15.084632      15.084632      15.084632      0              0              0            
    565000   266.86611     -1201.7297      197.5435      -1004.1862      570.98174      15.120924      15.120924      15.120924      0              0              0            
    566000   322.53619     -1222.4695      238.75241     -983.71704     -788.01087      14.98189       14.98189       14.98189       0              0              0            
    567000   285.9273      -1193.8526      211.65325     -982.19935     -893.44626      14.827771      14.827771      14.827771      0              0              0            
    568000   299.56327     -1213.2712      221.74706     -991.52409      306.72579      15.02377       15.02377       15.02377       0              0              0            
    569000   297.86995     -1186.1473      220.49362     -965.65364      663.26681      15.192778      15.192778      15.192778      0              0              0            
    570000   306.01584     -1198.898       226.52348     -972.37457      249.13919      14.830443      14.830443      14.830443      0              0              0            
    571000   301.52667     -1209.0954      223.20044     -985.89491      1641.5202      14.817809      14.817809      14.817809      0              0              0            
    572000   268.08925     -1174.1367      198.44891     -975.68782      727.16478      14.926021      14.926021      14.926021      0              0              0            
    573000   299.5625      -1228.9359      221.74649     -1007.1894     -480.09157      14.764829      14.764829      14.764829      0              0              0            
    574000   282.05794     -1204.4676      208.78901     -995.67856     -2220.4037      14.801458      14.801458      14.801458      0              0              0            
    575000   295.10645     -1222.8468      218.44798     -1004.3988      307.23586      14.865838      14.865838      14.865838      0              0              0            
    576000   312.22012     -1187.5494      231.1161      -956.43334     -376.52193      14.95436       14.95436       14.95436       0              0              0            
    577000   278.32584     -1203.1368      206.02639     -997.11042     -1510.2179      15.015597      15.015597      15.015597      0              0              0            
    578000   295.24339     -1205.4997      218.54934     -986.95035      699.0271       14.930807      14.930807      14.930807      0              0              0            
    579000   298.88027     -1237.687       221.24148     -1016.4456     -1457.8998      14.803219      14.803219      14.803219      0              0              0            
    580000   315.49574     -1227.317       233.54083     -993.77616      637.01094      14.942747      14.942747      14.942747      0              0              0            
    581000   303.75026     -1200.314       224.84642     -975.46761      850.67608      14.862853      14.862853      14.862853      0              0              0            
    582000   303.40635     -1175.2892      224.59185     -950.69737     -505.41065      15.209148      15.209148      15.209148      0              0              0            
    583000   299.08469     -1180.4283      221.3928      -959.03547     -2397.6481      15.471901      15.471901      15.471901      0              0              0            
    584000   289.42073     -1181.9679      214.23921     -967.72864     -203.90473      14.995481      14.995481      14.995481      0              0              0            
    585000   303.98207     -1181.629       225.01801     -956.61095      316.22792      14.97612       14.97612       14.97612       0              0              0            
    586000   284.39493     -1194.4607      210.51894     -983.94178     -3257.7494      15.318163      15.318163      15.318163      0              0              0            
    587000   314.29848     -1160.9127      232.65457     -928.25813     -1669.0997      15.226767      15.226767      15.226767      0              0              0            
    588000   279.41305     -1184.7725      206.83118     -977.94134      693.13769      15.187951      15.187951      15.187951      0              0              0            
    589000   305.16749     -1188.39        225.8955      -962.49446     -1153.3012      15.161436      15.161436      15.161436      0              0              0            
    590000   313.48488     -1196.5916      232.05232     -964.53925     -615.49749      14.910843      14.910843      14.910843      0              0              0            
    591000   287.26626     -1231.3368      212.64439     -1018.6924     -1392.2803      15.016521      15.016521      15.016521      0              0              0            
    592000   309.02701     -1211.4903      228.75245     -982.73785      980.98916      14.848916      14.848916      14.848916      0              0              0            
    593000   273.98542     -1186.4423      202.81346     -983.62884     -1314.6695      15.060953      15.060953      15.060953      0              0              0            
    594000   269.22045     -1220.3643      199.28627     -1021.078      -734.5093       15.044665      15.044665      15.044665      0              0              0            
    595000   346.95062     -1199.3667      256.82482     -942.54192      2777.9491      15.114051      15.114051      15.114051      0              0              0            
    596000   325.25257     -1200.6885      240.76317     -959.92534      179.85623      15.031596      15.031596      15.031596      0              0              0            
    597000   295.18435     -1213.2061      218.50564     -994.70046      1004.8579      14.828875      14.828875      14.828875      0              0              0            
    598000   316.12852     -1195.2684      234.00923     -961.25915      750.44438      14.861845      14.861845      14.861845      0              0              0            
    599000   299.42226     -1211.8869      221.64269     -990.24423     -1927.4304      14.924693      14.924693      14.924693      0              0              0            
    600000   276.58986     -1199.8169      204.74135     -995.07554     -2778.3483      14.950073      14.950073      14.950073      0              0              0            
    601000   297.22869     -1218.2906      220.01893     -998.27171      82.027897      14.950034      14.950034      14.950034      0              0              0            
    602000   275.08698     -1193.1344      203.62888     -989.50548      855.08661      15.202215      15.202215      15.202215      0              0              0            
    603000   304.201       -1180.4167      225.18007     -955.23663     -883.11041      15.105973      15.105973      15.105973      0              0              0            
    604000   292.21394     -1196.2519      216.30684     -979.94507     -660.73465      15.07278       15.07278       15.07278       0              0              0            
    605000   280.77027     -1195.7874      207.83584     -987.95151      29.291837      15.005489      15.005489      15.005489      0              0              0            
    606000   311.3707      -1205.439       230.48733     -974.95163      520.41325      15.087352      15.087352      15.087352      0              0              0            
    607000   288.90107     -1202.8418      213.85454     -988.98722     -864.10298      15.054886      15.054886      15.054886      0              0              0            
    608000   299.17696     -1190.1349      221.46111     -968.6738       89.896524      14.968123      14.968123      14.968123      0              0              0            
    609000   284.57116     -1162.3839      210.64939     -951.73451     -2340.1145      15.292501      15.292501      15.292501      0              0              0            
    610000   269.14349     -1206.8147      199.2293      -1007.5854     -2590.6351      15.038662      15.038662      15.038662      0              0              0            
    611000   294.98214     -1205.5739      218.35596     -987.21793      866.59595      14.952424      14.952424      14.952424      0              0              0            
    612000   312.6612      -1216.9204      231.44261     -985.47777     -356.23038      14.954751      14.954751      14.954751      0              0              0            
    613000   298.8082      -1191.7153      221.18814     -970.5272       884.33244      15.058322      15.058322      15.058322      0              0              0            
    614000   310.6138      -1207.8366      229.92705     -977.90958     -1946.8144      15.212334      15.212334      15.212334      0              0              0            
    615000   314.30717     -1210.7773      232.66101     -978.11628     -400.23959      15.003671      15.003671      15.003671      0              0              0            
    616000   283.61948     -1197.0506      209.94493     -987.10567     -1262.6599      15.044996      15.044996      15.044996      0              0              0            
    617000   296.45777     -1213.966       219.44827     -994.51774     -430.13069      14.931553      14.931553      14.931553      0              0              0            
    618000   278.53292     -1200.965       206.17967     -994.78536     -713.51695      15.133858      15.133858      15.133858      0              0              0            
    619000   327.8687      -1197.8252      242.69972     -955.12552     -1403.1602      15.149927      15.149927      15.149927      0              0              0            
    620000   296.91202     -1192.7461      219.78452     -972.96162     -191.04518      14.941666      14.941666      14.941666      0              0              0            
    621000   324.47393     -1241.6939      240.1868      -1001.5071      742.09504      14.814699      14.814699      14.814699      0              0              0            
    622000   342.34888     -1179.1054      253.41845     -925.68697      1405.6955      14.948306      14.948306      14.948306      0              0              0            
    623000   290.40217     -1191.1459      214.9657      -976.18019     -1359.9174      15.064293      15.064293      15.064293      0              0              0            
    624000   318.1608      -1224.1345      235.5136      -988.62091      235.12919      14.840828      14.840828      14.840828      0              0              0            
    625000   282.53041     -1175.5749      209.13875     -966.43619      347.21301      15.193289      15.193289      15.193289      0              0              0            
    626000   285.74463     -1210.3424      211.51803     -998.82437     -1054.5076      14.966544      14.966544      14.966544      0              0              0            
    627000   287.62423     -1226.3882      212.90938     -1013.4788     -564.73342      14.940662      14.940662      14.940662      0              0              0            
    628000   291.89226     -1220.9313      216.06872     -1004.8626     -116.81688      14.820253      14.820253      14.820253      0              0              0            
    629000   282.31168     -1196.4248      208.97684     -987.44799      425.29812      14.818484      14.818484      14.818484      0              0              0            
    630000   293.78132     -1187.7469      217.46707     -970.27983     -742.65768      15.133058      15.133058      15.133058      0              0              0            
    631000   305.14373     -1197.5311      225.87791     -971.65323      469.98126      14.970804      14.970804      14.970804      0              0              0            
    632000   309.55276     -1242.6165      229.14163     -1013.4749     -1169.5373      15.016811      15.016811      15.016811      0              0              0            
    633000   299.79666     -1209.1142      221.91983     -987.19441     -499.92405      15.281002      15.281002      15.281002      0              0              0            
    634000   321.08961     -1201.7567      237.68161     -964.07514      1894.496       15.254146      15.254146      15.254146      0              0              0            
    635000   301.50094     -1190.7707      223.18139     -967.58934      175.67862      15.036819      15.036819      15.036819      0              0              0            
    636000   284.2726      -1195.3994      210.42838     -984.97104     -2205.597       15.007666      15.007666      15.007666      0              0              0            
    637000   301.41094     -1186.4399      223.11478     -963.32512     -608.1534       14.926671      14.926671      14.926671      0              0              0            
    638000   280.26356     -1194.4564      207.46075     -986.99569     -252            15.156478      15.156478      15.156478      0              0              0            
    639000   292.08376     -1212.416       216.21048     -996.20555      80.189534      15.215147      15.215147      15.215147      0              0              0            
    640000   291.2774      -1199.2283      215.61358     -983.61468     -469.50395      15.193009      15.193009      15.193009      0              0              0            
    641000   320.00804     -1217.9176      236.88099     -981.03658      42.53529       14.923665      14.923665      14.923665      0              0              0            
    642000   289.02978     -1209.6535      213.94981     -995.70364     -1392.1953      14.93958       14.93958       14.93958       0              0              0            
    643000   316.96138     -1188.7887      234.62574     -954.16293      705.56122      15.037078      15.037078      15.037078      0              0              0            
    644000   309.17891     -1194.2884      228.8649      -965.42351     -537.13419      14.931952      14.931952      14.931952      0              0              0            
    645000   297.72444     -1233.1549      220.3859      -1012.769       114.42027      14.809703      14.809703      14.809703      0              0              0            
    646000   294.22194     -1191.6144      217.79323     -973.82119      1633.0697      15.004368      15.004368      15.004368      0              0              0            
    647000   289.7722      -1188.543       214.49938     -974.0436       1168.9532      14.914955      14.914955      14.914955      0              0              0            
    648000   311.37559     -1216.749       230.49095     -986.25804      896.68659      15.070435      15.070435      15.070435      0              0              0            
    649000   304.93477     -1188.6692      225.72324     -962.946       -444.12035      15.141854      15.141854      15.141854      0              0              0            
    650000   312.94465     -1191.4563      231.65243     -959.80384     -738.2589       15.268503      15.268503      15.268503      0              0              0            
    651000   279.72211     -1162.2663      207.05996     -955.20639      1296.5975      15.255844      15.255844      15.255844      0              0              0            
    652000   314.40306     -1199.4812      232.73199     -966.74924      39.248261      14.953122      14.953122      14.953122      0              0              0            
    653000   307.81997     -1185.4402      227.85896     -957.5812       303.54811      14.657422      14.657422      14.657422      0              0              0            
    654000   285.94337     -1209.1543      211.66514     -997.48914     -1210.3492      15.066867      15.066867      15.066867      0              0              0            
    655000   312.53163     -1195.822       231.34669     -964.47528      1528.3979      15.078553      15.078553      15.078553      0              0              0            
    656000   301.04238     -1201.4283      222.84195     -978.58638     -1044.8561      15.039149      15.039149      15.039149      0              0              0            
    657000   287.92534     -1195.3754      213.13227     -982.24315      316.95054      14.974134      14.974134      14.974134      0              0              0            
    658000   279.50064     -1219.9988      206.89602     -1013.1028     -2168.1714      15.143454      15.143454      15.143454      0              0              0            
    659000   297.84633     -1200.6574      220.47612     -980.18132     -1982.3663      15.112831      15.112831      15.112831      0              0              0            
    660000   284.58936     -1174.596       210.66286     -963.93312     -226.0755       15.402554      15.402554      15.402554      0              0              0            
    661000   288.86852     -1171.2913      213.83044     -957.4609       970.94418      15.029261      15.029261      15.029261      0              0              0            
    662000   332.19211     -1210.4091      245.90006     -964.50905      249.74852      14.989336      14.989336      14.989336      0              0              0            
    663000   303.54335     -1193.7512      224.69326     -969.05793      925.60325      15.06869       15.06869       15.06869       0              0              0            
    664000   293.44849     -1228.2093      217.22069     -1010.9887      1195.6064      15.002734      15.002734      15.002734      0              0              0            
    665000   290.4214      -1201.1667      214.97994     -986.18678     -2473.9761      15.014137      15.014137      15.014137      0              0              0            
    666000   313.55137     -1211.1994      232.10154     -979.09783     -2668.2775      15.128004      15.128004      15.128004      0              0              0            
    667000   304.30298     -1211.8125      225.25556     -986.55691      1826.8659      14.789121      14.789121      14.789121      0              0              0            
    668000   309.06591     -1236.1637      228.78125     -1007.3824     -42.07319       14.944723      14.944723      14.944723      0              0              0            
    669000   298.16914     -1228.6415      220.71508     -1007.9264      312.46954      14.776527      14.776527      14.776527      0              0              0            
    670000   322.64043     -1180.4304      238.82957     -941.60083     -1891.1379      15.055343      15.055343      15.055343      0              0              0            
    671000   278.72554     -1178.9321      206.32226     -972.60985     -961.38552      15.316372      15.316372      15.316372      0              0              0            
    672000   287.5472      -1183.4614      212.85236     -970.60905      487.75053      15.059161      15.059161      15.059161      0              0              0            
    673000   319.82569     -1191.245       236.74601     -954.49899      1863.4445      14.878901      14.878901      14.878901      0              0              0            
    674000   307.05579     -1209.4289      227.29329     -982.13566     -1018.2638      15.110164      15.110164      15.110164      0              0              0            
    675000   295.31232     -1207.1264      218.60036     -988.52602      2546.8048      14.852086      14.852086      14.852086      0              0              0            
    676000   302.3803      -1241.4616      223.83233     -1017.6293     -724.67465      15.090822      15.090822      15.090822      0              0              0            
    677000   312.37662     -1195.4812      231.23195     -964.24923     -831.11363      14.99166       14.99166       14.99166       0              0              0            
    678000   300.35305     -1207.1213      222.33169     -984.7896      -19.835835      15.110442      15.110442      15.110442      0              0              0            
    679000   313.94519     -1223.6958      232.39306     -991.30273      90.264288      14.83633       14.83633       14.83633       0              0              0            
    680000   316.73693     -1199.2475      234.4596      -964.78793      1182.2089      14.968733      14.968733      14.968733      0              0              0            
    681000   305.70985     -1205.3645      226.29697     -979.06755     -1068.1926      15.024824      15.024824      15.024824      0              0              0            
    682000   309.0304      -1203.879       228.75496     -975.12407     -715.23427      15.084103      15.084103      15.084103      0              0              0            
    683000   305.73558     -1209.7552      226.31602     -983.43916      518.2388       14.818933      14.818933      14.818933      0              0              0            
    684000   289.36411     -1188.0593      214.1973      -973.86196      395.66399      15.034723      15.034723      15.034723      0              0              0            
    685000   312.28977     -1189.2199      231.16766     -958.05223     -1083.151       15.33299       15.33299       15.33299       0              0              0            
    686000   304.36658     -1206.8691      225.30264     -981.56649      2110.4846      14.94288       14.94288       14.94288       0              0              0            
    687000   310.17263     -1188.6994      229.60048     -959.09888      75.922131      15.280879      15.280879      15.280879      0              0              0            
    688000   307.52951     -1230.543       227.64395     -1002.8991      284.33168      14.931534      14.931534      14.931534      0              0              0            
    689000   282.29728     -1232.3471      208.96619     -1023.3809     -1449.8266      14.794555      14.794555      14.794555      0              0              0            
    690000   302.31659     -1246.8157      223.78517     -1023.0305      1608.4968      14.913088      14.913088      14.913088      0              0              0            
    691000   292.3517      -1189.3452      216.40882     -972.93636     -979.25357      15.134546      15.134546      15.134546      0              0              0            
    692000   281.93086     -1214.7463      208.69495     -1006.0514      237.20744      14.899489      14.899489      14.899489      0              0              0            
    693000   286.76502     -1219.0076      212.27336     -1006.7342     -2170.4033      15.061518      15.061518      15.061518      0              0              0            
    694000   295.96972     -1238.8587      219.087       -1019.7717      274.48249      14.918302      14.918302      14.918302      0              0              0            
    695000   307.53575     -1190.3057      227.64857     -962.65715      670.48017      14.871113      14.871113      14.871113      0              0              0            
    696000   311.61518     -1236.6353      230.66831     -1005.967       2097.9588      14.662958      14.662958      14.662958      0              0              0            
    697000   296.03689     -1210.3288      219.13672     -991.19207      954.35484      14.76767       14.76767       14.76767       0              0              0            
    698000   298.34178     -1193.072       220.84288     -972.2291      -466.2941       14.864262      14.864262      14.864262      0              0              0            
    699000   320.93253     -1219.4169      237.56533     -981.85155      1881.7657      14.784782      14.784782      14.784782      0              0              0            
    700000   303.96217     -1196.8637      225.00328     -971.86038     -665.74433      14.895136      14.895136      14.895136      0              0              0            
    701000   321.9561      -1204.297       238.32301     -965.974       -600.43704      15.04823       15.04823       15.04823       0              0              0            
    702000   304.85957     -1211.7688      225.66757     -986.10122      535.53031      14.897814      14.897814      14.897814      0              0              0            
    703000   305.05216     -1210.7742      225.81013     -984.96411      413.14245      14.898083      14.898083      14.898083      0              0              0            
    704000   315.74615     -1239.7139      233.72619     -1005.9877      1027.8701      14.934156      14.934156      14.934156      0              0              0            
    705000   307.02038     -1199.7443      227.26707     -972.47723      1320.6788      15.047834      15.047834      15.047834      0              0              0            
    706000   295.98626     -1163.2389      219.09924     -944.13964      2307.888       15.071285      15.071285      15.071285      0              0              0            
    707000   309.76306     -1226.63        229.2973      -997.33272      594.68743      15.021268      15.021268      15.021268      0              0              0            
    708000   304.10709     -1171.8361      225.11056     -946.72558     -886.30794      15.099078      15.099078      15.099078      0              0              0            
    709000   317.96835     -1221.2103      235.37114     -985.83917     -2403.7409      15.082106      15.082106      15.082106      0              0              0            
    710000   317.97965     -1212.725       235.37951     -977.34551      880.24082      14.939734      14.939734      14.939734      0              0              0            
    711000   302.8236      -1205.7632      224.16047     -981.6027       375.42862      14.943397      14.943397      14.943397      0              0              0            
    712000   291.35169     -1171.3088      215.66857     -955.64027     -700.81243      15.415454      15.415454      15.415454      0              0              0            
    713000   319.52085     -1213.6609      236.52036     -977.14056     -1552.5182      14.937419      14.937419      14.937419      0              0              0            
    714000   292.03021     -1203.3223      216.17084     -987.15151     -662.64187      14.917629      14.917629      14.917629      0              0              0            
    715000   320.62851     -1218.8728      237.34028     -981.53249     -216.37646      15.018099      15.018099      15.018099      0              0              0            
    716000   287.30528     -1202.8756      212.67328     -990.20233     -939.35371      15.237333      15.237333      15.237333      0              0              0            
    717000   299.67121     -1210.5667      221.82697     -988.73977     -2533.3702      15.016492      15.016492      15.016492      0              0              0            
    718000   314.54005     -1219.6536      232.8334      -986.82022     -674.91649      14.985207      14.985207      14.985207      0              0              0            
    719000   302.0539      -1195.1762      223.59071     -971.58549     -1559.6034      15.100288      15.100288      15.100288      0              0              0            
    720000   324.88569     -1197.3622      240.4916      -956.87056     -215.31221      15.119401      15.119401      15.119401      0              0              0            
    721000   328.79241     -1185.8173      243.38348     -942.43379      567.39937      15.020494      15.020494      15.020494      0              0              0            
    722000   283.74864     -1186.6631      210.04053     -976.62253     -2188.7688      15.194825      15.194825      15.194825      0              0              0            
    723000   304.97514     -1230.1639      225.75312     -1004.4108     -810.92575      15.057877      15.057877      15.057877      0              0              0            
    724000   297.71229     -1213.3349      220.3769      -992.95795     -349.51239      15.012233      15.012233      15.012233      0              0              0            
    725000   310.1842      -1205.8212      229.60905     -976.21219     -605.17111      15.180421      15.180421      15.180421      0              0              0            
    726000   301.48248     -1200.41        223.16773     -977.24227      3456.9636      14.631792      14.631792      14.631792      0              0              0            
    727000   290.23147     -1210.3863      214.83935     -995.54695     -154.02543      15.024106      15.024106      15.024106      0              0              0            
    728000   300.29565     -1196.3278      222.2892      -974.03865      180.48928      15.007823      15.007823      15.007823      0              0              0            
    729000   293.54628     -1210.6311      217.29308     -993.33801      395.8431       15.060883      15.060883      15.060883      0              0              0            
    730000   310.54692     -1204.313       229.87754     -974.43545     -671.95652      15.20731       15.20731       15.20731       0              0              0            
    731000   322.17763     -1216.3322      238.487       -977.84524      70.632109      14.922585      14.922585      14.922585      0              0              0            
    732000   303.69322     -1210.8006      224.8042      -985.99638      87.590913      15.069462      15.069462      15.069462      0              0              0            
    733000   300.04898     -1182.9601      222.10661     -960.85353     -11.147754      15.188468      15.188468      15.188468      0              0              0            
    734000   300.97839     -1174.4243      222.79459     -951.62973     -2075.4586      15.154116      15.154116      15.154116      0              0              0            
    735000   318.33731     -1194.9196      235.64426     -959.27537     -2079.5509      15.206329      15.206329      15.206329      0              0              0            
    736000   296.09053     -1197.6079      219.17643     -978.43144      2176.3829      14.900471      14.900471      14.900471      0              0              0            
    737000   310.52483     -1215.6986      229.86119     -985.83745      530.27238      14.818065      14.818065      14.818065      0              0              0            
    738000   286.16357     -1199.1175      211.82814     -987.28939     -87.360196      14.905513      14.905513      14.905513      0              0              0            
    739000   289.25501     -1198.4853      214.11654     -984.36879     -1365.8727      14.85458       14.85458       14.85458       0              0              0            
    740000   336.36535     -1207.4709      248.98923     -958.48164     -126.23018      15.175938      15.175938      15.175938      0              0              0            
    741000   330.95542     -1146.601       244.98462     -901.61641     -2229.9643      15.648698      15.648698      15.648698      0              0              0            
    742000   271.58577     -1189.2621      201.03715     -988.22491      836.81835      15.115387      15.115387      15.115387      0              0              0            
    743000   294.59427     -1203.6087      218.06884     -985.53985     -462.14053      14.97824       14.97824       14.97824       0              0              0            
    744000   310.25231     -1211.1858      229.65946     -981.52632     -1746.4019      15.161161      15.161161      15.161161      0              0              0            
    745000   300.85548     -1197.2852      222.7036      -974.58164     -1097.9799      15.121611      15.121611      15.121611      0              0              0            
    746000   298.29303     -1176.7547      220.80679     -955.94794      1402.2598      15.234538      15.234538      15.234538      0              0              0            
    747000   326.64509     -1178.7765      241.79396     -936.98254      851.6847       15.195834      15.195834      15.195834      0              0              0            
    748000   307.41153     -1211.4568      227.55662     -983.9002       444.4707       14.94764       14.94764       14.94764       0              0              0            
    749000   293.65119     -1212.2867      217.37074     -994.91594     -305.03605      14.902545      14.902545      14.902545      0              0              0            
    750000   281.05671     -1215.337       208.04787     -1007.2892     -14.774834      14.803327      14.803327      14.803327      0              0              0            
    751000   288.89302     -1234.3828      213.84858     -1020.5342     -566.8262       14.866077      14.866077      14.866077      0              0              0            
    752000   280.86772     -1188.0538      207.90797     -980.14583      198.20541      14.916362      14.916362      14.916362      0              0              0            
    753000   272.32539     -1207.643       201.58465     -1006.0583      101.02059      15.016384      15.016384      15.016384      0              0              0            
    754000   313.4717      -1203.9648      232.04257     -971.92225      286.54635      14.85496       14.85496       14.85496       0              0              0            
    755000   321.97277     -1208.6923      238.33535     -970.3569      -563.72624      15.032874      15.032874      15.032874      0              0              0            
    756000   294.95738     -1195.4325      218.33763     -977.09488     -996.75659      15.133327      15.133327      15.133327      0              0              0            
    757000   290.56432     -1213.6934      215.08573     -998.60765     -178.46549      15.253846      15.253846      15.253846      0              0              0            
    758000   309.96666     -1199.2565      229.44802     -969.80853     -324.46531      14.975384      14.975384      14.975384      0              0              0            
    759000   277.87115     -1226.3936      205.68981     -1020.7038     -153.19606      15.054583      15.054583      15.054583      0              0              0            
    760000   298.03968     -1196.6012      220.61925     -975.98199     -1699.5396      15.185331      15.185331      15.185331      0              0              0            
    761000   322.97989     -1184.284       239.08085     -945.2031       35.500543      14.984307      14.984307      14.984307      0              0              0            
    762000   275.3729      -1177.9357      203.84052     -974.09521      108.55172      14.939173      14.939173      14.939173      0              0              0            
    763000   277.07811     -1207.0504      205.10278     -1001.9477     -93.693839      14.982654      14.982654      14.982654      0              0              0            
    764000   291.53395     -1206.4452      215.80349     -990.6417      -55.065963      15.055893      15.055893      15.055893      0              0              0            
    765000   319.48614     -1216.1417      236.49466     -979.64708      384.92123      14.982638      14.982638      14.982638      0              0              0            
    766000   306.61275     -1206.2633      226.96533     -979.29796      771.98221      14.843852      14.843852      14.843852      0              0              0            
    767000   315.7546      -1206.0929      233.73244     -972.36045      98.330882      15.076674      15.076674      15.076674      0              0              0            
    768000   304.14707     -1177.2899      225.14015     -952.14978      807.18629      15.037741      15.037741      15.037741      0              0              0            
    769000   314.04308     -1235.0819      232.46552     -1002.6164     -624.07144      15.024637      15.024637      15.024637      0              0              0            
    770000   291.58203     -1227.8469      215.83907     -1012.0078     -129.30861      14.92409       14.92409       14.92409       0              0              0            
    771000   292.03839     -1226.3748      216.17689     -1010.198      -724.77206      14.94231       14.94231       14.94231       0              0              0            
    772000   306.26311     -1212.6293      226.70652     -985.92275      921.88329      15.018394      15.018394      15.018394      0              0              0            
    773000   296.57412     -1205.1471      219.53439     -985.61271     -1258.9555      15.070242      15.070242      15.070242      0              0              0            
    774000   320.51974     -1241.65        237.25977     -1004.3903     -1201.9359      14.772358      14.772358      14.772358      0              0              0            
    775000   331.32331     -1219.6037      245.25694     -974.34671      618.6004       14.895547      14.895547      14.895547      0              0              0            
    776000   290.54075     -1192.7396      215.06829     -977.6713       544.38598      14.956475      14.956475      14.956475      0              0              0            
    777000   292.22483     -1204.4634      216.3149      -988.14846     -603.07976      15.109263      15.109263      15.109263      0              0              0            
    778000   276.99066     -1198.5999      205.03804     -993.56187     -341.27158      14.957023      14.957023      14.957023      0              0              0            
    779000   304.09289     -1201.5091      225.10005     -976.40906      228.45261      14.936252      14.936252      14.936252      0              0              0            
    780000   287.8222      -1217.378       213.05592     -1004.3221     -642.34734      14.813646      14.813646      14.813646      0              0              0            
    781000   300.57915     -1207.9535      222.49905     -985.45443     -74.030065      14.832945      14.832945      14.832945      0              0              0            
    782000   291.60191     -1202.4273      215.85379     -986.5735       1293.5916      14.883679      14.883679      14.883679      0              0              0            
    783000   309.45025     -1208.5085      229.06575     -979.44271      136.44997      14.879978      14.879978      14.879978      0              0              0            
    784000   295.62033     -1190.7103      218.82837     -971.88191     -174.62525      14.951231      14.951231      14.951231      0              0              0            
    785000   278.21159     -1205.6867      205.94182     -999.7449      -111.1042       14.983158      14.983158      14.983158      0              0              0            
    786000   304.56777     -1187.6821      225.45157     -962.23057      1376.4446      15.046042      15.046042      15.046042      0              0              0            
    787000   299.74506     -1227.7117      221.88163     -1005.83        424.55336      15.068695      15.068695      15.068695      0              0              0            
    788000   286.08061     -1207.1542      211.76674     -995.38744      2948.813       14.871443      14.871443      14.871443      0              0              0            
    789000   299.68751     -1200.4511      221.83903     -978.61211      1694.8589      14.884689      14.884689      14.884689      0              0              0            
    790000   293.10778     -1191.0055      216.96849     -974.037        1715.4783      14.835891      14.835891      14.835891      0              0              0            
    791000   306.55168     -1183.1396      226.92013     -956.21942      1054.6455      15.117015      15.117015      15.117015      0              0              0            
    792000   307.41668     -1182.843       227.56043     -955.2826      -1857.8304      15.472436      15.472436      15.472436      0              0              0            
    793000   330.47827     -1193.5943      244.63142     -948.96288     -1657.889       15.247998      15.247998      15.247998      0              0              0            
    794000   275.69462     -1179.1372      204.07867     -975.05854      297.95938      15.304096      15.304096      15.304096      0              0              0            
    795000   298.37416     -1217.4414      220.86685     -996.57459     -898.18623      14.895763      14.895763      14.895763      0              0              0            
    796000   301.34026     -1240.0372      223.06246     -1016.9747      239.30453      14.948555      14.948555      14.948555      0              0              0            
    797000   305.47377     -1184.9287      226.12222     -958.80647      393.74617      14.879326      14.879326      14.879326      0              0              0            
    798000   309.73923     -1187.88        229.27967     -958.60036      978.61606      15.102527      15.102527      15.102527      0              0              0            
    799000   295.81255     -1224.5548      218.97065     -1005.5842      504.36536      14.881775      14.881775      14.881775      0              0              0            
    800000   299.07775     -1200.3797      221.38767     -978.99199      531.82752      14.812431      14.812431      14.812431      0              0              0            
    801000   279.89427     -1212.7571      207.18739     -1005.5697     -88.605657      15.083028      15.083028      15.083028      0              0              0            
    802000   286.50999     -1216.9559      212.08458     -1004.8713      88.932919      14.835835      14.835835      14.835835      0              0              0            
    803000   310.26751     -1223.3567      229.67072     -993.68601     -1566.3538      15.106978      15.106978      15.106978      0              0              0            
    804000   310.95868     -1214.6827      230.18234     -984.50031      652.83522      15.05454       15.05454       15.05454       0              0              0            
    805000   264.63237     -1211.8417      195.89001     -1015.9517      319.58004      15.036392      15.036392      15.036392      0              0              0            
    806000   306.02741     -1210.0425      226.53204     -983.5105       755.93305      14.868057      14.868057      14.868057      0              0              0            
    807000   297.43246     -1224.5025      220.16977     -1004.3327     -1196.2088      14.988921      14.988921      14.988921      0              0              0            
    808000   312.10452     -1182.4149      231.03053     -951.38438     -646.80075      15.035089      15.035089      15.035089      0              0              0            
    809000   295.84728     -1217.8932      218.99636     -998.89684      1240.5974      14.802087      14.802087      14.802087      0              0              0            
    810000   310.53201     -1234.8998      229.86651     -1005.0333      8.5676933      14.96669       14.96669       14.96669       0              0              0            
    811000   291.42479     -1226.0011      215.72268     -1010.2785     -1517.8622      14.592822      14.592822      14.592822      0              0              0            
    812000   284.27566     -1185.5987      210.43065     -975.1681       69.057205      14.991012      14.991012      14.991012      0              0              0            
    813000   347.22398     -1199.0242      257.02717     -941.99708     -297.84995      15.000335      15.000335      15.000335      0              0              0            
    814000   299.65991     -1244.0944      221.8186      -1022.2758      1364.0954      14.902455      14.902455      14.902455      0              0              0            
    815000   339.50373     -1231.948       251.31238     -980.6356       55.321343      14.727016      14.727016      14.727016      0              0              0            
    816000   305.29739     -1213.4554      225.99166     -987.46377      191.03812      15.03045       15.03045       15.03045       0              0              0            
    817000   288.10303     -1177.3771      213.2638      -964.11332      1021.3646      15.029721      15.029721      15.029721      0              0              0            
    818000   283.73993     -1239.6685      210.03408     -1029.6344      878.77914      15.040024      15.040024      15.040024      0              0              0            
    819000   304.54798     -1228.7758      225.43692     -1003.3389      919.88736      14.957204      14.957204      14.957204      0              0              0            
    820000   300.2105      -1187.6087      222.22617     -965.38258     -1476.4576      15.226977      15.226977      15.226977      0              0              0            
    821000   309.85183     -1199.3291      229.36301     -969.96613     -907.29469      15.173749      15.173749      15.173749      0              0              0            
    822000   299.20805     -1219.2624      221.48412     -997.77833     -979.69954      14.950293      14.950293      14.950293      0              0              0            
    823000   279.33956     -1197.5852      206.77678     -990.80844     -360.13288      15.043275      15.043275      15.043275      0              0              0            
    824000   286.45123     -1186.9642      212.04108     -974.92307      1818.6969      15.100509      15.100509      15.100509      0              0              0            
    825000   271.87061     -1207.1803      201.248       -1005.9323      606.32706      14.987517      14.987517      14.987517      0              0              0            
    826000   297.7865      -1215.4395      220.43184     -995.00766      1807.1382      15.126765      15.126765      15.126765      0              0              0            
    827000   304.39553     -1222.9717      225.32407     -997.64765      262.81372      14.847627      14.847627      14.847627      0              0              0            
    828000   274.97882     -1183.1887      203.54881     -979.63992     -991.91618      14.957849      14.957849      14.957849      0              0              0            
    829000   286.06318     -1209.8113      211.75383     -998.05746     -1971.9091      15.092512      15.092512      15.092512      0              0              0            
    830000   281.81252     -1234.564       208.60735     -1025.9567     -1296.2941      14.888794      14.888794      14.888794      0              0              0            
    831000   287.95749     -1225.4522      213.15607     -1012.2962     -645.96135      14.955856      14.955856      14.955856      0              0              0            
    832000   333.21007     -1200.9002      246.65359     -954.24666      327.04579      15.198083      15.198083      15.198083      0              0              0            
    833000   308.35483     -1180.0935      228.25488     -951.8386       811.77454      15.074565      15.074565      15.074565      0              0              0            
    834000   293.63094     -1165.2971      217.35575     -947.94131      1694.6394      15.072411      15.072411      15.072411      0              0              0            
    835000   301.92337     -1201.9558      223.49409     -978.46176     -2043.904       15.16352       15.16352       15.16352       0              0              0            
    836000   268.8949      -1209.1115      199.04528     -1010.0662     -698.74919      15.039883      15.039883      15.039883      0              0              0            
    837000   313.23004     -1193.3376      231.86368     -961.47388      1395.1508      14.981758      14.981758      14.981758      0              0              0            
    838000   318.41949     -1201.1137      235.70509     -965.40864      203.86749      14.964778      14.964778      14.964778      0              0              0            
    839000   310.55774     -1197.2779      229.88555     -967.39232     -1599.3537      15.104785      15.104785      15.104785      0              0              0            
    840000   310.41264     -1237.641       229.77814     -1007.8629      354.41812      14.970138      14.970138      14.970138      0              0              0            
    841000   315.02235     -1199.7652      233.19041     -966.57478     -959.92809      15.150187      15.150187      15.150187      0              0              0            
    842000   278.01269     -1221.6449      205.79459     -1015.8503     -1206.9698      15.147429      15.147429      15.147429      0              0              0            
    843000   270.14696     -1227.6169      199.9721      -1027.6448     -365.34861      15.261665      15.261665      15.261665      0              0              0            
    844000   299.08671     -1231.2884      221.3943      -1009.8941      472.57773      14.971341      14.971341      14.971341      0              0              0            
    845000   320.7409      -1235.3525      237.42347     -997.929       -1380.1079      14.917292      14.917292      14.917292      0              0              0            
    846000   301.02865     -1187.9382      222.83179     -965.10642     -338.06562      15.173922      15.173922      15.173922      0              0              0            
    847000   309.97206     -1205.855       229.45201     -976.40299     -1442.2433      15.129643      15.129643      15.129643      0              0              0            
    848000   287.7677      -1207.3109      213.01558     -994.29531      1054.3526      14.77953       14.77953       14.77953       0              0              0            
    849000   305.18322     -1215.9619      225.90715     -990.0548       928.27146      14.653629      14.653629      14.653629      0              0              0            
    850000   314.38021     -1182.2617      232.71508     -949.54664      924.51759      14.807233      14.807233      14.807233      0              0              0            
    851000   299.11226     -1188.3281      221.41321     -966.91493     -2076.9922      15.140907      15.140907      15.140907      0              0              0            
    852000   320.60658     -1209.1174      237.32405     -971.79336      2539.1071      14.992961      14.992961      14.992961      0              0              0            
    853000   290.9254      -1204.6347      215.35302     -989.28166      685.92974      15.059878      15.059878      15.059878      0              0              0            
    854000   298.55135     -1205.888       220.998       -984.88997      714.1962       14.998653      14.998653      14.998653      0              0              0            
    855000   313.24583     -1188.6136      231.87537     -956.7382      -2297.6587      15.122213      15.122213      15.122213      0              0              0            
    856000   320.27884     -1185.4068      237.08144     -948.3254      -1254.1587      15.223256      15.223256      15.223256      0              0              0            
    857000   321.11877     -1199.6199      237.70319     -961.91675      1525.9586      14.677013      14.677013      14.677013      0              0              0            
    858000   300.45354     -1201.358       222.40607     -978.95195     -187.75232      14.830393      14.830393      14.830393      0              0              0            
    859000   288.26645     -1185.9299      213.38477     -972.54509      1459.4138      14.987369      14.987369      14.987369      0              0              0            
    860000   316.10267     -1187.3392      233.9901      -953.34908      1690.0501      14.827755      14.827755      14.827755      0              0              0            
    861000   281.06672     -1171.4447      208.05528     -963.38938     -905.50233      15.277756      15.277756      15.277756      0              0              0            
    862000   296.65897     -1202.4344      219.5972      -982.83725      985.10601      15.036006      15.036006      15.036006      0              0              0            
    863000   296.95444     -1175.6003      219.81592     -955.78439      1721.5888      15.106651      15.106651      15.106651      0              0              0            
    864000   287.43959     -1185.0949      212.7727      -972.3222      -1427.1196      15.105554      15.105554      15.105554      0              0              0            
    865000   313.19501     -1175.9888      231.83775     -944.15106      1199.0734      15.086932      15.086932      15.086932      0              0              0            
    866000   326.00401     -1160.0846      241.31941     -918.76523      138.41673      15.148316      15.148316      15.148316      0              0              0            
    867000   283.16679     -1199.8401      209.60983     -990.23031      494.03268      15.001578      15.001578      15.001578      0              0              0            
    868000   320.30109     -1215.8553      237.09792     -978.75741      309.16973      14.879339      14.879339      14.879339      0              0              0            
    869000   304.84643     -1199.028       225.65784     -973.37017      1667.6197      14.849524      14.849524      14.849524      0              0              0            
    870000   317.38407     -1208.1813      234.93864     -973.2427      -301.21367      15.03446       15.03446       15.03446       0              0              0            
    871000   312.02345     -1209.7777      230.97052     -978.80723      1095.8538      15.005807      15.005807      15.005807      0              0              0            
    872000   314.84396     -1194.5531      233.05836     -961.49479     -2221.3211      14.821322      14.821322      14.821322      0              0              0            
    873000   299.33601     -1230.7555      221.57884     -1009.1766      38.096137      14.953963      14.953963      14.953963      0              0              0            
    874000   267.03756     -1212.3316      197.67041     -1014.6612     -1093.0284      15.077744      15.077744      15.077744      0              0              0            
    875000   286.04228     -1185.0932      211.73836     -973.35485     -487.37374      14.918158      14.918158      14.918158      0              0              0            
    876000   278.58803     -1208.457       206.22047     -1002.2365      2238.7007      14.746432      14.746432      14.746432      0              0              0            
    877000   301.12829     -1209.8493      222.90555     -986.9438       412.94508      14.994295      14.994295      14.994295      0              0              0            
    878000   305.15466     -1194.5389      225.886       -968.65295      372.95253      14.840972      14.840972      14.840972      0              0              0            
    879000   324.49413     -1198.1102      240.20175     -957.90845     -274.78304      14.999056      14.999056      14.999056      0              0              0            
    880000   290.01324     -1190.086       214.6778      -975.40819      3459.0785      14.744273      14.744273      14.744273      0              0              0            
    881000   300.62421     -1222.8956      222.53241     -1000.3631      1044.0134      14.874393      14.874393      14.874393      0              0              0            
    882000   285.22575     -1207.5757      211.13394     -996.44179      1247.8524      14.787666      14.787666      14.787666      0              0              0            
    883000   321.86857     -1169.0722      238.25822     -930.81396     -482.82019      15.111975      15.111975      15.111975      0              0              0            
    884000   312.05664     -1213.0372      230.99509     -982.04208     -35.702699      15.033647      15.033647      15.033647      0              0              0            
    885000   309.49356     -1218.664       229.09781     -989.56615     -931.05299      15.098381      15.098381      15.098381      0              0              0            
    886000   304.96414     -1207.0898      225.74497     -981.34479      355.58668      15.161469      15.161469      15.161469      0              0              0            
    887000   318.82851     -1230.6731      236.00786     -994.66527      463.71387      14.943195      14.943195      14.943195      0              0              0            
    888000   288.28106     -1209.1703      213.39559     -995.7747      -614.89289      15.041805      15.041805      15.041805      0              0              0            
    889000   284.90554     -1216.1951      210.89691     -1005.2982     -359.10938      15.155844      15.155844      15.155844      0              0              0            
    890000   269.42619     -1199.1806      199.43856     -999.74201     -79.627977      15.012971      15.012971      15.012971      0              0              0            
    891000   309.24705     -1188.1164      228.91533     -959.20102     -1314.6597      15.092369      15.092369      15.092369      0              0              0            
    892000   272.52755     -1183.328       201.73429     -981.59367     -751.09341      14.882784      14.882784      14.882784      0              0              0            
    893000   302.21567     -1191.5807      223.71046     -967.87019     -53.629153      14.971944      14.971944      14.971944      0              0              0            
    894000   306.04194     -1211.4476      226.5428      -984.9048       365.35249      15.004262      15.004262      15.004262      0              0              0            
    895000   308.33548     -1202.2677      228.24056     -974.02714      524.90083      15.043242      15.043242      15.043242      0              0              0            
    896000   300.38735     -1229.6747      222.35708     -1007.3177      948.90624      14.854671      14.854671      14.854671      0              0              0            
    897000   293.6569      -1188.6521      217.37497     -971.27717     -452.58356      15.014382      15.014382      15.014382      0              0              0            
    898000   290.61381     -1228.9891      215.12237     -1013.8668     -348.13125      15.057567      15.057567      15.057567      0              0              0            
    899000   295.01225     -1209.6082      218.37825     -991.22993      1771.7714      15.116592      15.116592      15.116592      0              0              0            
    900000   287.8673      -1163.8244      213.08931     -950.73514     -1330.7454      15.14826       15.14826       15.14826       0              0              0            
    901000   294.35025     -1194.6952      217.88821     -976.80695      813.94508      14.908502      14.908502      14.908502      0              0              0            
    902000   311.04937     -1170.171       230.24948     -939.92149      1346.2309      15.150355      15.150355      15.150355      0              0              0            
    903000   291.88165     -1237.4306      216.06087     -1021.3697     -1065.2323      15.117206      15.117206      15.117206      0              0              0            
    904000   293.99759     -1219.9201      217.62716     -1002.293      -408.88928      15.019714      15.019714      15.019714      0              0              0            
    905000   317.3005      -1215.5809      234.87678     -980.7041       550.11993      14.798432      14.798432      14.798432      0              0              0            
    906000   306.93777     -1183.9246      227.20592     -956.71865      715.01369      15.050565      15.050565      15.050565      0              0              0            
    907000   306.37269     -1207.3924      226.78763     -980.60476     -640.67223      15.05076       15.05076       15.05076       0              0              0            
    908000   278.83994     -1193.9546      206.40694     -987.54768     -851.4225       14.988405      14.988405      14.988405      0              0              0            
    909000   289.20599     -1177.6641      214.08025     -963.58382      220.38159      15.25159       15.25159       15.25159       0              0              0            
    910000   323.42368     -1179.7171      239.40937     -940.30778      1630.6283      15.11501       15.11501       15.11501       0              0              0            
    911000   297.42652     -1176.7891      220.16537     -956.62368     -1396.5064      15.120249      15.120249      15.120249      0              0              0            
    912000   319.27157     -1206.8727      236.33583     -970.5369      -1272.6109      14.883659      14.883659      14.883659      0              0              0            
    913000   294.86504     -1163.9551      218.26928     -945.68583     -416.86233      15.194979      15.194979      15.194979      0              0              0            
    914000   310.94466     -1179.3098      230.17197     -949.13779      164.28222      15.148924      15.148924      15.148924      0              0              0            
    915000   316.02124     -1193.365       233.92982     -959.43516      975.36164      14.742637      14.742637      14.742637      0              0              0            
    916000   303.19449     -1203.8904      224.43502     -979.45534      1326.7207      14.903677      14.903677      14.903677      0              0              0            
    917000   287.42219     -1198.5451      212.75982     -985.78526     -1060.8635      15.302007      15.302007      15.302007      0              0              0            
    918000   310.84209     -1203.1055      230.09604     -973.00944     -916.86583      15.197842      15.197842      15.197842      0              0              0            
    919000   291.25114     -1224.8497      215.59414     -1009.2555     -706.35062      14.72074       14.72074       14.72074       0              0              0            
    920000   311.82456     -1229.536       230.8233      -998.7127       640.15566      15.012155      15.012155      15.012155      0              0              0            
    921000   276.0881      -1222.4589      204.36993     -1018.089      -1995.0593      15.181699      15.181699      15.181699      0              0              0            
    922000   295.44006     -1198.5914      218.69493     -979.89645      1250.4949      15.21278       15.21278       15.21278       0              0              0            
    923000   295.06412     -1220.8186      218.41664     -1002.402      -2313.8042      15.075914      15.075914      15.075914      0              0              0            
    924000   320.41629     -1206.3957      237.18319     -969.21255     -427.33497      14.844051      14.844051      14.844051      0              0              0            
    925000   306.8044      -1231.4749      227.1072      -1004.3677     -372.64482      15.07964       15.07964       15.07964       0              0              0            
    926000   292.60587     -1213.6435      216.59696     -997.04657      1550.3858      14.786844      14.786844      14.786844      0              0              0            
    927000   298.99985     -1201.0164      221.33        -979.68639     -2105.4799      15.087526      15.087526      15.087526      0              0              0            
    928000   291.58294     -1196.9612      215.83975     -981.12145     -2042.7         15.23146       15.23146       15.23146       0              0              0            
    929000   286.99175     -1209.2024      212.44119     -996.7612       217.23937      14.821433      14.821433      14.821433      0              0              0            
    930000   278.21023     -1231.6371      205.94081     -1025.6962     -1705.0608      14.656978      14.656978      14.656978      0              0              0            
    931000   309.32102     -1211.277       228.97009     -982.30689      332.17567      14.733569      14.733569      14.733569      0              0              0            
    932000   328.05819     -1194.8937      242.83999     -952.0537      -1377.7744      14.9815        14.9815        14.9815        0              0              0            
    933000   298.09848     -1222.6905      220.66278     -1002.0277     -535.40346      14.681098      14.681098      14.681098      0              0              0            
    934000   298.99754     -1241.5067      221.32829     -1020.1784      953.65033      14.802027      14.802027      14.802027      0              0              0            
    935000   318.38467     -1207.7881      235.67931     -972.10881     -939.73126      15.053699      15.053699      15.053699      0              0              0            
    936000   299.90652     -1183.72        222.00115     -961.71885     -1549.6819      15.051926      15.051926      15.051926      0              0              0            
    937000   289.39855     -1175.2421      214.22279     -961.01932      285.9911       15.022374      15.022374      15.022374      0              0              0            
    938000   294.94118     -1242.694       218.32564     -1024.3684      2991.8631      14.760602      14.760602      14.760602      0              0              0            
    939000   320.24182     -1182.5083      237.05404     -945.45428      1098.5657      15.135488      15.135488      15.135488      0              0              0            
    940000   303.4093      -1209.7599      224.59403     -985.16591     -2027.5364      15.035615      15.035615      15.035615      0              0              0            
    941000   300.40912     -1202.355       222.37319     -979.98181     -2349.5548      15.299894      15.299894      15.299894      0              0              0            
    942000   294.16843     -1202.9347      217.75362     -985.18111      741.35454      15.074651      15.074651      15.074651      0              0              0            
    943000   307.16276     -1195.5876      227.37247     -968.21514     -414.59787      15.091799      15.091799      15.091799      0              0              0            
    944000   304.82729     -1211.705       225.64367     -986.06129      45.2394        15.09034       15.09034       15.09034       0              0              0            
    945000   299.73427     -1203.3641      221.87365     -981.4904      -375.98261      15.024445      15.024445      15.024445      0              0              0            
    946000   315.92796     -1207.5378      233.86078     -973.67707     -1297.0047      14.959331      14.959331      14.959331      0              0              0            
    947000   261.43215     -1196.3378      193.5211      -1002.8167     -1718.7617      15.012608      15.012608      15.012608      0              0              0            
    948000   290.14658     -1195.7597      214.77651     -980.98316      1081.8164      14.981366      14.981366      14.981366      0              0              0            
    949000   296.52777     -1200.6849      219.50008     -981.18483      1048.2182      15.432123      15.432123      15.432123      0              0              0            
    950000   304.92677     -1180.4321      225.71731     -954.71481      1642.5551      15.031242      15.031242      15.031242      0              0              0            
    951000   286.11344     -1175.4173      211.79104     -963.62624     -1989.4397      15.09679       15.09679       15.09679       0              0              0            
    952000   328.46219     -1227.7558      243.13904     -984.61676      1821.2225      14.874026      14.874026      14.874026      0              0              0            
    953000   282.32285     -1196.1204      208.98511     -987.13526      1374.2453      14.870924      14.870924      14.870924      0              0              0            
    954000   289.87717     -1198.1712      214.57708     -983.59416     -2107.5179      15.249498      15.249498      15.249498      0              0              0            
    955000   283.99673     -1202.0495      210.22418     -991.82531      982.40509      15.082718      15.082718      15.082718      0              0              0            
    956000   318.25884     -1212.5064      235.58617     -976.9202       2157.6192      14.818072      14.818072      14.818072      0              0              0            
    957000   299.85785     -1227.0236      221.96512     -1005.0585      1251.5357      15.218102      15.218102      15.218102      0              0              0            
    958000   317.85515     -1248.5947      235.28734     -1013.3074     -298.04354      14.858582      14.858582      14.858582      0              0              0            
    959000   330.57026     -1222.2763      244.69951     -977.57682      29.326206      14.806551      14.806551      14.806551      0              0              0            
    960000   306.30594     -1210.0567      226.73822     -983.3185      -28.630822      14.663839      14.663839      14.663839      0              0              0            
    961000   289.97157     -1218.3826      214.64696     -1003.7357      2681.6647      14.884796      14.884796      14.884796      0              0              0            
    962000   297.33456     -1186.1929      220.0973      -966.09558      313.39228      15.152032      15.152032      15.152032      0              0              0            
    963000   311.94857     -1215.9337      230.91509     -985.01863      1509.4693      15.004495      15.004495      15.004495      0              0              0            
    964000   289.23661     -1188.3221      214.10291     -974.21916     -1390.9416      15.005403      15.005403      15.005403      0              0              0            
    965000   322.81964     -1194.7382      238.96224     -955.77599     -1020.8427      15.188191      15.188191      15.188191      0              0              0            
    966000   291.65762     -1177.383       215.89503     -961.48799      902.52315      15.214279      15.214279      15.214279      0              0              0            
    967000   285.55972     -1191.7331      211.38116     -980.35197     -459.50002      15.112461      15.112461      15.112461      0              0              0            
    968000   315.96595     -1229.2841      233.88889     -995.39526      310.03758      14.818586      14.818586      14.818586      0              0              0            
    969000   294.51689     -1200.9092      218.01156     -982.89766      2167.6501      14.963391      14.963391      14.963391      0              0              0            
    970000   303.44848     -1197.4937      224.62303     -972.87068     -1530.62        15.048027      15.048027      15.048027      0              0              0            
    971000   287.4018      -1188.1225      212.74472     -975.37781     -617.39641      14.88976       14.88976       14.88976       0              0              0            
    972000   313.04527     -1186.3583      231.72691     -954.63137     -137.84408      14.946668      14.946668      14.946668      0              0              0            
    973000   299.51926     -1197.4776      221.71449     -975.76308      1086.3994      14.832583      14.832583      14.832583      0              0              0            
    974000   301.75476     -1211.8462      223.36929     -988.47694      964.13877      14.937786      14.937786      14.937786      0              0              0            
    975000   324.80822     -1171.2036      240.43425     -930.76935     -9.6235119      14.852577      14.852577      14.852577      0              0              0            
    976000   308.70121     -1217.2642      228.51129     -988.75291     -462.84379      14.768938      14.768938      14.768938      0              0              0            
    977000   304.06563     -1208.7826      225.07987     -983.70269     -600.75184      14.944353      14.944353      14.944353      0              0              0            
    978000   299.87432     -1190.1084      221.97732     -968.13105      568.41033      14.949751      14.949751      14.949751      0              0              0            
    979000   309.15032     -1209.6384      228.84373     -980.79466     -399.11925      14.899794      14.899794      14.899794      0              0              0            
    980000   282.41524     -1213.4731      209.0535      -1004.4196      2590.1062      14.73214       14.73214       14.73214       0              0              0            
    981000   313.67781     -1220.3223      232.19514     -988.12717      1133.0362      14.930096      14.930096      14.930096      0              0              0            
    982000   330.0328      -1229.1378      244.30167     -984.83616      243.95598      15.001578      15.001578      15.001578      0              0              0            
    983000   292.71235     -1214.1381      216.67578     -997.46237     -1315.8639      14.90445       14.90445       14.90445       0              0              0            
    984000   267.9572      -1206.8458      198.35116     -1008.4946     -1433.3669      14.876798      14.876798      14.876798      0              0              0            
    985000   297.49197     -1197.3514      220.21382     -977.13761     -1031.8946      14.927095      14.927095      14.927095      0              0              0            
    986000   318.34852     -1160.121       235.65255     -924.46848     -1893.8424      15.402005      15.402005      15.402005      0              0              0            
    987000   312.77955     -1199.7249      231.53021     -968.19468     -2292.2137      15.037112      15.037112      15.037112      0              0              0            
    988000   287.79445     -1202.7745      213.03538     -989.73909      711.58549      14.882622      14.882622      14.882622      0              0              0            
    989000   286.46761     -1182.5082      212.05321     -970.45496     -42.687322      15.029833      15.029833      15.029833      0              0              0            
    990000   296.27176     -1212.5658      219.31058     -993.25526      702.88588      14.957381      14.957381      14.957381      0              0              0            
    991000   314.76224     -1213.6031      232.99786     -980.60525      832.59574      14.979919      14.979919      14.979919      0              0              0            
    992000   289.37927     -1200.7397      214.20852     -986.53117      152.3478       15.027613      15.027613      15.027613      0              0              0            
    993000   278.62992     -1190.195       206.25148     -983.94351      53.757344      14.952508      14.952508      14.952508      0              0              0            
    994000   287.52293     -1234.1771      212.83439     -1021.3427     -781.18643      14.904397      14.904397      14.904397      0              0              0            
    995000   300.12965     -1191.3449      222.16632     -969.17859     -1107.6186      15.024929      15.024929      15.024929      0              0              0            
    996000   288.98789     -1209.2865      213.91881     -995.36766      263.49334      15.00603       15.00603       15.00603       0              0              0            
    997000   275.86032     -1181.8206      204.20132     -977.6193       1652.3593      14.969734      14.969734      14.969734      0              0              0            
    998000   312.59879     -1213.7017      231.39641     -982.30534     -907.19515      15.040265      15.040265      15.040265      0              0              0            
    999000   316.63039     -1209.3549      234.38074     -974.97416      604.20992      15.091308      15.091308      15.091308      0              0              0            
   1000000   303.66031     -1214.6897      224.77984     -989.90988      1031.8056      14.92719       14.92719       14.92719       0              0              0            
Loop time of 210.268 on 12 procs for 1000000 steps with 320 atoms

Performance: 821.809 ns/day, 0.029 hours/ns, 4755.841 timesteps/s, 1.522 Matom-step/s
89.0% CPU use with 12 MPI tasks x 1 OpenMP threads

MPI task timing breakdown:
Section |  min time  |  avg time  |  max time  |%varavg| %total
---------------------------------------------------------------
Pair    | 23.031     | 24.58      | 25.966     |  22.4 | 11.69
Bond    | 0.62512    | 0.66534    | 0.71487    |   2.9 |  0.32
Kspace  | 81.474     | 83.457     | 86.424     |  17.0 | 39.69
Neigh   | 4.704      | 4.8601     | 4.998      |   5.7 |  2.31
Comm    | 23.876     | 25.608     | 27.942     |  23.4 | 12.18
Output  | 13.507     | 14.463     | 17.208     |  24.7 |  6.88
Modify  | 50.994     | 55.105     | 56.367     |  19.6 | 26.21
Other   |            | 1.53       |            |       |  0.73

Nlocal:        26.6667 ave          35 max          20 min
Histogram: 2 1 1 1 3 0 1 0 1 2
Nghost:        834.917 ave         852 max         810 min
Histogram: 1 0 1 2 0 1 2 2 1 2
Neighs:              0 ave           0 max           0 min
Histogram: 12 0 0 0 0 0 0 0 0 0

Total # of neighbors = 0
Ave neighs/atom = 0
Ave special neighs/atom = 1.9875
Neighbor list builds = 74109
Dangerous builds = 5380


Total wall time: 0:03:30
