LAMMPS (7 Feb 2024 - Update 1)
  using 1 OpenMP thread(s) per MPI task
echo both

# Define temperature parameters
variable	temperature equal 300.0 # Simulation temperature in Kelvin
variable	tempDamp equal 100.0 # Relaxation time of themostat - 0.1 ps

# Define pressure parameters
variable	pressure equal 1.0 # Pressure in bars
variable	pressureDamp equal 500.0 # Relaxation time of the barostat 0.5 ps

# Define random seed
variable	seed equal 98475

# Simulation setup
units		real
atom_style	full
variable	out_freq equal 1000 # Thermo output frequency
variable	out_freq2 equal 10 # Dump output frequency
neigh_modify    delay 10 every 1 # Neighbor list setup

### TIP4P/Ew and NaCl Potential Parameters ###
pair_style      hybrid lj/cut/coul/long 5.0 buck/coul/long 5.0 # This cutoff is too short for a real calculation
# Load configuration
read_data       data.nacl
Reading data file ...
  orthogonal box = (0 0 0) to (15.5 15.5 15.5)
  2 by 2 by 3 MPI processor grid
  reading atoms ...
  320 atoms
  scanning bonds ...
  2 = max bonds/atom
  scanning angles ...
  1 = max angles/atom
  reading bonds ...
  212 bonds
  reading angles ...
  106 angles
Finding 1-2 1-3 1-4 neighbors ...
  special bond factors lj:    0        0        0       
  special bond factors coul:  0        0        0       
     2 = max # of 1-2 neighbors
     1 = max # of 1-3 neighbors
     1 = max # of 1-4 neighbors
     2 = max # of special neighbors
  special bonds CPU = 0.001 seconds
  read_data CPU = 0.006 seconds

# create groups ###

group hy type 1
212 atoms in group hy
group ox type 2
106 atoms in group ox
group na type 3
1 atoms in group na
group cl type 4
1 atoms in group cl

## set charges - beside manually ###
set group ox charge -0.830
Setting atom values ...
  106 settings made for charge
set group hy charge 0.415
Setting atom values ...
  212 settings made for charge
set group na charge 1.0
Setting atom values ...
  1 settings made for charge
set group cl charge -1.0
Setting atom values ...
  1 settings made for charge

# Water TIP3P
pair_coeff      1 1 lj/cut/coul/long 0.0 0.0
pair_coeff      2 2 lj/cut/coul/long 0.102 3.188
pair_coeff      1 2 lj/cut/coul/long 0.0 0.0
# Mixed from Pettitt 86
pair_coeff      2 3 lj/cut/coul/long 0.1338549 2.72
pair_coeff      1 3 lj/cut/coul/long 0.1338549 1.31
pair_coeff      2 4 lj/cut/coul/long 0.359825 3.55
pair_coeff      1 4 lj/cut/coul/long 0.359825 2.14
# NaCl from Pettitt 86
pair_coeff      3 4 buck/coul/long 28929.93 0.317 161.2016
pair_coeff      3 3 buck/coul/long 9772.847 0.317 24.18024 # This is not used
pair_coeff      4 4 buck/coul/long 80312.94 0.317 1683.981 # This is not used
bond_style      harmonic
bond_coeff      1 450 0.9572
angle_style     harmonic
angle_coeff     1 55 104.52
kspace_style    pppm 1e-2 # This value is too large for a real calculation

timestep	2.0 # Timestep 2 fs
thermo          ${out_freq}
thermo          1000
thermo_style 	custom step temp pe ke etotal press lx ly lz xy xz yz
restart 	${out_freq} restart restart2
restart 	1000 restart restart2

velocity        all create ${temperature} ${seed} dist gaussian
velocity        all create 300 ${seed} dist gaussian
velocity        all create 300 98475 dist gaussian
# Perform minimization
minimize 1.0e-2 1.0e-3 100 1000
Switching to 'neigh_modify every 1 delay 0 check yes' setting during minimization
PPPM initialization ...
  using 12-bit tables for long-range coulomb (src/lammps-7Feb2024/src/kspace.cpp:342)
  G vector (1/distance) = 0.40023582
  grid = 8 8 8
  stencil order = 5
  estimated absolute RMS force accuracy = 0.7823365
  estimated relative force accuracy = 0.0023559831
  using double precision MKL FFT
  3d grid and FFT values/proc = 1089 48
Generated 0 of 6 mixed pair_coeff terms from geometric mixing rule
Neighbor list info ...
  update: every = 1 steps, delay = 0 steps, check = yes
  max neighbors/atom: 2000, page size: 100000
  master list distance cutoff = 7
  ghost atom cutoff = 7
  binsize = 3.5, bins = 5 5 5
  3 neighbor lists, perpetual/occasional/extra = 3 0 0
  (1) pair lj/cut/coul/long, perpetual, skip from (3)
      attributes: half, newton on
      pair build: skip
      stencil: none
      bin: none
  (2) pair buck/coul/long, perpetual, skip from (3)
      attributes: half, newton on
      pair build: skip
      stencil: none
      bin: none
  (3) neighbor class addition, perpetual
      attributes: half, newton on
      pair build: half/bin/newton
      stencil: half/bin/3d
      bin: standard
Per MPI rank memory allocation (min/avg/max) = 9.416 | 9.418 | 9.42 Mbytes
   Step          Temp          PotEng         KinEng         TotEng         Press            Lx             Ly             Lz             Xy             Xz             Yz      
         0   300            92556250       285.26352      92556536       6.8175783e+09  15.5           15.5           15.5           0              0              0            
        27   300           -1095.9406      285.26352     -810.67712     -2918.7587      15.5           15.5           15.5           0              0              0            
Loop time of 0.0116237 on 12 procs for 27 steps with 320 atoms

76.3% CPU use with 12 MPI tasks x 1 OpenMP threads

Minimization stats:
  Stopping criterion = energy tolerance
  Energy initial, next-to-last, final = 
       92556250.257805     -1089.35799481  -1095.94064566941
  Force two-norm initial, final = 1.8953089e+09 108.40957
  Force max component initial, final = 1.2163668e+09 24.333575
  Final line search alpha, max atom move = 0.0033714434 0.08203927
  Iterations, force evaluations = 27 35

MPI task timing breakdown:
Section |  min time  |  avg time  |  max time  |%varavg| %total
---------------------------------------------------------------
Pair    | 0.00047332 | 0.00067446 | 0.00086468 |   0.0 |  5.80
Bond    | 1.7394e-05 | 2.71e-05   | 3.4462e-05 |   0.0 |  0.23
Kspace  | 0.0039917  | 0.0041744  | 0.0044015  |   0.2 | 35.91
Neigh   | 0.00017372 | 0.00018776 | 0.00020221 |   0.0 |  1.62
Comm    | 0.0010265  | 0.001101   | 0.0011852  |   0.1 |  9.47
Output  | 0          | 0          | 0          |   0.0 |  0.00
Modify  | 0          | 0          | 0          |   0.0 |  0.00
Other   |            | 0.005459   |            |       | 46.96

Nlocal:        26.6667 ave          32 max          19 min
Histogram: 1 0 2 1 0 1 1 2 2 2
Nghost:        766.167 ave         805 max         727 min
Histogram: 2 0 0 2 3 1 1 1 1 1
Neighs:              0 ave           0 max           0 min
Histogram: 12 0 0 0 0 0 0 0 0 0

Total # of neighbors = 0
Ave neighs/atom = 0
Ave special neighs/atom = 1.9875
Neighbor list builds = 3
Dangerous builds = 0

# Write trajectory to file
dump           	myDump all dcd ${out_freq2} out.dcd
dump           	myDump all dcd 10 out.dcd
#dump_modify    	myDump unwrap yes

# Start simulation

reset_timestep 	0


fix umb all plumed plumedfile plumed_2.dat outfile plumed.out
fix             1 all temp/csvr ${temperature} ${temperature} ${tempDamp} ${seed} # Bussi's thermostat
fix             1 all temp/csvr 300 ${temperature} ${tempDamp} ${seed} 
fix             1 all temp/csvr 300 300 ${tempDamp} ${seed} 
fix             1 all temp/csvr 300 300 100 ${seed} 
fix             1 all temp/csvr 300 300 100 98475 
fix             2 all shake 0.0001 20 0 t 1 2 # Shake algorithm
Finding SHAKE clusters ...
       0 = # of size 2 clusters
     106 = # of size 3 clusters
       0 = # of size 4 clusters
       0 = # of frozen angles
  find clusters CPU = 0.000 seconds
#fix             3 all nve
fix             3 all nph iso ${pressure} ${pressure} ${pressureDamp} # Isotropic barostat
fix             3 all nph iso 1 ${pressure} ${pressureDamp} 
fix             3 all nph iso 1 1 ${pressureDamp} 
fix             3 all nph iso 1 1 500 
fix 		4 all momentum 10000 linear 1 1 1 # Set total linear momentum to zero every 10000 steps

run 1000000
PPPM initialization ...
  using 12-bit tables for long-range coulomb (src/lammps-7Feb2024/src/kspace.cpp:342)
  G vector (1/distance) = 0.40023582
  grid = 8 8 8
  stencil order = 5
  estimated absolute RMS force accuracy = 0.7823365
  estimated relative force accuracy = 0.0023559831
  using double precision MKL FFT
  3d grid and FFT values/proc = 1089 48
Generated 0 of 6 mixed pair_coeff terms from geometric mixing rule
Per MPI rank memory allocation (min/avg/max) = 9.186 | 9.188 | 9.19 Mbytes
   Step          Temp          PotEng         KinEng         TotEng         Press            Lx             Ly             Lz             Xy             Xz             Yz      
         0   385.36913     -1127.6681      285.26352     -842.40459     -1697.5789      15.5           15.5           15.5           0              0              0            
      1000   292.5618      -1181.4106      216.56434     -964.84626     -929.91619      15.18341       15.18341       15.18341       0              0              0            
      2000   298.80828     -1183.8801      221.18819     -962.69192     -1085.0763      14.879508      14.879508      14.879508      0              0              0            
      3000   278.65309     -1205.3504      206.26863     -999.08172      283.80495      14.949453      14.949453      14.949453      0              0              0            
      4000   304.68039     -1150.0972      225.53494     -924.56227     -733.5387       15.389279      15.389279      15.389279      0              0              0            
      5000   281.75057     -1193.5952      208.56149     -985.03375      427.80939      15.020969      15.020969      15.020969      0              0              0            
      6000   317.23691     -1215.8858      234.8297      -981.05611     -319.06861      14.941442      14.941442      14.941442      0              0              0            
      7000   296.40944     -1226.1054      219.41249     -1006.6929     -1952.1006      15.108737      15.108737      15.108737      0              0              0            
      8000   300.04098     -1207.595       222.10069     -985.49435     -929.34901      15.180262      15.180262      15.180262      0              0              0            
      9000   270.52293     -1210.0795      200.2504      -1009.8291     -1415.4891      15.223563      15.223563      15.223563      0              0              0            
     10000   297.97709     -1189.5614      220.57292     -968.98845      1727.3708      14.848416      14.848416      14.848416      0              0              0            
     11000   270.9675      -1166.0944      200.57949     -965.51491     -2375.0191      15.169357      15.169357      15.169357      0              0              0            
     12000   309.44805     -1176.0098      229.06412     -946.9457      -871.82136      15.340369      15.340369      15.340369      0              0              0            
     13000   307.1601      -1192.3022      227.37051     -964.9317      -966.31872      15.240366      15.240366      15.240366      0              0              0            
     14000   298.66675     -1227.2482      221.08343     -1006.1648     -1142.4489      14.980935      14.980935      14.980935      0              0              0            
     15000   297.80331     -1220.3617      220.44428     -999.91739     -1046.6228      15.126442      15.126442      15.126442      0              0              0            
     16000   309.53032     -1204.8049      229.12502     -975.6799      -2285.9382      15.057964      15.057964      15.057964      0              0              0            
     17000   339.38954     -1205.6436      251.22785     -954.41575      1649.4268      14.923086      14.923086      14.923086      0              0              0            
     18000   286.6448      -1178.8116      212.18437     -966.62722     -2048.1332      15.203566      15.203566      15.203566      0              0              0            
     19000   296.8022      -1228.0968      219.70322     -1008.3936      375.48722      14.823861      14.823861      14.823861      0              0              0            
     20000   307.22797     -1194.9368      227.42074     -967.51609     -1006.3027      14.994113      14.994113      14.994113      0              0              0            
     21000   297.326       -1195.2913      220.09096     -975.20029      966.80993      14.917248      14.917248      14.917248      0              0              0            
     22000   319.20113     -1164.3417      236.28368     -928.05797     -679.79348      15.380309      15.380309      15.380309      0              0              0            
     23000   293.69883     -1210.7534      217.406       -993.34744     -876.50502      15.033205      15.033205      15.033205      0              0              0            
     24000   304.90442     -1187.2636      225.70077     -961.5628      -632.01095      14.910916      14.910916      14.910916      0              0              0            
     25000   301.01067     -1198.547       222.81848     -975.72856     -1585.178       15.105323      15.105323      15.105323      0              0              0            
     26000   278.92899     -1185.8811      206.47286     -979.40822      2818.0908      14.992087      14.992087      14.992087      0              0              0            
     27000   324.20642     -1188.0869      239.98877     -948.09809      141.80678      14.966003      14.966003      14.966003      0              0              0            
     28000   291.0016      -1208.7279      215.40942     -993.31853     -804.65518      15.112449      15.112449      15.112449      0              0              0            
     29000   282.20737     -1206.9239      208.89963     -998.02431      318.3513       14.855819      14.855819      14.855819      0              0              0            
     30000   278.85618     -1218.8189      206.41896     -1012.3999     -468.12496      14.984571      14.984571      14.984571      0              0              0            
     31000   272.08485     -1197.4038      201.40659     -995.99723      2098.6464      14.881681      14.881681      14.881681      0              0              0            
     32000   300.8138      -1215.7609      222.67275     -993.08812     -1810.1654      15.059797      15.059797      15.059797      0              0              0            
     33000   289.73008     -1175.6225      214.4682      -961.15429      969.57532      15.257184      15.257184      15.257184      0              0              0            
     34000   268.30878     -1207.5388      198.61141     -1008.9274     -722.02378      14.692014      14.692014      14.692014      0              0              0            
     35000   313.15808     -1231.4555      231.81042     -999.64511     -102.87935      15.030224      15.030224      15.030224      0              0              0            
     36000   320.89181     -1191.5412      237.53519     -954.00605     -388.4972       15.238372      15.238372      15.238372      0              0              0            
     37000   309.48768     -1178.9549      229.09346     -949.86149      400.90188      15.120732      15.120732      15.120732      0              0              0            
     38000   305.12429     -1196.495       225.86352     -970.63144     -565.36022      15.101915      15.101915      15.101915      0              0              0            
     39000   307.58374     -1191.2644      227.68409     -963.58033     -1513.6352      15.109311      15.109311      15.109311      0              0              0            
     40000   305.73201     -1209.8252      226.31338     -983.51182      1022.0613      14.78834       14.78834       14.78834       0              0              0            
     41000   297.78718     -1227.1575      220.43234     -1006.7252      1070.6888      14.824619      14.824619      14.824619      0              0              0            
     42000   295.475       -1207.7927      218.72078     -989.07193     -469.81222      14.82611       14.82611       14.82611       0              0              0            
     43000   320.92672     -1212.1349      237.56103     -974.57384      328.9233       14.963358      14.963358      14.963358      0              0              0            
     44000   318.05361     -1220.6666      235.43425     -985.23234     -690.65734      14.873927      14.873927      14.873927      0              0              0            
     45000   274.90086     -1206.8816      203.4911      -1003.3905     -916.76085      15.154584      15.154584      15.154584      0              0              0            
     46000   281.59258     -1244.6497      208.44454     -1036.2052      1737.3599      14.871856      14.871856      14.871856      0              0              0            
     47000   272.5754      -1163.827       201.76971     -962.05731     -75.123758      14.920347      14.920347      14.920347      0              0              0            
     48000   315.20001     -1191.4898      233.32192     -958.16784     -523.81537      15.06776       15.06776       15.06776       0              0              0            
     49000   297.44477     -1206.2242      220.17888     -986.04535      1391.3813      14.957101      14.957101      14.957101      0              0              0            
     50000   301.5385      -1210.8651      223.2092      -987.65592     -231.4585       15.130055      15.130055      15.130055      0              0              0            
     51000   301.36057     -1221.6282      223.07749     -998.55073      980.99731      14.932103      14.932103      14.932103      0              0              0            
     52000   294.95383     -1203.7908      218.335       -985.45583     -621.90708      14.940078      14.940078      14.940078      0              0              0            
     53000   306.32631     -1215.2145      226.7533      -988.46118     -1238.9321      14.984169      14.984169      14.984169      0              0              0            
     54000   302.76953     -1203.9367      224.12045     -979.81624     -1251.0922      14.966793      14.966793      14.966793      0              0              0            
     55000   293.63999     -1203.0694      217.36245     -985.707       -435.88711      15.109075      15.109075      15.109075      0              0              0            
     56000   268.99833     -1170.2668      199.12184     -971.14497      632.22508      15.29504       15.29504       15.29504       0              0              0            
     57000   311.03361     -1195.2587      230.23781     -965.0209      -1306.5683      15.04325       15.04325       15.04325       0              0              0            
     58000   309.40836     -1225.4529      229.03474     -996.41815      180.27964      14.769012      14.769012      14.769012      0              0              0            
     59000   262.38829     -1186.164       194.22886     -991.93514      434.05723      14.868619      14.868619      14.868619      0              0              0            
     60000   345.53743     -1191.0106      255.77872     -935.23187      2345.0338      15.04263       15.04263       15.04263       0              0              0            
     61000   273.95346     -1202.0404      202.7898      -999.25064     -893.29202      14.893191      14.893191      14.893191      0              0              0            
     62000   311.13454     -1198.7028      230.31252     -968.39029     -1272.3186      15.034875      15.034875      15.034875      0              0              0            
     63000   311.07201     -1204.0452      230.26623     -973.77897      785.34327      14.887834      14.887834      14.887834      0              0              0            
     64000   291.22372     -1212.0492      215.57385     -996.47537     -1600.1901      14.985911      14.985911      14.985911      0              0              0            
     65000   284.09043     -1198.9243      210.29354     -988.63081      52.188563      14.943252      14.943252      14.943252      0              0              0            
     66000   308.73781     -1205.789       228.53838     -977.25062      689.63935      14.711506      14.711506      14.711506      0              0              0            
     67000   325.19095     -1174.6432      240.71756     -933.9256       141.98785      15.185962      15.185962      15.185962      0              0              0            
     68000   294.31374     -1218.9731      217.86118     -1001.1119      925.79884      15.081988      15.081988      15.081988      0              0              0            
     69000   284.47777     -1218.2008      210.58026     -1007.6205      1647.0048      14.662319      14.662319      14.662319      0              0              0            
     70000   295.91054     -1171.4334      219.04319     -952.39024     -359.62614      14.899388      14.899388      14.899388      0              0              0            
     71000   294.60869     -1204.2858      218.07951     -986.20628      1517.2837      14.875692      14.875692      14.875692      0              0              0            
     72000   308.139       -1207.6562      228.09512     -979.56111     -254.27036      15.074517      15.074517      15.074517      0              0              0            
     73000   275.65776     -1189.004       204.05138     -984.95263      1647.5329      15.162962      15.162962      15.162962      0              0              0            
     74000   324.56076     -1216.3795      240.25107     -976.12844      98.70394       14.994245      14.994245      14.994245      0              0              0            
     75000   315.51931     -1208.2452      233.55828     -974.68691      1249.8432      14.908986      14.908986      14.908986      0              0              0            
     76000   304.69345     -1179.9542      225.5446      -954.40963      216.79952      15.036633      15.036633      15.036633      0              0              0            
     77000   309.81545     -1198.2278      229.33608     -968.89167      975.22601      15.145997      15.145997      15.145997      0              0              0            
     78000   308.20442     -1219.6602      228.14355     -991.51667     -1537.3044      15.139959      15.139959      15.139959      0              0              0            
     79000   292.44424     -1198.5594      216.47732     -982.08205      844.75752      14.723376      14.723376      14.723376      0              0              0            
     80000   291.39318     -1201.6104      215.69928     -985.91108     -1992.6031      15.174917      15.174917      15.174917      0              0              0            
     81000   298.37948     -1216.9018      220.87078     -996.03103      492.8308       14.847314      14.847314      14.847314      0              0              0            
     82000   282.8749      -1180.8154      209.39376     -971.42163      1172.5435      15.040899      15.040899      15.040899      0              0              0            
     83000   263.28918     -1208.673       194.89573     -1013.7773     -1077.2997      14.934673      14.934673      14.934673      0              0              0            
     84000   299.54318     -1189.036       221.73219     -967.30381     -1570.2582      14.981043      14.981043      14.981043      0              0              0            
     85000   311.42688     -1185.7309      230.52892     -955.20195      2357.0068      14.933048      14.933048      14.933048      0              0              0            
     86000   299.34723     -1225.4524      221.58715     -1003.8652     -231.83982      14.733269      14.733269      14.733269      0              0              0            
     87000   321.74047     -1230.708       238.1634      -992.54458     -1573.1405      14.939584      14.939584      14.939584      0              0              0            
     88000   298.44434     -1195.1143      220.9188      -974.19552     -991.61305      14.781617      14.781617      14.781617      0              0              0            
     89000   309.10168     -1183.2696      228.80773     -954.46183      424.78952      15.030151      15.030151      15.030151      0              0              0            
     90000   303.15257     -1173.8487      224.40399     -949.44467      546.73498      15.05058       15.05058       15.05058       0              0              0            
     91000   307.40542     -1170.9939      227.5521      -943.44179      1135.1024      15.025387      15.025387      15.025387      0              0              0            
     92000   338.07382     -1193.8097      250.25391     -943.55575     -611.3474       15.05091       15.05091       15.05091       0              0              0            
     93000   302.71696     -1196.0868      224.08153     -972.00527     -660.99137      14.880318      14.880318      14.880318      0              0              0            
     94000   309.5727      -1206.5727      229.15639     -977.41634     -334.30292      14.952525      14.952525      14.952525      0              0              0            
     95000   308.59486     -1222.1858      228.43256     -993.75324      1887.438       14.633714      14.633714      14.633714      0              0              0            
     96000   304.94074     -1231.4061      225.72765     -1005.6784     -945.88069      15.059291      15.059291      15.059291      0              0              0            
     97000   271.45495     -1185.2841      200.94032     -984.34375      1394.9193      14.967741      14.967741      14.967741      0              0              0            
     98000   289.2215      -1206.3045      214.09173     -992.21274     -592.79661      15.157733      15.157733      15.157733      0              0              0            
     99000   311.18509     -1201.4209      230.34994     -971.07094      2736.9151      15.024945      15.024945      15.024945      0              0              0            
    100000   283.93969     -1184.0446      210.18195     -973.86265     -816.6053       14.94408       14.94408       14.94408       0              0              0            
    101000   316.21964     -1220.4769      234.07669     -986.40025      329.95724      14.921002      14.921002      14.921002      0              0              0            
    102000   288.46925     -1205.598       213.53489     -992.06314      183.06837      14.988017      14.988017      14.988017      0              0              0            
    103000   299.91628     -1219.057       222.00837     -997.04861     -831.01681      14.95951       14.95951       14.95951       0              0              0            
    104000   308.74859     -1232.9943      228.54636     -1004.4479     -662.01524      14.846957      14.846957      14.846957      0              0              0            
    105000   308.20052     -1192.5914      228.14066     -964.4507      -1872.1121      14.982426      14.982426      14.982426      0              0              0            
    106000   331.00768     -1178.7438      245.0233      -933.72054     -1487.0538      15.0953        15.0953        15.0953        0              0              0            
    107000   310.70369     -1228.9007      229.99359     -998.90711     -2012.5252      15.003207      15.003207      15.003207      0              0              0            
    108000   300.97718     -1207.2788      222.79369     -984.48508      647.88617      14.844485      14.844485      14.844485      0              0              0            
    109000   315.32442     -1213.4507      233.41401     -980.03666     -127.25805      14.962998      14.962998      14.962998      0              0              0            
    110000   293.14509     -1201.2307      216.99611     -984.2346      -842.71287      15.067334      15.067334      15.067334      0              0              0            
    111000   317.73275     -1221.0524      235.19674     -985.85565     -1822.0855      14.996448      14.996448      14.996448      0              0              0            
    112000   305.04096     -1231.6009      225.80184     -1005.7991      1187.904       14.628305      14.628305      14.628305      0              0              0            
    113000   285.46581     -1198.1674      211.31164     -986.8558       1075.1175      14.869647      14.869647      14.869647      0              0              0            
    114000   284.75647     -1225.9416      210.78656     -1015.155      -95.906747      14.801046      14.801046      14.801046      0              0              0            
    115000   289.20745     -1218.5876      214.08133     -1004.5063      1454.7223      14.645439      14.645439      14.645439      0              0              0            
    116000   286.72016     -1192.6776      212.24015     -980.43745      1389.9283      14.933011      14.933011      14.933011      0              0              0            
    117000   317.20103     -1168.207       234.80315     -933.40383     -622.30971      15.04918       15.04918       15.04918       0              0              0            
    118000   336.97178     -1225.1052      249.43813     -975.66711     -402.89046      14.987934      14.987934      14.987934      0              0              0            
    119000   288.5204      -1216.9112      213.57275     -1003.3384     -138.17224      14.961464      14.961464      14.961464      0              0              0            
    120000   301.95297     -1195.6968      223.516       -972.18079      18.766125      14.808475      14.808475      14.808475      0              0              0            
    121000   310.22225     -1227.7343      229.63721     -998.09714      2697.1191      14.841579      14.841579      14.841579      0              0              0            
    122000   302.1698      -1193.582       223.67651     -969.90545      805.84775      14.99472       14.99472       14.99472       0              0              0            
    123000   279.39122     -1233.5074      206.81502     -1026.6923     -890.66883      15.18373       15.18373       15.18373       0              0              0            
    124000   278.95625     -1196.6415      206.49304     -990.14843      1513.0096      15.187648      15.187648      15.187648      0              0              0            
    125000   313.16222     -1201.9445      231.81348     -970.13099     -624.47384      15.165433      15.165433      15.165433      0              0              0            
    126000   312.34334     -1184.4649      231.20731     -953.25762      594.08         14.817335      14.817335      14.817335      0              0              0            
    127000   309.96023     -1200.0597      229.44326     -970.61641      186.76473      14.925097      14.925097      14.925097      0              0              0            
    128000   288.42014     -1199.2259      213.49854     -985.72737      14.22183       15.049903      15.049903      15.049903      0              0              0            
    129000   281.65006     -1226.9256      208.48709     -1018.4385     -852.30644      14.921016      14.921016      14.921016      0              0              0            
    130000   266.09331     -1218.1919      196.97145     -1021.2204      2287.8969      14.744144      14.744144      14.744144      0              0              0            
    131000   296.19088     -1179.8342      219.25071     -960.58354      2445.954       14.944449      14.944449      14.944449      0              0              0            
    132000   276.37803     -1203.7396      204.58455     -999.1551      -365.37254      15.063822      15.063822      15.063822      0              0              0            
    133000   292.33516     -1187.4551      216.39657     -971.05854      918.07698      14.786505      14.786505      14.786505      0              0              0            
    134000   316.28595     -1194.1061      234.12577     -959.98033      651.40425      14.858524      14.858524      14.858524      0              0              0            
    135000   283.98549     -1184.1537      210.21586     -973.93782      579.35541      15.083259      15.083259      15.083259      0              0              0            
    136000   313.79834     -1180.3606      232.28436     -948.07629     -1314.9544      15.324513      15.324513      15.324513      0              0              0            
    137000   295.78622     -1203.5173      218.95116     -984.56613      1063.0684      14.854556      14.854556      14.854556      0              0              0            
    138000   303.70804     -1218.6626      224.81517     -993.84743     -686.1696       14.990033      14.990033      14.990033      0              0              0            
    139000   276.14955     -1212.8936      204.41542     -1008.4782      1653.6629      14.985059      14.985059      14.985059      0              0              0            
    140000   287.84332     -1198.2718      213.07156     -985.20022      1411.5224      15.128898      15.128898      15.128898      0              0              0            
    141000   298.53376     -1197.1353      220.98498     -976.15031     -324.17493      15.203854      15.203854      15.203854      0              0              0            
    142000   324.75157     -1205.3142      240.39231     -964.92186     -1129.3485      15.073212      15.073212      15.073212      0              0              0            
    143000   307.10732     -1206.554       227.33143     -979.22253      136.33959      15.090929      15.090929      15.090929      0              0              0            
    144000   304.47075     -1241.9045      225.37975     -1016.5247      144.3517       14.981753      14.981753      14.981753      0              0              0            
    145000   277.75592     -1215.7415      205.60451     -1010.137      -1540.1732      15.376834      15.376834      15.376834      0              0              0            
    146000   277.95094     -1229.2202      205.74888     -1023.4714     -402.49324      14.991778      14.991778      14.991778      0              0              0            
    147000   328.5003      -1190.4229      243.16726     -947.25563      1145.8499      15.06475       15.06475       15.06475       0              0              0            
    148000   295.16061     -1197.891       218.48807     -979.40294     -120.90127      15.283814      15.283814      15.283814      0              0              0            
    149000   292.50548     -1201.5675      216.52265     -985.0449       1554.9778      14.922208      14.922208      14.922208      0              0              0            
    150000   308.17745     -1212.4504      228.12358     -984.32683      330.47951      14.755016      14.755016      14.755016      0              0              0            
    151000   279.55771     -1212.1746      206.93826     -1005.2364     -1900.1463      14.943191      14.943191      14.943191      0              0              0            
    152000   276.08041     -1224.4235      204.36424     -1020.0593     -890.70455      15.029931      15.029931      15.029931      0              0              0            
    153000   277.91524     -1227.1666      205.72245     -1021.4442     -1273.3216      15.005878      15.005878      15.005878      0              0              0            
    154000   296.44782     -1198.0998      219.44091     -978.65887     -745.50518      14.859366      14.859366      14.859366      0              0              0            
    155000   305.02901     -1194.9434      225.793       -969.1504      -186.04157      15.022988      15.022988      15.022988      0              0              0            
    156000   314.64402     -1209.5348      232.91036     -976.62448     -738.95119      15.066721      15.066721      15.066721      0              0              0            
    157000   304.75792     -1174.4157      225.59233     -948.82341      2416.4308      14.970756      14.970756      14.970756      0              0              0            
    158000   272.05972     -1234.6319      201.38799     -1033.2439      683.0625       14.905456      14.905456      14.905456      0              0              0            
    159000   274.88861     -1183.1267      203.48203     -979.64463      1193.4703      14.827374      14.827374      14.827374      0              0              0            
    160000   271.86418     -1221.7244      201.24325     -1020.4811     -1797.9342      14.788748      14.788748      14.788748      0              0              0            
    161000   313.91782     -1193.7712      232.3728      -961.39837      198.75162      14.894577      14.894577      14.894577      0              0              0            
    162000   312.76905     -1192.7716      231.52244     -961.24918     -548.44545      14.932252      14.932252      14.932252      0              0              0            
    163000   295.31658     -1191.8046      218.60352     -973.20109      899.662        15.255634      15.255634      15.255634      0              0              0            
    164000   299.34791     -1208.2413      221.58765     -986.65368     -125.12008      15.007046      15.007046      15.007046      0              0              0            
    165000   293.09389     -1203.8165      216.95821     -986.8583      -20.542224      15.006662      15.006662      15.006662      0              0              0            
    166000   304.51338     -1228.9642      225.41131     -1003.5529     -1865.5926      15.119893      15.119893      15.119893      0              0              0            
    167000   262.53442     -1172.4323      194.33703     -978.09529      969.93449      14.855898      14.855898      14.855898      0              0              0            
    168000   308.07369     -1182.8517      228.04677     -954.80491      2957.3824      14.863884      14.863884      14.863884      0              0              0            
    169000   321.09736     -1225.6253      237.68734     -987.93795      2252.5925      14.755886      14.755886      14.755886      0              0              0            
    170000   289.36794     -1216.5638      214.20013     -1002.3637      1458.7525      14.929215      14.929215      14.929215      0              0              0            
    171000   310.38007     -1210.061       229.75403     -980.30693      1007.9614      14.703118      14.703118      14.703118      0              0              0            
    172000   319.16538     -1210.5316      236.25722     -974.27443      929.81386      14.930514      14.930514      14.930514      0              0              0            
    173000   293.08823     -1212.5916      216.95402     -995.63753      651.21357      14.881036      14.881036      14.881036      0              0              0            
    174000   296.96203     -1248.5917      219.82154     -1028.7701      1187.2449      14.865241      14.865241      14.865241      0              0              0            
    175000   298.3368      -1176.4962      220.83919     -955.65705     -2019.191       15.074568      15.074568      15.074568      0              0              0            
    176000   317.77142     -1210.8624      235.22537     -975.63699      2484.1963      14.791065      14.791065      14.791065      0              0              0            
    177000   302.61657     -1207.5831      224.00723     -983.57584      453.45327      14.972438      14.972438      14.972438      0              0              0            
    178000   299.9468      -1185.5825      222.03097     -963.55154      798.71351      15.01689       15.01689       15.01689       0              0              0            
    179000   309.17631     -1201.1352      228.86297     -972.27222      281.04506      15.0059        15.0059        15.0059        0              0              0            
    180000   305.93938     -1219.4587      226.46688     -992.99179     -75.672104      14.980082      14.980082      14.980082      0              0              0            
    181000   290.11954     -1216.5576      214.75649     -1001.8011     -2226.4392      14.89338       14.89338       14.89338       0              0              0            
    182000   295.16721     -1179.4981      218.49295     -961.00518     -6.7114931      15.117358      15.117358      15.117358      0              0              0            
    183000   268.74408     -1200.7971      198.93364     -1001.8634     -1109.8053      15.09073       15.09073       15.09073       0              0              0            
    184000   287.29719     -1199.9879      212.66729     -987.32056      846.63045      14.97235       14.97235       14.97235       0              0              0            
    185000   284.27262     -1215.7093      210.4284      -1005.2809     -142.3625       14.912347      14.912347      14.912347      0              0              0            
    186000   259.28175     -1226.36        191.92929     -1034.4307     -2785.8054      14.922717      14.922717      14.922717      0              0              0            
    187000   287.46787     -1184.1673      212.79363     -971.37362      2028.417       14.953844      14.953844      14.953844      0              0              0            
    188000   287.93622     -1159.4471      213.14032     -946.30673     -1759.7355      15.247548      15.247548      15.247548      0              0              0            
    189000   303.09949     -1226.8534      224.36469     -1002.4887     -234.82205      15.03153       15.03153       15.03153       0              0              0            
    190000   289.20724     -1201.7933      214.08118     -987.71208     -2167.9981      15.064569      15.064569      15.064569      0              0              0            
    191000   306.70728     -1179.0131      227.03531     -951.97784     -2346.8661      15.150976      15.150976      15.150976      0              0              0            
    192000   292.92577     -1201.6569      216.83376     -984.82311     -846.67268      14.717584      14.717584      14.717584      0              0              0            
    193000   290.85889     -1190.8233      215.30378     -975.51953     -53.097942      14.845992      14.845992      14.845992      0              0              0            
    194000   307.17649     -1192.9438      227.38263     -965.56117     -290.31005      14.862194      14.862194      14.862194      0              0              0            
    195000   285.92451     -1207.0899      211.65119     -995.43871      533.64595      14.883873      14.883873      14.883873      0              0              0            
    196000   288.43777     -1165.0995      213.51159     -951.58794     -807.94895      15.240139      15.240139      15.240139      0              0              0            
    197000   297.07024     -1186.8395      219.90164     -966.93786     -454.781        14.983349      14.983349      14.983349      0              0              0            
    198000   302.13716     -1183.0981      223.65235     -959.4458       842.19568      14.996093      14.996093      14.996093      0              0              0            
    199000   286.86401     -1175.0534      212.34664     -962.70674     -566.75631      15.127891      15.127891      15.127891      0              0              0            
    200000   295.47704     -1210.6626      218.7223      -991.94031      1031.7172      14.726971      14.726971      14.726971      0              0              0            
    201000   297.52352     -1215.4481      220.23717     -995.21093      1920.4675      14.787954      14.787954      14.787954      0              0              0            
    202000   316.8051      -1196.984       234.51006     -962.47398     -195.24085      14.933012      14.933012      14.933012      0              0              0            
    203000   302.69207     -1222.1943      224.06311     -998.13122      396.1102       15.062186      15.062186      15.062186      0              0              0            
    204000   299.8166      -1196.3544      221.93459     -974.41977     -1080.3614      14.813001      14.813001      14.813001      0              0              0            
    205000   284.22728     -1218.3786      210.39484     -1007.9837     -644.25708      14.887809      14.887809      14.887809      0              0              0            
    206000   313.68931     -1202.7379      232.20365     -970.53421     -666.96881      15.030691      15.030691      15.030691      0              0              0            
    207000   322.05604     -1207.4749      238.39699     -969.0779      -263.78866      15.083429      15.083429      15.083429      0              0              0            
    208000   285.93105     -1230.1335      211.65602     -1018.4774     -941.68126      14.922766      14.922766      14.922766      0              0              0            
    209000   292.78552     -1207.572       216.72994     -990.84204      232.85954      14.718247      14.718247      14.718247      0              0              0            
    210000   317.45989     -1200.0402      234.99476     -965.04541      1562.8674      14.822774      14.822774      14.822774      0              0              0            
    211000   293.64125     -1221.3239      217.36338     -1003.9605      2021.893       14.552318      14.552318      14.552318      0              0              0            
    212000   302.80169     -1205.2947      224.14426     -981.15041     -1176.9111      14.978514      14.978514      14.978514      0              0              0            
    213000   323.0996      -1176.532       239.16947     -937.36252     -774.99591      15.058118      15.058118      15.058118      0              0              0            
    214000   297.89788     -1179.4732      220.51428     -958.95891      481.28841      15.134637      15.134637      15.134637      0              0              0            
    215000   287.89651     -1195.6037      213.11093     -982.49282     -1769.0244      15.057099      15.057099      15.057099      0              0              0            
    216000   296.46252     -1191.3723      219.45178     -971.92052      143.89383      15.074831      15.074831      15.074831      0              0              0            
    217000   292.04465     -1220.2524      216.18153     -1004.0709     -1912.8461      15.115509      15.115509      15.115509      0              0              0            
    218000   298.28533     -1207.619       220.80109     -986.81789     -368.5919       15.117843      15.117843      15.117843      0              0              0            
    219000   292.8847      -1234.7572      216.80336     -1017.9538     -126.05891      14.633165      14.633165      14.633165      0              0              0            
    220000   324.6561      -1215.5102      240.32165     -975.18859      681.711        15.005139      15.005139      15.005139      0              0              0            
    221000   316.87609     -1166.2828      234.56261     -931.72017      104.15083      15.27251       15.27251       15.27251       0              0              0            
    222000   310.68211     -1197.9137      229.97762     -967.93606     -1509.4906      15.111922      15.111922      15.111922      0              0              0            
    223000   331.51904     -1155.2151      245.40183     -909.81329      1185.0292      15.102835      15.102835      15.102835      0              0              0            
    224000   286.17924     -1191.9576      211.83974     -980.11788     -12.259121      15.169155      15.169155      15.169155      0              0              0            
    225000   313.02376     -1186.789       231.71099     -955.07799     -397.35486      15.066428      15.066428      15.066428      0              0              0            
    226000   308.84589     -1206.1021      228.61838     -977.48377      823.00482      14.902957      14.902957      14.902957      0              0              0            
    227000   295.34721     -1193.1631      218.62619     -974.53694      1392.1347      14.964671      14.964671      14.964671      0              0              0            
    228000   296.2092      -1215.5454      219.26427     -996.28111      165.35013      14.672548      14.672548      14.672548      0              0              0            
    229000   303.8212      -1179.5226      224.89893     -954.62368     -1441.7565      15.211555      15.211555      15.211555      0              0              0            
    230000   291.53543     -1200.2963      215.80458     -984.49175      379.92179      15.15606       15.15606       15.15606       0              0              0            
    231000   303.81631     -1213.8968      224.89531     -989.00152     -1882.6577      14.901204      14.901204      14.901204      0              0              0            
    232000   303.9835      -1233.6927      225.01907     -1008.6736      397.60524      15.025127      15.025127      15.025127      0              0              0            
    233000   286.0135      -1185.4788      211.71706     -973.76176      801.25524      15.11147       15.11147       15.11147       0              0              0            
    234000   323.79691     -1208.4777      239.68564     -968.79202      1212.2144      14.930424      14.930424      14.930424      0              0              0            
    235000   289.46433     -1210.6941      214.27148     -996.4226       337.94113      14.92602       14.92602       14.92602       0              0              0            
    236000   301.34609     -1231.7011      223.06677     -1008.6343     -1837.463       14.945099      14.945099      14.945099      0              0              0            
    237000   299.77567     -1206.2073      221.90429     -984.30299     -1788.0888      14.840001      14.840001      14.840001      0              0              0            
    238000   317.94436     -1207.6605      235.35338     -972.30708      797.18107      15.042342      15.042342      15.042342      0              0              0            
    239000   294.03362     -1187.0884      217.65383     -969.43454      2780.9836      14.802661      14.802661      14.802661      0              0              0            
    240000   287.6232      -1216.4963      212.90862     -1003.5877     -1137.194       15.012549      15.012549      15.012549      0              0              0            
    241000   278.42624     -1167.2288      206.1007      -961.12813      87.096333      15.126959      15.126959      15.126959      0              0              0            
    242000   278.2979      -1193.032       206.00571     -987.02629     -370.00575      14.897942      14.897942      14.897942      0              0              0            
    243000   294.67606     -1205.5124      218.12939     -987.38298      1172.9297      14.894497      14.894497      14.894497      0              0              0            
    244000   295.7728      -1208.7211      218.94123     -989.7799      -1771.229       14.996177      14.996177      14.996177      0              0              0            
    245000   313.26223     -1204.1439      231.88751     -972.25637      504.89426      14.934235      14.934235      14.934235      0              0              0            
    246000   265.63058     -1173.6946      196.62892     -977.06569      968.09915      14.944543      14.944543      14.944543      0              0              0            
    247000   297.07691     -1226.1801      219.90658     -1006.2736      243.75023      14.814254      14.814254      14.814254      0              0              0            
    248000   272.90251     -1223.2215      202.01186     -1021.2096     -639.54368      14.990469      14.990469      14.990469      0              0              0            
    249000   299.95071     -1203.1164      222.03386     -981.08258      447.47962      15.069126      15.069126      15.069126      0              0              0            
    250000   268.37073     -1216.3778      198.65727     -1017.7205     -302.20985      15.05347       15.05347       15.05347       0              0              0            
    251000   288.53654     -1199.0734      213.5847      -985.48869      984.23764      14.911141      14.911141      14.911141      0              0              0            
    252000   288.8362      -1201.6234      213.80652     -987.81685      295.36687      14.913454      14.913454      14.913454      0              0              0            
    253000   293.79383     -1233.3871      217.47633     -1015.9108     -140.82437      14.774213      14.774213      14.774213      0              0              0            
    254000   289.2024      -1205.0582      214.0776      -990.98061      3790.2959      14.90484       14.90484       14.90484       0              0              0            
    255000   274.57901     -1176.9906      203.25285     -973.73778      210.3769       14.852805      14.852805      14.852805      0              0              0            
    256000   283.02362     -1186.5407      209.50385     -977.03685     -341.31488      14.914487      14.914487      14.914487      0              0              0            
    257000   301.55011     -1160.585       223.21779     -937.36718     -1489.7742      15.367851      15.367851      15.367851      0              0              0            
    258000   294.54713     -1192.5265      218.03394     -974.49259     -644.03159      15.130234      15.130234      15.130234      0              0              0            
    259000   269.98004     -1187.9816      199.84854     -988.13308      1458.9408      14.936593      14.936593      14.936593      0              0              0            
    260000   288.0071      -1217.3372      213.19279     -1004.1444     -202.826        15.00314       15.00314       15.00314       0              0              0            
    261000   296.0227      -1170.6729      219.12621     -951.54668     -426.15099      15.174754      15.174754      15.174754      0              0              0            
    262000   266.47296     -1198.6404      197.25248     -1001.3879      105.32525      15.019299      15.019299      15.019299      0              0              0            
    263000   287.15602     -1203.4902      212.56279     -990.92739      470.57304      14.927368      14.927368      14.927368      0              0              0            
    264000   306.25737     -1192.7476      226.70227     -966.04532     -555.16398      14.930905      14.930905      14.930905      0              0              0            
    265000   269.20545     -1191.2624      199.27516     -991.98727     -1383.8812      15.100514      15.100514      15.100514      0              0              0            
    266000   297.60378     -1233.8225      220.29659     -1013.5259     -1230.8284      14.828575      14.828575      14.828575      0              0              0            
    267000   305.68689     -1194.266       226.27998     -967.98602     -657.13521      14.959574      14.959574      14.959574      0              0              0            
    268000   290.05079     -1190.2154      214.7056      -975.50981      1092.8681      15.078568      15.078568      15.078568      0              0              0            
    269000   309.61611     -1241.2675      229.18852     -1012.079      -964.63676      14.797478      14.797478      14.797478      0              0              0            
    270000   309.60556     -1212.0812      229.18072     -982.90046      978.95292      15.07005       15.07005       15.07005       0              0              0            
    271000   306.85248     -1215.0419      227.14279     -987.89913     -790.52604      15.070349      15.070349      15.070349      0              0              0            
    272000   318.96426     -1206.4634      236.10835     -970.35508      744.98746      14.955464      14.955464      14.955464      0              0              0            
    273000   288.91479     -1220.7604      213.86469     -1006.8957      968.70208      14.63819       14.63819       14.63819       0              0              0            
    274000   316.51154     -1202.7092      234.29276     -968.41641     -1305.1562      15.026124      15.026124      15.026124      0              0              0            
    275000   305.31021     -1223.3658      226.00115     -997.36463      1338.7911      14.820862      14.820862      14.820862      0              0              0            
    276000   324.63981     -1222.0376      240.30959     -981.728        2798.6171      14.980823      14.980823      14.980823      0              0              0            
    277000   287.27359     -1193.3428      212.64982     -980.69302     -887.42309      14.966695      14.966695      14.966695      0              0              0            
    278000   317.03069     -1229.6286      234.67705     -994.95156     -96.342545      14.934936      14.934936      14.934936      0              0              0            
    279000   285.78191     -1217.5308      211.54562     -1005.9852      587.57475      14.896469      14.896469      14.896469      0              0              0            
    280000   287.15983     -1227.505       212.56561     -1014.9394     -261.81683      14.979732      14.979732      14.979732      0              0              0            
    281000   311.52397     -1220.0804      230.60079     -989.47962      2399.6403      14.581158      14.581158      14.581158      0              0              0            
    282000   313.75665     -1188.5416      232.2535      -956.28813      367.82481      15.092795      15.092795      15.092795      0              0              0            
    283000   299.77922     -1204.5111      221.90692     -982.60422     -1352.258       15.05407       15.05407       15.05407       0              0              0            
    284000   292.10146     -1207.0767      216.22358     -990.85313      290.07136      15.009675      15.009675      15.009675      0              0              0            
    285000   313.15177     -1207.2465      231.80574     -975.4408      -412.3243       15.044881      15.044881      15.044881      0              0              0            
    286000   290.59069     -1212.2483      215.10525     -997.14302     -1582.9117      14.863777      14.863777      14.863777      0              0              0            
    287000   297.40274     -1200.535       220.14776     -980.38727     -1516.3941      15.015603      15.015603      15.015603      0              0              0            
    288000   332.18657     -1216.1811      245.89596     -970.28511      962.21462      14.91634       14.91634       14.91634       0              0              0            
    289000   302.107       -1218.7164      223.63002     -995.08636      716.69716      14.775263      14.775263      14.775263      0              0              0            
    290000   319.7001      -1187.9232      236.65304     -951.27017      432.47791      15.187387      15.187387      15.187387      0              0              0            
    291000   282.9496      -1213.2404      209.44905     -1003.7914      1912.2536      14.832834      14.832834      14.832834      0              0              0            
    292000   294.20294     -1187.6221      217.77916     -969.84297      1714.1286      14.980508      14.980508      14.980508      0              0              0            
    293000   299.94483     -1200.3901      222.02951     -978.36058      1292.0085      15.047346      15.047346      15.047346      0              0              0            
    294000   308.72039     -1214.9377      228.52549     -986.41217     -2162.9723      14.881299      14.881299      14.881299      0              0              0            
    295000   323.73345     -1189.5212      239.63867     -949.88249     -1292.0927      15.117466      15.117466      15.117466      0              0              0            
    296000   314.13692     -1206.158       232.53499     -973.62304     -332.52446      15.190657      15.190657      15.190657      0              0              0            
    297000   295.45005     -1196.7482      218.70232     -978.0459      -146.44396      14.869698      14.869698      14.869698      0              0              0            
    298000   307.65742     -1186.2006      227.73864     -958.46196      105.357        14.977009      14.977009      14.977009      0              0              0            
    299000   325.55274     -1173.4237      240.98537     -932.43836      1578.9867      14.83632       14.83632       14.83632       0              0              0            
    300000   301.13522     -1174.8873      222.91068     -951.97663     -158.2622       15.065635      15.065635      15.065635      0              0              0            
    301000   335.63799     -1207.3381      248.45082     -958.88729      699.93973      14.725751      14.725751      14.725751      0              0              0            
    302000   295.36913     -1204.4603      218.64242     -985.81791     -2188.6704      15.230616      15.230616      15.230616      0              0              0            
    303000   290.31412     -1216.8021      214.90053     -1001.9016      1699.8697      14.793744      14.793744      14.793744      0              0              0            
    304000   311.66643     -1235.5044      230.70624     -1004.7982      1349.8046      14.98879       14.98879       14.98879       0              0              0            
    305000   302.62769     -1228.5217      224.01546     -1004.5062      645.02849      15.149723      15.149723      15.149723      0              0              0            
    306000   298.3874      -1196.4936      220.87664     -975.61695     -960.45005      15.107541      15.107541      15.107541      0              0              0            
    307000   302.40455     -1212.625       223.85028     -988.77477      2160.8231      14.947347      14.947347      14.947347      0              0              0            
    308000   278.46827     -1201.7393      206.13182     -995.60749      1565.3224      14.873248      14.873248      14.873248      0              0              0            
    309000   279.18629     -1195.9574      206.66332     -989.29407      2483.0764      14.986184      14.986184      14.986184      0              0              0            
    310000   308.35157     -1191.4103      228.25247     -963.15787     -1336.9591      15.231461      15.231461      15.231461      0              0              0            
    311000   293.33239     -1223.3973      217.13475     -1006.2625     -1238.8532      15.023746      15.023746      15.023746      0              0              0            
    312000   305.80234     -1178.4673      226.36544     -952.10182      1530.2755      15.11031       15.11031       15.11031       0              0              0            
    313000   283.55298     -1174.1036      209.89569     -964.20792     -566.47575      15.448313      15.448313      15.448313      0              0              0            
    314000   314.42565     -1216.9992      232.74871     -984.25049     -919.06762      15.168912      15.168912      15.168912      0              0              0            
    315000   310.49584     -1194.7804      229.83974     -964.94067     -1442.5517      15.087952      15.087952      15.087952      0              0              0            
    316000   273.06517     -1195.357       202.13226     -993.22478     -1998.045       15.122458      15.122458      15.122458      0              0              0            
    317000   294.23677     -1213.6451      217.80421     -995.84092      820.7534       14.935642      14.935642      14.935642      0              0              0            
    318000   327.64578     -1206.7988      242.53471     -964.26407     -1772.8085      15.115524      15.115524      15.115524      0              0              0            
    319000   290.84538     -1191.9533      215.29379     -976.65952      1671.9448      14.933532      14.933532      14.933532      0              0              0            
    320000   306.69314     -1204.8624      227.02484     -977.83758     -906.43027      15.087837      15.087837      15.087837      0              0              0            
    321000   316.8407      -1186.5991      234.53641     -952.06271     -1281.1234      15.013264      15.013264      15.013264      0              0              0            
    322000   306.72971     -1191.6441      227.05191     -964.59216      708.26719      14.891429      14.891429      14.891429      0              0              0            
    323000   302.13707     -1212.5682      223.65229     -988.91593     -1224.2532      15.124667      15.124667      15.124667      0              0              0            
    324000   313.75736     -1209.253       232.25402     -976.99898      429.44048      14.864697      14.864697      14.864697      0              0              0            
    325000   316.66758     -1212.4788      234.40827     -978.07049     -2792.6734      15.019671      15.019671      15.019671      0              0              0            
    326000   301.65783     -1231.0758      223.29753     -1007.7783      1979.6002      14.940292      14.940292      14.940292      0              0              0            
    327000   284.50182     -1200.3062      210.59806     -989.7081      -1030.0262      15.22802       15.22802       15.22802       0              0              0            
    328000   310.37191     -1181.8482      229.74799     -952.10016      329.94063      15.042135      15.042135      15.042135      0              0              0            
    329000   292.95922     -1207.5097      216.85852     -990.65123     -407.91263      14.956716      14.956716      14.956716      0              0              0            
    330000   282.72101     -1206.3856      209.27984     -997.10575      1836.7019      14.667517      14.667517      14.667517      0              0              0            
    331000   302.24044     -1210.7101      223.7288      -986.98127     -763.54541      15.012528      15.012528      15.012528      0              0              0            
    332000   320.5059      -1174.7682      237.24952     -937.51871      3698.7631      14.803096      14.803096      14.803096      0              0              0            
    333000   285.78697     -1228.5124      211.54938     -1016.963       1295.177       14.915568      14.915568      14.915568      0              0              0            
    334000   277.56186     -1188.2975      205.46086     -982.83665     -761.74923      14.875381      14.875381      14.875381      0              0              0            
    335000   269.25407     -1210.941       199.31115     -1011.6299     -1535.8624      14.96698       14.96698       14.96698       0              0              0            
    336000   316.6015      -1197.4013      234.35935     -963.042        590.70008      14.980709      14.980709      14.980709      0              0              0            
    337000   303.7606      -1154.0229      224.85407     -929.16882      2333.7946      15.042445      15.042445      15.042445      0              0              0            
    338000   299.31806     -1225.2117      221.56555     -1003.6462     -710.84962      14.981769      14.981769      14.981769      0              0              0            
    339000   319.56226     -1181.0327      236.55101     -944.48173      2767.2235      14.815841      14.815841      14.815841      0              0              0            
    340000   310.82509     -1228.5054      230.08345     -998.42194      418.53316      14.804497      14.804497      14.804497      0              0              0            
    341000   277.35935     -1225.7891      205.31096     -1020.4782      1201.0728      14.866479      14.866479      14.866479      0              0              0            
    342000   283.59992     -1194.7167      209.93045     -984.78624      29.595307      15.034364      15.034364      15.034364      0              0              0            
    343000   302.27917     -1178.3322      223.75747     -954.57478      2029.8308      14.854229      14.854229      14.854229      0              0              0            
    344000   286.69453     -1208.816       212.22118     -996.59482      764.87029      15.054534      15.054534      15.054534      0              0              0            
    345000   304.08104     -1218.2198      225.09127     -993.12848      726.79853      14.770122      14.770122      14.770122      0              0              0            
    346000   280.05811     -1222.7497      207.30868     -1015.441       871.0453       14.855495      14.855495      14.855495      0              0              0            
    347000   303.82766     -1209.8077      224.90371     -984.90395      1802.5254      14.879451      14.879451      14.879451      0              0              0            
    348000   279.42051     -1213.184       206.8367      -1006.3473      893.47888      15.066017      15.066017      15.066017      0              0              0            
    349000   323.60175     -1215.7316      239.54118     -976.19044     -526.34706      14.842142      14.842142      14.842142      0              0              0            
    350000   295.78466     -1212.2196      218.95001     -993.26955      336.12027      14.987236      14.987236      14.987236      0              0              0            
    351000   296.46195     -1190.7939      219.45136     -971.34252     -1419.7822      15.223511      15.223511      15.223511      0              0              0            
    352000   302.25109     -1216.5573      223.73668     -992.82063     -403.5861       15.111396      15.111396      15.111396      0              0              0            
    353000   301.90525     -1169.9442      223.48068     -946.46354      831.35542      15.125703      15.125703      15.125703      0              0              0            
    354000   292.65401     -1198.2348      216.6326      -981.60224      780.68729      14.719915      14.719915      14.719915      0              0              0            
    355000   339.30247     -1208.6983      251.16339     -957.53493     -710.1781       14.985161      14.985161      14.985161      0              0              0            
    356000   299.52153     -1223.2068      221.71617     -1001.4906      60.992763      14.870737      14.870737      14.870737      0              0              0            
    357000   313.33479     -1209.9938      231.94122     -978.05256     -1630.3019      14.937136      14.937136      14.937136      0              0              0            
    358000   291.83422     -1187.3615      216.02576     -971.3357       873.43956      15.01584       15.01584       15.01584       0              0              0            
    359000   287.95291     -1190.1309      213.15267     -976.97827     -1189.0113      15.170539      15.170539      15.170539      0              0              0            
    360000   290.82852     -1215.7511      215.2813      -1000.4698      352.152        15.022573      15.022573      15.022573      0              0              0            
    361000   321.96991     -1189.3635      238.33323     -951.03026      1279.7117      15.038597      15.038597      15.038597      0              0              0            
    362000   303.26479     -1196.0811      224.48706     -971.59404      1291.0784      15.103964      15.103964      15.103964      0              0              0            
    363000   293.98639     -1198.3198      217.61887     -980.70089      1096.2574      15.153812      15.153812      15.153812      0              0              0            
    364000   305.8232      -1218.3435      226.38088     -991.96267     -998.06322      15.132012      15.132012      15.132012      0              0              0            
    365000   285.71251     -1205.1617      211.49426     -993.66742     -3.6414098      14.961574      14.961574      14.961574      0              0              0            
    366000   328.84197     -1219.367       243.42017     -975.94684     -1109.4176      14.96179       14.96179       14.96179       0              0              0            
    367000   304.47074     -1186.0811      225.37975     -960.70136      232.15396      15.150657      15.150657      15.150657      0              0              0            
    368000   275.52479     -1229.6097      203.95295     -1025.6568     -58.303079      14.916989      14.916989      14.916989      0              0              0            
    369000   277.80458     -1213.2915      205.64053     -1007.651      -842.67961      14.925859      14.925859      14.925859      0              0              0            
    370000   304.65377     -1155.9601      225.51523     -930.44485     -1632.5801      15.172935      15.172935      15.172935      0              0              0            
    371000   312.65119     -1193.3726      231.4352      -961.93741      763.64075      14.97721       14.97721       14.97721       0              0              0            
    372000   299.97217     -1226.6722      222.04975     -1004.6225     -444.63224      14.986421      14.986421      14.986421      0              0              0            
    373000   285.99842     -1175.4103      211.7059      -963.70436     -1955.5604      15.296209      15.296209      15.296209      0              0              0            
    374000   282.39972     -1163.556       209.04202     -954.51398     -60.644821      15.080021      15.080021      15.080021      0              0              0            
    375000   283.49835     -1155.301       209.85525     -945.4457      -8.1443021      15.159185      15.159185      15.159185      0              0              0            
    376000   281.45175     -1185.8433      208.34029     -977.50303     -499.21354      14.98767       14.98767       14.98767       0              0              0            
    377000   286.4518      -1195.6055      212.0415      -983.56399      557.4826       15.020273      15.020273      15.020273      0              0              0            
    378000   304.09541     -1203.3833      225.10192     -978.28135     -1265.2438      15.008864      15.008864      15.008864      0              0              0            
    379000   310.05866     -1191.0313      229.51612     -961.51518     -198.01352      14.928619      14.928619      14.928619      0              0              0            
    380000   274.41212     -1236.9282      203.12932     -1033.7988     -549.19257      14.944433      14.944433      14.944433      0              0              0            
    381000   270.62736     -1219.5612      200.32771     -1019.2335      426.23627      15.006028      15.006028      15.006028      0              0              0            
    382000   304.4842      -1209.5067      225.38971     -984.11702      2516.176       14.72363       14.72363       14.72363       0              0              0            
    383000   292.0754      -1209.549       216.20428     -993.34476      734.92115      15.043472      15.043472      15.043472      0              0              0            
    384000   290.10271     -1186.9169      214.74403     -972.1729      -888.89541      14.966636      14.966636      14.966636      0              0              0            
    385000   296.48939     -1192.3953      219.47167     -972.92359     -846.2795       14.837516      14.837516      14.837516      0              0              0            
    386000   327.15527     -1191.5912      242.17162     -949.41958      1036.3998      14.877899      14.877899      14.877899      0              0              0            
    387000   292.39757     -1198.6214      216.44276     -982.17861      2846.5199      15.047066      15.047066      15.047066      0              0              0            
    388000   343.0765      -1234.616       253.95706     -980.65889     -849.09042      14.834977      14.834977      14.834977      0              0              0            
    389000   265.21003     -1247.6101      196.31761     -1051.2924     -1370.0213      14.770574      14.770574      14.770574      0              0              0            
    390000   307.9427      -1191.19        227.94981     -963.24016     -1702.6031      15.017507      15.017507      15.017507      0              0              0            
    391000   271.39999     -1219.1723      200.89964     -1018.2727     -672.80239      15.119021      15.119021      15.119021      0              0              0            
    392000   272.38633     -1197.2476      201.62976     -995.61782     -2134.9656      15.248084      15.248084      15.248084      0              0              0            
    393000   288.38364     -1194.368       213.47152     -980.89647      510.85315      15.062733      15.062733      15.062733      0              0              0            
    394000   282.45611     -1210.5824      209.08376     -1001.4986      279.42432      15.006661      15.006661      15.006661      0              0              0            
    395000   279.41932     -1219.9268      206.83582     -1013.091      -1840.3549      15.125822      15.125822      15.125822      0              0              0            
    396000   310.22521     -1218.5421      229.6394      -988.90266     -21.9958        14.831016      14.831016      14.831016      0              0              0            
    397000   328.79448     -1196.3509      243.38502     -952.96589     -1219.4909      14.965512      14.965512      14.965512      0              0              0            
    398000   306.84953     -1202.2268      227.14061     -975.08622     -735.02782      15.113107      15.113107      15.113107      0              0              0            
    399000   291.74339     -1200.3224      215.95852     -984.3639       3643.6058      14.709454      14.709454      14.709454      0              0              0            
    400000   292.83352     -1242.093       216.76547     -1025.3276     -2023.947       15.090662      15.090662      15.090662      0              0              0            
    401000   309.1852      -1212.6963      228.86955     -983.82675     -675.86206      14.879216      14.879216      14.879216      0              0              0            
    402000   277.56743     -1151.7193      205.46499     -946.25428     -363.12904      15.111784      15.111784      15.111784      0              0              0            
    403000   325.29496     -1211.3656      240.79455     -970.57109     -577.74955      14.806398      14.806398      14.806398      0              0              0            
    404000   316.88499     -1214.1152      234.5692      -979.54604     -142.96883      14.927376      14.927376      14.927376      0              0              0            
    405000   314.23894     -1207.3291      232.6105      -974.71855      251.65705      14.956184      14.956184      14.956184      0              0              0            
    406000   284.01561     -1207.3624      210.23815     -997.12428      539.84921      14.902137      14.902137      14.902137      0              0              0            
    407000   293.48401     -1222.4383      217.24699     -1005.1913     -1094.4904      14.93126       14.93126       14.93126       0              0              0            
    408000   300.123       -1211.1964      222.1614      -989.03503      987.09851      14.956489      14.956489      14.956489      0              0              0            
    409000   304.4336      -1205.1651      225.35225     -979.81283     -118.06522      15.171475      15.171475      15.171475      0              0              0            
    410000   282.48985     -1218.2391      209.10874     -1009.1304     -451.38447      14.779363      14.779363      14.779363      0              0              0            
    411000   289.44354     -1237.2154      214.2561      -1022.9593     -48.428601      14.798959      14.798959      14.798959      0              0              0            
    412000   290.25962     -1205.653       214.86019     -990.79278     -1308.225       14.84248       14.84248       14.84248       0              0              0            
    413000   324.053       -1202.778       239.87521     -962.90284      265.27918      14.84838       14.84838       14.84838       0              0              0            
    414000   278.86771     -1200.4458      206.4275      -994.01833      520.70312      14.896271      14.896271      14.896271      0              0              0            
    415000   316.68638     -1220.2686      234.42219     -985.84645     -108.0814       15.118791      15.118791      15.118791      0              0              0            
    416000   261.69543     -1208.5598      193.71599     -1014.8439     -1310.3327      14.998996      14.998996      14.998996      0              0              0            
    417000   298.78832     -1200.2901      221.17342     -979.11666      1673.1379      14.960354      14.960354      14.960354      0              0              0            
    418000   314.8144      -1223.876       233.03648     -990.83954      1251.9479      15.042747      15.042747      15.042747      0              0              0            
    419000   293.98278     -1182.4944      217.61619     -964.87822     -1069.6422      15.048592      15.048592      15.048592      0              0              0            
    420000   311.57212     -1223.0567      230.63643     -992.42025     -422.42892      15.241969      15.241969      15.241969      0              0              0            
    421000   308.08335     -1183.4594      228.05393     -955.4055       2190.2045      15.140498      15.140498      15.140498      0              0              0            
    422000   297.63838     -1210.7193      220.32219     -990.3971      -1678.776       14.979642      14.979642      14.979642      0              0              0            
    423000   293.46036     -1223.3848      217.22948     -1006.1553      242.73344      14.981138      14.981138      14.981138      0              0              0            
    424000   318.13154     -1192.3284      235.49194     -956.83642     -975.26199      15.038177      15.038177      15.038177      0              0              0            
    425000   279.61971     -1208.6617      206.98416     -1001.6775     -319.56888      14.85604       14.85604       14.85604       0              0              0            
    426000   294.50976     -1189.5557      218.00628     -971.54937      1966.4567      15.030202      15.030202      15.030202      0              0              0            
    427000   307.20056     -1177.2714      227.40045     -949.87095      2707.9048      14.928847      14.928847      14.928847      0              0              0            
    428000   331.32905     -1207.2408      245.26119     -961.97962     -763.08089      15.126703      15.126703      15.126703      0              0              0            
    429000   292.84202     -1222.3349      216.77177     -1005.5632     -1507.4296      15.314099      15.314099      15.314099      0              0              0            
    430000   275.71007     -1174.8137      204.0901      -970.72358      718.77977      15.309842      15.309842      15.309842      0              0              0            
    431000   293.25025     -1203.1711      217.07395     -986.09712      538.26814      15.169106      15.169106      15.169106      0              0              0            
    432000   305.68281     -1197.3295      226.27696     -971.05257     -1345.1992      15.264055      15.264055      15.264055      0              0              0            
    433000   300.43211     -1192.0129      222.39021     -969.62267      45.868447      15.0464        15.0464        15.0464        0              0              0            
    434000   299.06784     -1181.1243      221.38033     -959.74397      1908.4257      15.003764      15.003764      15.003764      0              0              0            
    435000   308.19253     -1214.1562      228.13474     -986.02147     -811.49211      14.96539       14.96539       14.96539       0              0              0            
    436000   307.13813     -1193.8069      227.35424     -966.45265     -514.9324       14.967625      14.967625      14.967625      0              0              0            
    437000   316.74197     -1177.8625      234.46333     -943.39916     -602.49997      15.123919      15.123919      15.123919      0              0              0            
    438000   293.08094     -1176.5925      216.94862     -959.64384     -1632.0779      15.251738      15.251738      15.251738      0              0              0            
    439000   294.27868     -1227.5499      217.83523     -1009.7147      941.62933      15.025695      15.025695      15.025695      0              0              0            
    440000   288.94415     -1208.7406      213.88643     -994.85422     -300.96766      15.067992      15.067992      15.067992      0              0              0            
    441000   297.7246      -1182.8446      220.38602     -962.4586       505.93101      15.077762      15.077762      15.077762      0              0              0            
    442000   292.14197     -1195.8721      216.25357     -979.61851      87.689355      15.004932      15.004932      15.004932      0              0              0            
    443000   272.78478     -1182.9327      201.92471     -981.00797     -528.29501      15.067143      15.067143      15.067143      0              0              0            
    444000   278.21396     -1176.5989      205.94357     -970.65536      151.75626      15.079354      15.079354      15.079354      0              0              0            
    445000   291.4603      -1203.3789      215.74897     -987.62989     -191.41697      15.215429      15.215429      15.215429      0              0              0            
    446000   333.64784     -1186.8539      246.97764     -939.87629     -1334.1899      14.980754      14.980754      14.980754      0              0              0            
    447000   319.9809      -1217.8916      236.8609      -981.03066      1096.4141      14.939817      14.939817      14.939817      0              0              0            
    448000   318.4462      -1231.5371      235.72486     -995.81219      125.21246      14.737206      14.737206      14.737206      0              0              0            
    449000   341.33393     -1189.2871      252.66715     -936.61999      2317.8596      15.009624      15.009624      15.009624      0              0              0            
    450000   291.04989     -1167.7997      215.44517     -952.35454      1508.8583      14.796974      14.796974      14.796974      0              0              0            
    451000   318.54655     -1190.9906      235.79914     -955.19143      1333.9674      15.031968      15.031968      15.031968      0              0              0            
    452000   284.06548     -1198.5132      210.27506     -988.23816     -805.79809      15.216779      15.216779      15.216779      0              0              0            
    453000   298.93997     -1233.3539      221.28568     -1012.0682     -1323.5407      14.882322      14.882322      14.882322      0              0              0            
    454000   322.00219     -1221.1589      238.35713     -982.80174      2032.5236      14.77665       14.77665       14.77665       0              0              0            
    455000   296.93521     -1218.3271      219.80169     -998.5254       469.09217      14.969449      14.969449      14.969449      0              0              0            
    456000   292.2528      -1217.6101      216.3356      -1001.2745      2448.0803      14.775949      14.775949      14.775949      0              0              0            
    457000   312.39187     -1218.4761      231.24324     -987.23282     -1361.229       14.960771      14.960771      14.960771      0              0              0            
    458000   296.76875     -1213.6751      219.67846     -993.9966       651.83649      14.82598       14.82598       14.82598       0              0              0            
    459000   322.87996     -1206.3487      239.00688     -967.34181      369.85527      15.163452      15.163452      15.163452      0              0              0            
    460000   317.40376     -1194.9525      234.95321     -959.99927      2750.877       14.894         14.894         14.894         0              0              0            
    461000   321.35862     -1189.6355      237.88074     -951.75472      149.25477      15.358717      15.358717      15.358717      0              0              0            
    462000   278.25468     -1184.093       205.97371     -978.11934     -715.16091      15.394074      15.394074      15.394074      0              0              0            
    463000   297.10507     -1220.8797      219.92742     -1000.9522      363.65082      14.78663       14.78663       14.78663       0              0              0            
    464000   316.74124     -1203.8554      234.46279     -969.39264     -605.77701      15.009784      15.009784      15.009784      0              0              0            
    465000   307.79311     -1215.1693      227.83908     -987.33026     -453.60776      14.806486      14.806486      14.806486      0              0              0            
    466000   303.71186     -1230.4069      224.818       -1005.5889      833.85173      14.860105      14.860105      14.860105      0              0              0            
    467000   305.88976     -1224.0072      226.43016     -997.57705      271.57378      14.937111      14.937111      14.937111      0              0              0            
    468000   283.55098     -1218.7485      209.89421     -1008.8543      737.14929      14.972483      14.972483      14.972483      0              0              0            
    469000   297.14783     -1189.0504      219.95908     -969.09134     -1002.2942      14.868272      14.868272      14.868272      0              0              0            
    470000   296.36011     -1202.0601      219.37598     -982.68413      840.55443      15.025641      15.025641      15.025641      0              0              0            
    471000   295.9639      -1201.2866      219.08269     -982.20389     -959.57931      14.9707        14.9707        14.9707        0              0              0            
    472000   318.16808     -1189.281       235.51899     -953.76206      1845.7511      14.74159       14.74159       14.74159       0              0              0            
    473000   277.25834     -1225.4461      205.23619     -1020.2099      408.69516      14.974723      14.974723      14.974723      0              0              0            
    474000   297.97528     -1249.1845      220.57158     -1028.613      -504.55282      15.0096        15.0096        15.0096        0              0              0            
    475000   301.81871     -1200.3617      223.41662     -976.94506      1094.9494      14.978013      14.978013      14.978013      0              0              0            
    476000   297.09902     -1217.6816      219.92294     -997.75868      273.57146      14.999033      14.999033      14.999033      0              0              0            
    477000   297.40794     -1209.6328      220.15162     -989.48114     -976.19509      14.933353      14.933353      14.933353      0              0              0            
    478000   282.80162     -1203.6128      209.33952     -994.27331     -1695.4121      14.952497      14.952497      14.952497      0              0              0            
    479000   292.99567     -1240.861       216.8855      -1023.9755      16.93879       14.787239      14.787239      14.787239      0              0              0            
    480000   296.23937     -1207.5657      219.2866      -988.27909      552.95183      15.141691      15.141691      15.141691      0              0              0            
    481000   290.6193      -1238.2448      215.12643     -1023.1184      125.91812      14.969268      14.969268      14.969268      0              0              0            
    482000   270.91761     -1255.0819      200.54256     -1054.5393      2506.6609      14.723112      14.723112      14.723112      0              0              0            
    483000   284.66007     -1217.9554      210.7152      -1007.2402      359.68218      14.784723      14.784723      14.784723      0              0              0            
    484000   288.90632     -1190.094       213.85842     -976.23561     -609.84111      15.085195      15.085195      15.085195      0              0              0            
    485000   316.24223     -1202.5829      234.09341     -968.4895      -1351.0942      14.957245      14.957245      14.957245      0              0              0            
    486000   298.47875     -1194.0089      220.94427     -973.06463      555.4463       15.043382      15.043382      15.043382      0              0              0            
    487000   313.19651     -1219.2219      231.83886     -987.38303     -2578.5814      14.960521      14.960521      14.960521      0              0              0            
    488000   292.21931     -1207.3094      216.31082     -990.99858      309.74103      14.774537      14.774537      14.774537      0              0              0            
    489000   290.67821     -1208.0686      215.17004     -992.89855      1022.942       15.042261      15.042261      15.042261      0              0              0            
    490000   306.24471     -1190.3952      226.6929      -963.70227      1300.4224      15.012085      15.012085      15.012085      0              0              0            
    491000   315.79464     -1165.1762      233.76208     -931.41407     -280.05293      15.125448      15.125448      15.125448      0              0              0            
    492000   311.49442     -1216.9472      230.57892     -986.36829     -957.15432      15.053606      15.053606      15.053606      0              0              0            
    493000   278.44445     -1220.2568      206.11419     -1014.1426     -751.75119      15.124116      15.124116      15.124116      0              0              0            
    494000   296.25191     -1222.4253      219.29589     -1003.1294     -129.82975      14.861701      14.861701      14.861701      0              0              0            
    495000   280.3191      -1223.2755      207.50187     -1015.7736     -1273.0105      15.182528      15.182528      15.182528      0              0              0            
    496000   269.22251     -1181.6898      199.28779     -982.40198     -1309.7643      14.965592      14.965592      14.965592      0              0              0            
    497000   312.96667     -1204.39        231.66872     -972.72125      466.33341      15.173059      15.173059      15.173059      0              0              0            
    498000   311.13716     -1178.9111      230.31446     -948.59668      1296.4695      15.191194      15.191194      15.191194      0              0              0            
    499000   296.1681      -1221.4534      219.23384     -1002.2196     -430.22434      14.904788      14.904788      14.904788      0              0              0            
    500000   321.92193     -1197.6244      238.29772     -959.3267       444.21394      15.041208      15.041208      15.041208      0              0              0            
    501000   301.14432     -1160.6065      222.91742     -937.6891      -1139.6758      15.29944       15.29944       15.29944       0              0              0            
    502000   269.53294     -1235.941       199.51758     -1036.4234     -851.03112      14.710278      14.710278      14.710278      0              0              0            
    503000   299.89265     -1226.6202      221.99089     -1004.6293     -89.804343      15.116022      15.116022      15.116022      0              0              0            
    504000   296.11804     -1214.4317      219.19679     -995.23495      369.90879      14.756868      14.756868      14.756868      0              0              0            
    505000   284.63015     -1198.7114      210.69306     -988.01833     -622.16321      15.076539      15.076539      15.076539      0              0              0            
    506000   306.91469     -1196.7855      227.18884     -969.59665     -271.88072      15.116622      15.116622      15.116622      0              0              0            
    507000   315.37376     -1204.602       233.45054     -971.15143      432.28505      14.936935      14.936935      14.936935      0              0              0            
    508000   309.21293     -1182.0947      228.89008     -953.20459     -393.55592      15.013794      15.013794      15.013794      0              0              0            
    509000   300.28819     -1205.719       222.28367     -983.43528      1280.6488      15.041578      15.041578      15.041578      0              0              0            
    510000   309.22309     -1172.6581      228.8976      -943.76051     -866.91816      15.070486      15.070486      15.070486      0              0              0            
    511000   304.66922     -1194.0258      225.52667     -968.4991      -914.97401      14.935273      14.935273      14.935273      0              0              0            
    512000   305.82298     -1152.2102      226.38072     -925.82953     -1114.0836      15.087345      15.087345      15.087345      0              0              0            
    513000   301.59762     -1203.1343      223.25296     -979.88132      23.817331      14.953387      14.953387      14.953387      0              0              0            
    514000   279.40197     -1194.6316      206.82297     -987.80866      987.15987      15.138665      15.138665      15.138665      0              0              0            
    515000   295.91846     -1195.5222      219.04905     -976.47312      1127.2121      14.738555      14.738555      14.738555      0              0              0            
    516000   277.12469     -1217.5189      205.13726     -1012.3817     -45.972907      15.166957      15.166957      15.166957      0              0              0            
    517000   308.99013     -1201.3474      228.72515     -972.62225     -1395.2793      15.270603      15.270603      15.270603      0              0              0            
    518000   316.64158     -1211.0305      234.38902     -976.64152      1194.6401      14.89928       14.89928       14.89928       0              0              0            
    519000   307.42559     -1213.4704      227.56702     -985.90337      2163.7163      14.669623      14.669623      14.669623      0              0              0            
    520000   299.44937     -1205.141       221.66275     -983.47829     -2074.1092      15.04051       15.04051       15.04051       0              0              0            
    521000   286.07838     -1183.8223      211.76508     -972.05725      378.48964      15.068774      15.068774      15.068774      0              0              0            
    522000   289.33889     -1190.9913      214.17863     -976.81266     -3114.5577      15.312428      15.312428      15.312428      0              0              0            
    523000   279.82402     -1198.4297      207.13539     -991.29428      979.66366      14.976666      14.976666      14.976666      0              0              0            
    524000   291.83093     -1211.7909      216.02332     -995.76754     -1372.0187      14.826208      14.826208      14.826208      0              0              0            
    525000   315.99148     -1201.5984      233.90779     -967.69058      463.60513      15.011374      15.011374      15.011374      0              0              0            
    526000   304.00392     -1221.7901      225.03419     -996.75589      0.8750373      14.84559       14.84559       14.84559       0              0              0            
    527000   288.93484     -1226.2905      213.87953     -1012.411      -1658.4124      14.85576       14.85576       14.85576       0              0              0            
    528000   296.96128     -1226.2818      219.82099     -1006.4608      476.74248      14.966245      14.966245      14.966245      0              0              0            
    529000   302.74742     -1207.9545      224.10408     -983.85037      1637.238       14.8072        14.8072        14.8072        0              0              0            
    530000   296.09794     -1204.9869      219.18191     -985.80503      2019.6148      15.014441      15.014441      15.014441      0              0              0            
    531000   281.45675     -1192.6615      208.344       -984.31754     -713.56014      15.344002      15.344002      15.344002      0              0              0            
    532000   305.59554     -1217.8717      226.21236     -991.65931     -1207.0301      14.919657      14.919657      14.919657      0              0              0            
    533000   309.94741     -1195.5784      229.43377     -966.14466     -323.94771      14.898555      14.898555      14.898555      0              0              0            
    534000   297.56749     -1215.5121      220.26972     -995.24242      554.94639      15.198437      15.198437      15.198437      0              0              0            
    535000   326.4913      -1196.5413      241.68012     -954.86119      255.30354      14.831924      14.831924      14.831924      0              0              0            
    536000   299.81145     -1192.0635      221.93078     -970.13269     -2347.8554      15.264986      15.264986      15.264986      0              0              0            
    537000   331.97493     -1150.779       245.73929     -905.03967      661.77692      15.108024      15.108024      15.108024      0              0              0            
    538000   330.43024     -1223.0206      244.59587     -978.42478      2049.0265      14.783391      14.783391      14.783391      0              0              0            
    539000   327.06997     -1218.6657      242.10847     -976.55726      867.18256      14.878407      14.878407      14.878407      0              0              0            
    540000   299.03289     -1207.8612      221.35446     -986.50675      972.78247      14.857407      14.857407      14.857407      0              0              0            
    541000   319.71602     -1210.26        236.66482     -973.59522     -333.1323       15.032656      15.032656      15.032656      0              0              0            
    542000   290.87435     -1191.2229      215.31523     -975.90763      153.65959      15.155817      15.155817      15.155817      0              0              0            
    543000   301.51043     -1195.0464      223.18842     -971.85803     -591.3297       15.155001      15.155001      15.155001      0              0              0            
    544000   329.13337     -1209.574       243.63588     -965.93808      1303.8144      14.746735      14.746735      14.746735      0              0              0            
    545000   317.06998     -1195.8178      234.70614     -961.11165      1162.4925      15.026997      15.026997      15.026997      0              0              0            
    546000   280.60657     -1217.7459      207.71466     -1010.0312      1612.9758      14.959149      14.959149      14.959149      0              0              0            
    547000   330.4845      -1204.8966      244.63603     -960.26061      1978.301       14.859125      14.859125      14.859125      0              0              0            
    548000   290.55754     -1227.0241      215.08072     -1011.9434     -417.93999      15.154527      15.154527      15.154527      0              0              0            
    549000   300.19491     -1225.7301      222.21463     -1003.5155     -887.03541      15.05434       15.05434       15.05434       0              0              0            
    550000   301.93357     -1184.8593      223.50164     -961.35764      97.30248       14.996743      14.996743      14.996743      0              0              0            
    551000   320.36023     -1217.2881      237.1417      -980.14644     -1649.872       14.766525      14.766525      14.766525      0              0              0            
    552000   348.6953      -1186.9511      258.11629     -928.83481     -487.98281      15.060789      15.060789      15.060789      0              0              0            
    553000   294.07951     -1174.9724      217.6878      -957.28459     -1229.351       15.17005       15.17005       15.17005       0              0              0            
    554000   311.55304     -1178.8623      230.62231     -948.24003     -923.05467      15.225244      15.225244      15.225244      0              0              0            
    555000   305.46705     -1159.8924      226.11725     -933.7752       2444.5683      15.056065      15.056065      15.056065      0              0              0            
    556000   287.39003     -1198.2714      212.73601     -985.53539     -1367.4621      15.153079      15.153079      15.153079      0              0              0            
    557000   302.06657     -1197.9666      223.6001      -974.36654      459.7427       14.922342      14.922342      14.922342      0              0              0            
    558000   325.52471     -1196.5349      240.96462     -955.57032      1455.5464      14.932954      14.932954      14.932954      0              0              0            
    559000   304.5668      -1216.4786      225.45085     -991.02774     -168.99054      14.816287      14.816287      14.816287      0              0              0            
    560000   273.84926     -1172.3566      202.71267     -969.64393     -669.08038      15.102568      15.102568      15.102568      0              0              0            
    561000   298.5185      -1181.7261      220.97369     -960.75245     -403.73968      15.05142       15.05142       15.05142       0              0              0            
    562000   307.49319     -1194.0941      227.61706     -966.47702      136.43873      15.177957      15.177957      15.177957      0              0              0            
    563000   324.26398     -1193.6658      240.03139     -953.63437      761.58663      15.006032      15.006032      15.006032      0              0              0            
    564000   301.26322     -1197.3266      223.00543     -974.32119      2547.276       14.926999      14.926999      14.926999      0              0              0            
    565000   298.35702     -1233.3744      220.85416     -1012.5202     -1491.7132      15.151547      15.151547      15.151547      0              0              0            
    566000   301.81724     -1203.8889      223.41553     -980.47336     -131.69215      15.0049        15.0049        15.0049        0              0              0            
    567000   272.09272     -1185.4523      201.41242     -984.03985     -288.31336      15.006736      15.006736      15.006736      0              0              0            
    568000   300.45933     -1207.1275      222.41036     -984.71715     -606.9528       15.024977      15.024977      15.024977      0              0              0            
    569000   295.99904     -1200.2728      219.1087      -981.16411      2156.6186      14.83297       14.83297       14.83297       0              0              0            
    570000   289.88088     -1182.5443      214.57983     -967.96446     -1185.5625      15.12765       15.12765       15.12765       0              0              0            
    571000   317.99054     -1221.5077      235.38756     -986.12015      988.94653      15.10884       15.10884       15.10884       0              0              0            
    572000   267.33167     -1188.4305      197.88812     -990.54242     -1587.3181      15.137782      15.137782      15.137782      0              0              0            
    573000   294.82318     -1190.8655      218.23829     -972.62722      53.706414      15.132811      15.132811      15.132811      0              0              0            
    574000   296.81686     -1223.6045      219.71408     -1003.8904      697.97215      15.013183      15.013183      15.013183      0              0              0            
    575000   327.94422     -1204.2507      242.75563     -961.49504      134.77813      15.02174       15.02174       15.02174       0              0              0            
    576000   315.17694     -1188.2875      233.30484     -954.98268      72.089929      15.073706      15.073706      15.073706      0              0              0            
    577000   281.95732     -1190.2773      208.71453     -981.56281      374.42853      15.2684        15.2684        15.2684        0              0              0            
    578000   274.86206     -1179.6806      203.46238     -976.21824      1881.3694      14.72704       14.72704       14.72704       0              0              0            
    579000   295.03074     -1235.2626      218.39193     -1016.8707      639.24345      14.917582      14.917582      14.917582      0              0              0            
    580000   308.20587     -1208.1822      228.14461     -980.03759      1595.841       15.008136      15.008136      15.008136      0              0              0            
    581000   292.85252     -1195.1701      216.77954     -978.39056     -69.934748      14.85668       14.85668       14.85668       0              0              0            
    582000   318.56062     -1171.4889      235.80956     -935.67934      469.99622      15.078383      15.078383      15.078383      0              0              0            
    583000   285.85842     -1168.0075      211.60226     -956.40524      1935.6701      14.883198      14.883198      14.883198      0              0              0            
    584000   309.38912     -1205.6485      229.0205      -976.62801     -949.01836      15.05205       15.05205       15.05205       0              0              0            
    585000   299.83425     -1194.4996      221.94766     -972.55197     -734.77233      15.120632      15.120632      15.120632      0              0              0            
    586000   319.47314     -1222.122       236.48504     -985.63693      734.65873      14.819844      14.819844      14.819844      0              0              0            
    587000   322.03007     -1192.4104      238.37777     -954.03265      437.35537      15.043059      15.043059      15.043059      0              0              0            
    588000   323.6999      -1199.5096      239.61383     -959.89575      3415.1908      14.858726      14.858726      14.858726      0              0              0            
    589000   309.78928     -1200.81        229.31671     -971.49327      126.97943      14.948168      14.948168      14.948168      0              0              0            
    590000   319.50952     -1194.5075      236.51197     -957.99552      3339.4704      15.029355      15.029355      15.029355      0              0              0            
    591000   291.78204     -1205.6816      215.98713     -989.69451     -952.13275      15.020573      15.020573      15.020573      0              0              0            
    592000   294.20477     -1210.68        217.78052     -992.89949     -1204.5709      15.078595      15.078595      15.078595      0              0              0            
    593000   299.11794     -1203.9859      221.41742     -982.56847     -2248.8905      15.195407      15.195407      15.195407      0              0              0            
    594000   270.29681     -1218.6114      200.08302     -1018.5284      323.6503       14.942261      14.942261      14.942261      0              0              0            
    595000   321.79056     -1188.3865      238.20047     -950.18604      1796.3791      15.24437       15.24437       15.24437       0              0              0            
    596000   291.98536     -1174.9021      216.13764     -958.76442     -598.31623      15.218386      15.218386      15.218386      0              0              0            
    597000   294.94808     -1207.3748      218.33074     -989.04408     -1306.3833      15.297707      15.297707      15.297707      0              0              0            
    598000   296.83734     -1168.2924      219.72924     -948.56315      338.13308      15.220659      15.220659      15.220659      0              0              0            
    599000   294.53051     -1198.1531      218.02164     -980.13144     -1855.4785      15.010742      15.010742      15.010742      0              0              0            
    600000   309.74166     -1220.3979      229.28146     -991.11641      2974.3877      14.842864      14.842864      14.842864      0              0              0            
    601000   271.82168     -1199.1158      201.21178     -997.90399     -2509.8382      15.060489      15.060489      15.060489      0              0              0            
    602000   276.12042     -1203.1627      204.39386     -998.76886      162.29505      14.861288      14.861288      14.861288      0              0              0            
    603000   325.93496     -1208.4474      241.2683      -967.17914      733.13167      14.90484       14.90484       14.90484       0              0              0            
    604000   310.54118     -1200.278       229.87329     -970.40469     -892.02013      14.937572      14.937572      14.937572      0              0              0            
    605000   262.18529     -1197.7063      194.0786      -1003.6277      1629.0011      14.978174      14.978174      14.978174      0              0              0            
    606000   311.38149     -1192.3517      230.49532     -961.85638     -1057.8449      14.907237      14.907237      14.907237      0              0              0            
    607000   317.3298      -1212.0515      234.89847     -977.15308      661.01754      15.004933      15.004933      15.004933      0              0              0            
    608000   287.59603     -1182.59        212.88851     -969.7015      -1036.0092      15.100568      15.100568      15.100568      0              0              0            
    609000   299.82785     -1190.5785      221.94292     -968.6356       1130.3033      15.114245      15.114245      15.114245      0              0              0            
    610000   290.90098     -1217.1885      215.33494     -1001.8535     -1128.3295      15.229905      15.229905      15.229905      0              0              0            
    611000   305.3685      -1202.3024      226.0443      -976.25809     -1185.9953      15.100228      15.100228      15.100228      0              0              0            
    612000   304.99235     -1218.8344      225.76586     -993.06853     -1099.5487      14.965106      14.965106      14.965106      0              0              0            
    613000   275.90722     -1192.6581      204.23604     -988.42205     -251.57464      15.007136      15.007136      15.007136      0              0              0            
    614000   320.66426     -1195.7886      237.36674     -958.42184     -1151.571       15.230929      15.230929      15.230929      0              0              0            
    615000   306.64948     -1182.9595      226.99252     -955.96697      1740.9442      15.113702      15.113702      15.113702      0              0              0            
    616000   289.28122     -1222.1048      214.13594     -1007.9689      1356.5614      14.643902      14.643902      14.643902      0              0              0            
    617000   297.10505     -1200.4825      219.92741     -980.55514     -1113.3896      14.998861      14.998861      14.998861      0              0              0            
    618000   307.6197      -1201.95        227.71071     -974.23925      682.862        14.889734      14.889734      14.889734      0              0              0            
    619000   317.53247     -1188.8636      235.04848     -953.8151      -90.662338      14.859213      14.859213      14.859213      0              0              0            
    620000   300.37258     -1191.1746      222.34615     -968.82845      2293.4362      14.619267      14.619267      14.619267      0              0              0            
    621000   267.20614     -1185.0452      197.7952      -987.25002      1497.871       15.070185      15.070185      15.070185      0              0              0            
    622000   333.50868     -1178.078       246.87463     -931.20339     -1995.8343      15.216926      15.216926      15.216926      0              0              0            
    623000   308.92339     -1218.3505      228.67575     -989.67479     -1444.797       14.973101      14.973101      14.973101      0              0              0            
    624000   317.51024     -1214.0551      235.03203     -979.02311     -1315.606       14.883899      14.883899      14.883899      0              0              0            
    625000   304.75126     -1183.8086      225.5874      -958.22125      1162.3278      14.875645      14.875645      14.875645      0              0              0            
    626000   299.83056     -1205.0122      221.94492     -983.06724     -1129.3649      15.211542      15.211542      15.211542      0              0              0            
    627000   267.45638     -1203.0298      197.98044     -1005.0494     -252.81541      15.141779      15.141779      15.141779      0              0              0            
    628000   298.32692     -1230.3558      220.83187     -1009.5239      781.99736      14.781451      14.781451      14.781451      0              0              0            
    629000   302.23134     -1219.2261      223.72206     -995.50407     -235.5446       15.071471      15.071471      15.071471      0              0              0            
    630000   332.80637     -1214.4138      246.35476     -968.05907      311.48508      15.313569      15.313569      15.313569      0              0              0            
    631000   313.43098     -1203.6622      232.01243     -971.64973      147.51418      15.230074      15.230074      15.230074      0              0              0            
    632000   298.57915     -1226.157       221.01858     -1005.1385      1803.3535      14.916301      14.916301      14.916301      0              0              0            
    633000   299.26929     -1224.5509      221.52945     -1003.0215     -1182.9164      14.833368      14.833368      14.833368      0              0              0            
    634000   339.83958     -1204.8353      251.56098     -953.2743       375.73361      15.011006      15.011006      15.011006      0              0              0            
    635000   313.30552     -1210.0355      231.91955     -978.11593      1112.1878      14.991298      14.991298      14.991298      0              0              0            
    636000   309.44039     -1194.2254      229.05845     -965.16693     -1656.3503      15.249141      15.249141      15.249141      0              0              0            
    637000   306.78709     -1201.0249      227.09439     -973.9305       2458.44        14.774014      14.774014      14.774014      0              0              0            
    638000   282.16261     -1204.6834      208.8665      -995.81692     -436.14581      15.04535       15.04535       15.04535       0              0              0            
    639000   281.5893      -1210.9451      208.44211     -1002.503      -266.44016      15.131091      15.131091      15.131091      0              0              0            
    640000   297.60572     -1216.9281      220.29802     -996.63012      2638.4152      14.782599      14.782599      14.782599      0              0              0            
    641000   320.22902     -1201.958       237.04457     -964.91345      945.28347      14.860131      14.860131      14.860131      0              0              0            
    642000   303.43249     -1223.8694      224.6112      -999.25821      1166.724       14.913138      14.913138      14.913138      0              0              0            
    643000   328.88622     -1215.6976      243.45293     -972.24471      1050.7499      14.739305      14.739305      14.739305      0              0              0            
    644000   297.24756     -1187.2944      220.0329      -967.26151     -780.32431      14.985873      14.985873      14.985873      0              0              0            
    645000   295.58734     -1214.8877      218.80394     -996.08378      71.735914      15.143421      15.143421      15.143421      0              0              0            
    646000   299.22279     -1197.5286      221.49503     -976.03357     -23.099358      15.121635      15.121635      15.121635      0              0              0            
    647000   325.05447     -1203.2188      240.61653     -962.60223     -1354.0039      15.03886       15.03886       15.03886       0              0              0            
    648000   300.63917     -1193.7279      222.54349     -971.18443     -538.65925      15.031589      15.031589      15.031589      0              0              0            
    649000   302.4838      -1203.326       223.90894     -979.41702     -884.65968      14.86892       14.86892       14.86892       0              0              0            
    650000   315.91686     -1188.9605      233.85256     -955.10793     -843.11269      15.050776      15.050776      15.050776      0              0              0            
    651000   301.24782     -1208.0549      222.99403     -985.06086     -1918.5913      15.02754       15.02754       15.02754       0              0              0            
    652000   295.96419     -1179.4954      219.0829      -960.41254     -121.28421      15.090704      15.090704      15.090704      0              0              0            
    653000   310.3577      -1186.1422      229.73747     -956.40471     -20.457211      15.018002      15.018002      15.018002      0              0              0            
    654000   293.04373     -1195.5372      216.92108     -978.61616     -571.01172      14.97615       14.97615       14.97615       0              0              0            
    655000   322.45586     -1205.596       238.69295     -966.90303      1491.1764      14.972028      14.972028      14.972028      0              0              0            
    656000   305.58195     -1194.2867      226.2023      -968.08443     -1005.8617      14.944863      14.944863      14.944863      0              0              0            
    657000   294.29926     -1185.929       217.85047     -968.07858     -139.39175      15.191639      15.191639      15.191639      0              0              0            
    658000   307.29663     -1220.3799      227.47157     -992.90836     -1873.3846      15.24477       15.24477       15.24477       0              0              0            
    659000   301.30146     -1198.9374      223.03373     -975.9037       588.53743      15.005699      15.005699      15.005699      0              0              0            
    660000   311.99373     -1210.2868      230.94852     -979.3383      -503.08747      15.074979      15.074979      15.074979      0              0              0            
    661000   299.42623     -1198.2066      221.64562     -976.56097     -269.97426      15.278919      15.278919      15.278919      0              0              0            
    662000   285.53384     -1166.4761      211.362       -955.11414      311.43032      14.912685      14.912685      14.912685      0              0              0            
    663000   309.27498     -1186.741       228.93601     -957.80502     -1074.157       15.065658      15.065658      15.065658      0              0              0            
    664000   283.48675     -1195.8305      209.84667     -985.98386      1094.4339      14.944835      14.944835      14.944835      0              0              0            
    665000   288.17468     -1226.942       213.31684     -1013.6251     -456.87728      14.799218      14.799218      14.799218      0              0              0            
    666000   314.27214     -1204.5141      232.63508     -971.87901     -575.41438      14.973752      14.973752      14.973752      0              0              0            
    667000   288.05697     -1196.5104      213.22971     -983.28073     -1214.0519      14.913178      14.913178      14.913178      0              0              0            
    668000   294.82695     -1208.4561      218.24108     -990.21505     -1822.4186      15.083498      15.083498      15.083498      0              0              0            
    669000   295.36588     -1206.7804      218.64001     -988.14035      695.63231      14.786345      14.786345      14.786345      0              0              0            
    670000   292.75189     -1163.9719      216.70505     -947.26684      2430.1828      14.926192      14.926192      14.926192      0              0              0            
    671000   296.0614      -1215.1465      219.15486     -995.9916      -1153.4739      14.995049      14.995049      14.995049      0              0              0            
    672000   278.58765     -1181.4182      206.22019     -975.19802      656.97264      15.130224      15.130224      15.130224      0              0              0            
    673000   318.58831     -1162.6489      235.83006     -926.81887      942.36428      15.153896      15.153896      15.153896      0              0              0            
    674000   301.97091     -1187.9782      223.52929     -964.44889     -1738.6715      15.272808      15.272808      15.272808      0              0              0            
    675000   275.89552     -1185.441       204.22738     -981.21366      220.71169      15.233323      15.233323      15.233323      0              0              0            
    676000   306.11521     -1245.0295      226.59704     -1018.4324     -2492.0601      15.014875      15.014875      15.014875      0              0              0            
    677000   308.99326     -1199.9709      228.72747     -971.24347      2385.3291      14.840539      14.840539      14.840539      0              0              0            
    678000   309.80079     -1224.5969      229.32523     -995.27166     -994.76458      14.939176      14.939176      14.939176      0              0              0            
    679000   309.97099     -1210.7802      229.45122     -981.32899      472.6325       15.090704      15.090704      15.090704      0              0              0            
    680000   314.67446     -1200.9151      232.93289     -967.98219     -2080.5874      15.185188      15.185188      15.185188      0              0              0            
    681000   292.13153     -1203.0531      216.24584     -986.80723      772.56929      14.99443       14.99443       14.99443       0              0              0            
    682000   299.31175     -1174.853       221.56088     -953.29212     -461.01345      15.183926      15.183926      15.183926      0              0              0            
    683000   294.66763     -1189.6493      218.12315     -971.52614      1183.1222      14.816834      14.816834      14.816834      0              0              0            
    684000   289.75605     -1206.3966      214.48742     -991.90913      355.92293      14.811492      14.811492      14.811492      0              0              0            
    685000   308.34344     -1187.8582      228.24645     -959.61172     -521.27468      15.031577      15.031577      15.031577      0              0              0            
    686000   317.72429     -1197.9709      235.19048     -962.78043     -414.88577      15.140389      15.140389      15.140389      0              0              0            
    687000   311.98197     -1200.7542      230.93982     -969.81435      1754.1527      15.076846      15.076846      15.076846      0              0              0            
    688000   297.3915      -1216.4579      220.13944     -996.31847      1609.1547      15.129212      15.129212      15.129212      0              0              0            
    689000   267.75024     -1223.48        198.19797     -1025.282       739.88687      14.972855      14.972855      14.972855      0              0              0            
    690000   279.31483     -1200.9832      206.75847     -994.22472      1319.698       14.907517      14.907517      14.907517      0              0              0            
    691000   314.36337     -1202.1943      232.70261     -969.49164      350.34206      14.913936      14.913936      14.913936      0              0              0            
    692000   283.81469     -1201.0346      210.08943     -990.94516     -343.52402      15.144256      15.144256      15.144256      0              0              0            
    693000   276.32163     -1205.1102      204.54281     -1000.5674     -1105.3479      15.288612      15.288612      15.288612      0              0              0            
    694000   278.50792     -1204.4986      206.16117     -998.33746     -258.75869      15.062092      15.062092      15.062092      0              0              0            
    695000   328.04954     -1195.8212      242.83358     -952.98761      263.74474      15.123325      15.123325      15.123325      0              0              0            
    696000   292.09634     -1184.079       216.21979     -967.85921     -292.51969      15.023335      15.023335      15.023335      0              0              0            
    697000   280.74323     -1190.3727      207.81582     -982.55686     -398.59268      14.905014      14.905014      14.905014      0              0              0            
    698000   302.07303     -1215.9134      223.60488     -992.30853      744.71255      15.021661      15.021661      15.021661      0              0              0            
    699000   291.70605     -1193.4347      215.93088     -977.5038       736.23935      14.873376      14.873376      14.873376      0              0              0            
    700000   288.83091     -1200.2431      213.8026      -986.44053      155.11756      15.154177      15.154177      15.154177      0              0              0            
    701000   309.76449     -1205.4295      229.29836     -976.13113      1807.4185      14.816105      14.816105      14.816105      0              0              0            
    702000   313.05916     -1206.3184      231.73719     -974.58121      709.60821      14.834751      14.834751      14.834751      0              0              0            
    703000   301.76088     -1211.3939      223.37381     -988.02011      122.31019      14.98333       14.98333       14.98333       0              0              0            
    704000   302.25147     -1246.0767      223.73696     -1022.3398     -412.24834      14.797726      14.797726      14.797726      0              0              0            
    705000   290.1474      -1194.1108      214.77712     -979.33368     -212.26428      15.036882      15.036882      15.036882      0              0              0            
    706000   301.46374     -1194.3787      223.15386     -971.22488      456.08972      15.056064      15.056064      15.056064      0              0              0            
    707000   299.1013      -1224.1191      221.4051      -1002.714      -105.0863       14.890798      14.890798      14.890798      0              0              0            
    708000   319.89607     -1178.5429      236.79811     -941.74476     -1567.2962      15.274296      15.274296      15.274296      0              0              0            
    709000   294.88651     -1205.2909      218.28517     -987.00574     -94.819861      14.958448      14.958448      14.958448      0              0              0            
    710000   310.03374     -1199.2125      229.49767     -969.71486      70.226558      15.034737      15.034737      15.034737      0              0              0            
    711000   303.83151     -1218.9877      224.90656     -994.08112     -507.09751      14.889231      14.889231      14.889231      0              0              0            
    712000   294.52934     -1216.5794      218.02078     -998.55859      658.994        14.96789       14.96789       14.96789       0              0              0            
    713000   310.83738     -1209.2763      230.09255     -979.1837      -1493.7119      15.052999      15.052999      15.052999      0              0              0            
    714000   310.42897     -1211.9942      229.79023     -982.20402      1970.0057      14.988498      14.988498      14.988498      0              0              0            
    715000   310.82055     -1211.5108      230.08009     -981.43071     -518.72555      14.977918      14.977918      14.977918      0              0              0            
    716000   268.85004     -1169.8358      199.01207     -970.82378     -938.9582       15.143781      15.143781      15.143781      0              0              0            
    717000   285.89435     -1189.1048      211.62886     -977.47597     -1409.3682      15.069313      15.069313      15.069313      0              0              0            
    718000   289.75054     -1183.9276      214.48335     -969.44422     -136.31562      14.988917      14.988917      14.988917      0              0              0            
    719000   320.59557     -1223.4262      237.3159      -986.11032      462.32881      14.878098      14.878098      14.878098      0              0              0            
    720000   305.3151      -1199.2281      226.00477     -973.2233       145.72782      14.893824      14.893824      14.893824      0              0              0            
    721000   321.56933     -1195.6911      238.03671     -957.65442     -2255.784       15.02878       15.02878       15.02878       0              0              0            
    722000   276.11616     -1188.7376      204.39071     -984.34684      186.29675      15.14307       15.14307       15.14307       0              0              0            
    723000   298.09872     -1235.087       220.66296     -1014.424       246.50413      14.932207      14.932207      14.932207      0              0              0            
    724000   281.22575     -1223.302       208.173       -1015.129       1261.5634      14.731725      14.731725      14.731725      0              0              0            
    725000   296.32624     -1209.2543      219.3509      -989.90343     -413.09309      14.946765      14.946765      14.946765      0              0              0            
    726000   327.45992     -1230.9439      242.39713     -988.54676      1986.5254      14.807429      14.807429      14.807429      0              0              0            
    727000   290.52527     -1224.8785      215.05683     -1009.8217      2171.3433      14.889009      14.889009      14.889009      0              0              0            
    728000   304.94301     -1211.4842      225.72934     -985.75484     -1342.4696      15.069035      15.069035      15.069035      0              0              0            
    729000   281.87972     -1213.8452      208.65709     -1005.1881      1374.4379      14.935579      14.935579      14.935579      0              0              0            
    730000   279.36688     -1195.8933      206.797       -989.0963      -1183.3591      15.213847      15.213847      15.213847      0              0              0            
    731000   292.31577     -1205.3182      216.38221     -988.936        7.5313957      14.943679      14.943679      14.943679      0              0              0            
    732000   293.14429     -1196.5132      216.99552     -979.51765     -857.00318      14.866607      14.866607      14.866607      0              0              0            
    733000   284.01993     -1204.12        210.24135     -993.87865     -500.41357      15.024421      15.024421      15.024421      0              0              0            
    734000   293.19876     -1196.1943      217.03584     -979.15848     -261.97998      15.020356      15.020356      15.020356      0              0              0            
    735000   328.54166     -1199.6103      243.19787     -956.41243      1476.8795      15.050062      15.050062      15.050062      0              0              0            
    736000   298.83546     -1202.9243      221.20831     -981.71598      1127.3453      14.915291      14.915291      14.915291      0              0              0            
    737000   299.27633     -1217.09        221.53467     -995.55531      207.676        14.933413      14.933413      14.933413      0              0              0            
    738000   309.61088     -1221.989       229.18465     -992.80433      804.10991      15.027189      15.027189      15.027189      0              0              0            
    739000   287.60511     -1222.2786      212.89522     -1009.3834      391.97139      14.84861       14.84861       14.84861       0              0              0            
    740000   303.52749     -1197.9563      224.68152     -973.27474      873.50366      14.938896      14.938896      14.938896      0              0              0            
    741000   330.26771     -1189.7047      244.47555     -945.22914     -1092.7469      14.950521      14.950521      14.950521      0              0              0            
    742000   297.87632     -1235.7665      220.49833     -1015.2682     -2048.479       14.836823      14.836823      14.836823      0              0              0            
    743000   314.03726     -1233.1611      232.46122     -1000.6999      636.54996      14.766804      14.766804      14.766804      0              0              0            
    744000   309.17902     -1207.9446      228.86497     -979.07962     -855.926        15.102373      15.102373      15.102373      0              0              0            
    745000   277.51631     -1178.4274      205.42715     -973.00024     -2087.0956      14.962673      14.962673      14.962673      0              0              0            
    746000   276.42378     -1187.741       204.61842     -983.12256     -1600.9902      15.062069      15.062069      15.062069      0              0              0            
    747000   340.28628     -1198.856       251.89164     -946.96434     -3273.1477      15.143487      15.143487      15.143487      0              0              0            
    748000   308.00381     -1200.6774      227.99504     -972.68236     -396.92926      14.948964      14.948964      14.948964      0              0              0            
    749000   294.81763     -1206.9055      218.23418     -988.67134      2968.4637      14.905389      14.905389      14.905389      0              0              0            
    750000   277.40849     -1241.8004      205.34734     -1036.4531     -79.489194      14.83244       14.83244       14.83244       0              0              0            
    751000   266.90368     -1209.9442      197.57131     -1012.3729      424.27861      15.082469      15.082469      15.082469      0              0              0            
    752000   289.14656     -1220.9211      214.03626     -1006.8848     -1740.6261      14.904685      14.904685      14.904685      0              0              0            
    753000   280.01488     -1210.7711      207.27668     -1003.4944     -260.10541      14.929274      14.929274      14.929274      0              0              0            
    754000   310.22842     -1213.0973      229.64178     -983.45557     -340.83974      14.718848      14.718848      14.718848      0              0              0            
    755000   311.70556     -1195.0919      230.7352      -964.3567       408.67101      15.029672      15.029672      15.029672      0              0              0            
    756000   310.56732     -1220.3653      229.89265     -990.47268     -1217.8143      15.168401      15.168401      15.168401      0              0              0            
    757000   283.96786     -1209.999       210.20281     -999.79619      462.63362      15.304067      15.304067      15.304067      0              0              0            
    758000   305.1906      -1213.797       225.91261     -987.88443      1834.6523      15.003755      15.003755      15.003755      0              0              0            
    759000   291.24809     -1229.6707      215.59188     -1014.0788     -1917.8687      15.315061      15.315061      15.315061      0              0              0            
    760000   301.47944     -1202.6323      223.16548     -979.4668       215.73809      15.031722      15.031722      15.031722      0              0              0            
    761000   326.4523      -1176.6816      241.65125     -935.03038     -230.31631      15.218761      15.218761      15.218761      0              0              0            
    762000   322.22261     -1228.8591      238.52029     -990.33878     -291.23241      15.138615      15.138615      15.138615      0              0              0            
    763000   294.57641     -1206.5104      218.05562     -988.45476     -724.4779       15.16231       15.16231       15.16231       0              0              0            
    764000   282.41418     -1203.5839      209.05272     -994.53113     -796.39978      14.986733      14.986733      14.986733      0              0              0            
    765000   294.84901     -1172.3164      218.25741     -954.059       -501.96028      15.334101      15.334101      15.334101      0              0              0            
    766000   321.38969     -1201.3697      237.90374     -963.466        1425.7032      14.780353      14.780353      14.780353      0              0              0            
    767000   301.09716     -1175.5391      222.8825      -952.65657      1406.2149      14.959436      14.959436      14.959436      0              0              0            
    768000   297.2341      -1181.8884      220.02293     -961.86549      3814.4321      14.839846      14.839846      14.839846      0              0              0            
    769000   293.93348     -1228.6685      217.5797      -1011.0888     -68.586368      14.848555      14.848555      14.848555      0              0              0            
    770000   290.69505     -1205.1913      215.1825      -990.0088      -1595.248       15.106701      15.106701      15.106701      0              0              0            
    771000   299.86442     -1237.5783      221.96999     -1015.6083      1481.0556      14.808516      14.808516      14.808516      0              0              0            
    772000   335.43574     -1217.9231      248.30111     -969.62197      1079.1394      14.86307       14.86307       14.86307       0              0              0            
    773000   292.35404     -1197.3216      216.41054     -980.91109      376.38516      14.918539      14.918539      14.918539      0              0              0            
    774000   310.94054     -1203.6824      230.16891     -973.51345      788.69901      14.969912      14.969912      14.969912      0              0              0            
    775000   315.8681      -1186.4729      233.81646     -952.65644     -1477.8471      15.060641      15.060641      15.060641      0              0              0            
    776000   294.31715     -1196.48        217.86371     -978.61632     -298.17419      15.006133      15.006133      15.006133      0              0              0            
    777000   301.7294      -1204.6477      223.35051     -981.29722     -241.45222      15.070339      15.070339      15.070339      0              0              0            
    778000   316.25165     -1227.7385      234.10038     -993.6381       718.67398      14.726832      14.726832      14.726832      0              0              0            
    779000   300.28955     -1202.641       222.28469     -980.35629      313.90674      15.016754      15.016754      15.016754      0              0              0            
    780000   293.038       -1211.959       216.91684     -995.04215     -1002.6342      15.112028      15.112028      15.112028      0              0              0            
    781000   281.97453     -1213.3734      208.72728     -1004.6461      1815.0942      14.913962      14.913962      14.913962      0              0              0            
    782000   301.41525     -1236.5674      223.11796     -1013.4495      487.66582      15.077767      15.077767      15.077767      0              0              0            
    783000   295.96615     -1197.8781      219.08435     -978.79374      778.80716      14.877452      14.877452      14.877452      0              0              0            
    784000   303.58999     -1202.7633      224.72779     -978.03553      1523.5565      14.765242      14.765242      14.765242      0              0              0            
    785000   306.8813      -1212.7621      227.16412     -985.59795      823.6288       15.120608      15.120608      15.120608      0              0              0            
    786000   299.19266     -1210.3693      221.47273     -988.89653     -2622.8257      14.921349      14.921349      14.921349      0              0              0            
    787000   293.42196     -1222.161       217.20106     -1004.96       -418.34412      14.961356      14.961356      14.961356      0              0              0            
    788000   294.21653     -1220.8863      217.78922     -1003.0971      1381.0465      14.904811      14.904811      14.904811      0              0              0            
    789000   304.43072     -1212.6         225.35012     -987.24989      809.37969      15.040317      15.040317      15.040317      0              0              0            
    790000   321.97303     -1224.4089      238.33554     -986.07332      514.31266      14.842268      14.842268      14.842268      0              0              0            
    791000   322.63804     -1197.249       238.82781     -958.42121      867.81911      14.787057      14.787057      14.787057      0              0              0            
    792000   299.77281     -1208.7163      221.90217     -986.81411     -217.29547      15.018206      15.018206      15.018206      0              0              0            
    793000   314.54265     -1179.8072      232.83532     -946.97192     -104.74345      15.080357      15.080357      15.080357      0              0              0            
    794000   292.2509      -1174.148       216.33419     -957.81376     -636.80458      15.026807      15.026807      15.026807      0              0              0            
    795000   284.8707      -1217.3147      210.87112     -1006.4436      859.08408      14.784661      14.784661      14.784661      0              0              0            
    796000   292.56525     -1203.9342      216.56689     -987.36731      262.64814      15.070486      15.070486      15.070486      0              0              0            
    797000   290.70602     -1192.0007      215.19062     -976.81006      295.60538      15.087745      15.087745      15.087745      0              0              0            
    798000   315.14041     -1176.8435      233.2778      -943.56568     -1859.0425      14.952883      14.952883      14.952883      0              0              0            
    799000   276.60977     -1182.791       204.75609     -978.03495     -1181.2732      15.142277      15.142277      15.142277      0              0              0            
    800000   296.60041     -1193.0792      219.55386     -973.52535      533.84171      15.164075      15.164075      15.164075      0              0              0            
    801000   282.37617     -1214.972       209.02459     -1005.9474     -878.39323      15.171996      15.171996      15.171996      0              0              0            
    802000   299.43767     -1233.0992      221.65409     -1011.4451      1198.6391      14.981932      14.981932      14.981932      0              0              0            
    803000   292.907       -1211.0526      216.81986     -994.23275      1392.248       14.648612      14.648612      14.648612      0              0              0            
    804000   312.36433     -1189.7482      231.22286     -958.52531     -1338.8961      15.434878      15.434878      15.434878      0              0              0            
    805000   290.31967     -1240.7149      214.90463     -1025.8102     -92.12645       15.149181      15.149181      15.149181      0              0              0            
    806000   310.70556     -1211.3842      229.99498     -981.3892      -2570.6172      14.946216      14.946216      14.946216      0              0              0            
    807000   291.10226     -1219.9038      215.48393     -1004.4199     -44.730346      14.939356      14.939356      14.939356      0              0              0            
    808000   310.00829     -1179.1634      229.47883     -949.68457      2361.5709      14.937346      14.937346      14.937346      0              0              0            
    809000   295.83696     -1210.0644      218.98872     -991.07563     -74.772158      14.931375      14.931375      14.931375      0              0              0            
    810000   276.72061     -1215.8041      204.83814     -1010.9659     -207.95037      14.809862      14.809862      14.809862      0              0              0            
    811000   298.72019     -1226.6085      221.12299     -1005.4855     -1042.8248      14.911685      14.911685      14.911685      0              0              0            
    812000   282.44648     -1181.411       209.07663     -972.33441     -1857.1387      15.070761      15.070761      15.070761      0              0              0            
    813000   311.24313     -1179.1179      230.3929      -948.72497     -1394.6562      15.249756      15.249756      15.249756      0              0              0            
    814000   269.59272     -1218.2001      199.56183     -1018.6383     -335.31967      14.808469      14.808469      14.808469      0              0              0            
    815000   281.63826     -1177.3312      208.47835     -968.85289     -2366.9009      15.270909      15.270909      15.270909      0              0              0            
    816000   294.11694     -1199.4548      217.71551     -981.73929     -654.0054       15.270415      15.270415      15.270415      0              0              0            
    817000   316.19795     -1178.6296      234.06063     -944.56893      941.05688      14.999839      14.999839      14.999839      0              0              0            
    818000   281.8445      -1213.1138      208.63102     -1004.4828     -1402.6483      14.922047      14.922047      14.922047      0              0              0            
    819000   313.63699     -1222.6298      232.16492     -990.46486      1010.3189      14.757557      14.757557      14.757557      0              0              0            
    820000   304.64908     -1192.754       225.51176     -967.24226      130.8963       14.967884      14.967884      14.967884      0              0              0            
    821000   299.55495     -1194.5744      221.7409      -972.83348      1535.6507      14.75751       14.75751       14.75751       0              0              0            
    822000   325.64899     -1239.1962      241.05662     -998.13955     -318.33407      15.152981      15.152981      15.152981      0              0              0            
    823000   282.67967     -1203.3047      209.24924     -994.05544     -1758.0385      15.103482      15.103482      15.103482      0              0              0            
    824000   295.52339     -1195.2361      218.75661     -976.4795      -1200.7551      14.946838      14.946838      14.946838      0              0              0            
    825000   263.43483     -1198.3378      195.00355     -1003.3343     -107.95681      14.970283      14.970283      14.970283      0              0              0            
    826000   290.07472     -1198.3804      214.72331     -983.65709      778.40615      14.884654      14.884654      14.884654      0              0              0            
    827000   291.14432     -1211.1406      215.51507     -995.62557     -1987.5908      15.005988      15.005988      15.005988      0              0              0            
    828000   297.15555     -1221.587       219.96479     -1001.6222     -1016.7137      14.921704      14.921704      14.921704      0              0              0            
    829000   288.08677     -1230.3259      213.25176     -1017.0742     -1239.8567      14.964241      14.964241      14.964241      0              0              0            
    830000   287.53026     -1209.3529      212.83981     -996.51311     -1155.87        15.24533       15.24533       15.24533       0              0              0            
    831000   292.78874     -1215.5376      216.73233     -998.80524      1124.3873      14.831556      14.831556      14.831556      0              0              0            
    832000   321.18355     -1189.2881      237.75115     -951.53696      960.95862      14.805198      14.805198      14.805198      0              0              0            
    833000   339.51319     -1223.6788      251.31937     -972.35942     -698.45249      15.132942      15.132942      15.132942      0              0              0            
    834000   317.56377     -1203.9766      235.07166     -968.90494      828.7321       15.043805      15.043805      15.043805      0              0              0            
    835000   302.42501     -1197.5608      223.86542     -973.69541     -1638.6338      15.192416      15.192416      15.192416      0              0              0            
    836000   291.203       -1212.2859      215.5585      -996.72742     -1155.2103      15.214084      15.214084      15.214084      0              0              0            
    837000   311.4453      -1198.1624      230.54255     -967.61986     -479.91022      15.362648      15.362648      15.362648      0              0              0            
    838000   328.42918     -1221.9341      243.11461     -978.81948      1472.5377      14.899114      14.899114      14.899114      0              0              0            
    839000   296.54744     -1184.3079      219.51464     -964.79324      2002.0734      14.91262       14.91262       14.91262       0              0              0            
    840000   272.39598     -1207.3311      201.6369      -1005.6942      39.871992      14.91751       14.91751       14.91751       0              0              0            
    841000   310.21508     -1172.8845      229.63191     -943.25258     -1900.6149      15.155701      15.155701      15.155701      0              0              0            
    842000   274.16732     -1197.453       202.94811     -994.50493      621.79014      14.984455      14.984455      14.984455      0              0              0            
    843000   287.04326     -1232.8508      212.47933     -1020.3715     -216.18941      15.02939       15.02939       15.02939       0              0              0            
    844000   310.35289     -1224.0724      229.73392     -994.33846      645.88249      14.920508      14.920508      14.920508      0              0              0            
    845000   297.02819     -1192.5211      219.87052     -972.65058     -1357.7822      15.148207      15.148207      15.148207      0              0              0            
    846000   299.20485     -1175.9081      221.48175     -954.42637     -560.58744      15.136846      15.136846      15.136846      0              0              0            
    847000   312.76318     -1185.5739      231.51809     -954.05576     -1138.7037      15.314595      15.314595      15.314595      0              0              0            
    848000   304.78302     -1217.3355      225.6109      -991.72465      378.89259      14.836933      14.836933      14.836933      0              0              0            
    849000   301.55611     -1185.4188      223.22223     -962.19655      284.26992      14.877339      14.877339      14.877339      0              0              0            
    850000   321.75541     -1189.1548      238.17445     -950.9803       1230.42        14.85134       14.85134       14.85134       0              0              0            
    851000   309.91671     -1195.1611      229.41104     -965.75004      1803.4097      15.101117      15.101117      15.101117      0              0              0            
    852000   272.14446     -1171.0349      201.45071     -969.58419      922.7119       15.123494      15.123494      15.123494      0              0              0            
    853000   276.33617     -1203.5045      204.55357     -998.95091      73.535564      14.944785      14.944785      14.944785      0              0              0            
    854000   319.37056     -1233.6103      236.40911     -997.20121     -4.8742363      14.900956      14.900956      14.900956      0              0              0            
    855000   326.52546     -1198.4862      241.70541     -956.78078      964.01739      14.979976      14.979976      14.979976      0              0              0            
    856000   288.48959     -1177.5607      213.54995     -964.01079     -1608.6748      15.250391      15.250391      15.250391      0              0              0            
    857000   304.51676     -1187.1921      225.41381     -961.77831     -685.77463      15.027212      15.027212      15.027212      0              0              0            
    858000   296.48116     -1202.6447      219.46558     -983.17909     -266.64385      15.151215      15.151215      15.151215      0              0              0            
    859000   311.82852     -1209.7096      230.82623     -978.88336      650.92003      14.917367      14.917367      14.917367      0              0              0            
    860000   314.60779     -1181.3837      232.88354     -948.50014     -1619.9887      15.106784      15.106784      15.106784      0              0              0            
    861000   288.7273      -1197.7594      213.72591     -984.03346     -405.19783      14.900545      14.900545      14.900545      0              0              0            
    862000   280.96071     -1185.6519      207.97681     -977.6751       470.4848       15.080931      15.080931      15.080931      0              0              0            
    863000   310.17951     -1191.9547      229.60558     -962.34916     -644.95058      15.162118      15.162118      15.162118      0              0              0            
    864000   317.89309     -1226.0811      235.31543     -990.76567      164.49284      14.894246      14.894246      14.894246      0              0              0            
    865000   299.05616     -1159.9292      221.37169     -938.55747      1564.5106      15.292755      15.292755      15.292755      0              0              0            
    866000   322.23203     -1154.17        238.52727     -915.64272      176.68124      15.20589       15.20589       15.20589       0              0              0            
    867000   289.6816      -1198.4317      214.43231     -983.99935     -1379.6701      15.279556      15.279556      15.279556      0              0              0            
    868000   298.68749     -1199.4272      221.09878     -978.32838     -763.86524      14.991187      14.991187      14.991187      0              0              0            
    869000   314.10351     -1169.0218      232.51025     -936.51156      874.41185      15.373071      15.373071      15.373071      0              0              0            
    870000   304.8434      -1177.715       225.6556      -952.05943      372.91662      15.097892      15.097892      15.097892      0              0              0            
    871000   287.07912     -1202.0068      212.50586     -989.50096      128.65195      14.896226      14.896226      14.896226      0              0              0            
    872000   302.66791     -1184.6484      224.04523     -960.60318     -1370.6394      15.125034      15.125034      15.125034      0              0              0            
    873000   293.40517     -1206.2873      217.18863     -989.09867      2572.8211      14.753921      14.753921      14.753921      0              0              0            
    874000   294.05668     -1193.198       217.6709      -975.52707     -455.09282      15.044098      15.044098      15.044098      0              0              0            
    875000   295.52493     -1171.0434      218.75775     -952.28564     -1981.6668      15.161142      15.161142      15.161142      0              0              0            
    876000   305.67997     -1217.5155      226.27486     -991.24065     -55.268544      15.04259       15.04259       15.04259       0              0              0            
    877000   295.09087     -1206.6884      218.43644     -988.25199     -722.87869      15.135009      15.135009      15.135009      0              0              0            
    878000   293.86021     -1189.1321      217.52546     -971.60665      558.09455      14.916511      14.916511      14.916511      0              0              0            
    879000   307.38225     -1197.4212      227.53495     -969.88623      82.428782      14.756804      14.756804      14.756804      0              0              0            
    880000   294.28556     -1197.1124      217.84032     -979.27207      292.14565      14.827025      14.827025      14.827025      0              0              0            
    881000   255.90983     -1192.3161      189.43329     -1002.8828     -1154.8745      15.016161      15.016161      15.016161      0              0              0            
    882000   302.92334     -1225.6026      224.2343      -1001.3683      604.04728      15.024594      15.024594      15.024594      0              0              0            
    883000   328.86322     -1189.1242      243.4359      -945.68833      719.17014      14.928436      14.928436      14.928436      0              0              0            
    884000   287.47435     -1205.9836      212.79843     -993.1852       768.86017      14.86659       14.86659       14.86659       0              0              0            
    885000   292.30722     -1203.1769      216.37589     -986.80098      1041.8852      14.952852      14.952852      14.952852      0              0              0            
    886000   314.61236     -1222.3427      232.88692     -989.45577     -231.50386      14.893715      14.893715      14.893715      0              0              0            
    887000   308.08158     -1218.2672      228.05261     -990.21456     -772.84493      14.946163      14.946163      14.946163      0              0              0            
    888000   293.04555     -1236.871       216.92243     -1019.9486     -2734.611       15.021905      15.021905      15.021905      0              0              0            
    889000   276.08219     -1216.5623      204.36556     -1012.1967     -1015.6071      15.076977      15.076977      15.076977      0              0              0            
    890000   280.38406     -1206.7232      207.54995     -999.17323     -1841.6937      14.882585      14.882585      14.882585      0              0              0            
    891000   315.13176     -1188.6441      233.2714      -955.37274     -485.70718      15.016962      15.016962      15.016962      0              0              0            
    892000   283.04244     -1204.2149      209.51778     -994.6971      -1007.0235      15.070288      15.070288      15.070288      0              0              0            
    893000   304.57856     -1184.118       225.45955     -958.65845     -1530.5768      14.831057      14.831057      14.831057      0              0              0            
    894000   298.6897      -1196.0168      221.10042     -974.91637      2801.2442      14.902589      14.902589      14.902589      0              0              0            
    895000   280.06293     -1179.7589      207.31224     -972.44665      890.97254      14.982109      14.982109      14.982109      0              0              0            
    896000   296.87611     -1218.4203      219.75794     -998.66236     -1978.6764      14.995715      14.995715      14.995715      0              0              0            
    897000   300.68462     -1200.0339      222.57713     -977.45673     -44.601255      15.13452       15.13452       15.13452       0              0              0            
    898000   291.92278     -1257.4545      216.09131     -1041.3632      881.87124      14.723907      14.723907      14.723907      0              0              0            
    899000   291.20196     -1236.0431      215.55774     -1020.4854     -1069.8064      14.869883      14.869883      14.869883      0              0              0            
    900000   282.80485     -1185.0502      209.3419      -975.70829     -1371.7005      14.905017      14.905017      14.905017      0              0              0            
    901000   291.56695     -1200.6512      215.82791     -984.82324     -462.8487       14.899629      14.899629      14.899629      0              0              0            
    902000   282.75555     -1176.4535      209.30541     -967.1481      -1644.8185      15.203642      15.203642      15.203642      0              0              0            
    903000   285.5013      -1218.3784      211.33791     -1007.0405      602.39732      14.866717      14.866717      14.866717      0              0              0            
    904000   292.68671     -1227.9823      216.6568      -1011.3255     -510.68207      14.907266      14.907266      14.907266      0              0              0            
    905000   318.15894     -1192.9764      235.51223     -957.46419     -1654.0796      15.121796      15.121796      15.121796      0              0              0            
    906000   325.76658     -1195.4948      241.14366     -954.35117      2972.5266      15.029161      15.029161      15.029161      0              0              0            
    907000   302.87549     -1200.6957      224.19889     -976.49678      540.05555      15.11567       15.11567       15.11567       0              0              0            
    908000   300.11783     -1208.5039      222.15757     -986.34637     -2044.5551      15.217909      15.217909      15.217909      0              0              0            
    909000   306.6535      -1189.7141      226.9955      -962.71859      2423.3217      15.073326      15.073326      15.073326      0              0              0            
    910000   309.20671     -1174.7947      228.88547     -945.90927     -1281.9742      15.154755      15.154755      15.154755      0              0              0            
    911000   292.63412     -1191.6957      216.61787     -975.07781     -168.05625      14.954317      14.954317      14.954317      0              0              0            
    912000   315.34066     -1221.7874      233.42603     -988.36136      825.88288      14.963341      14.963341      14.963341      0              0              0            
    913000   315.09595     -1188.6829      233.24489     -955.43798     -103.47863      15.004358      15.004358      15.004358      0              0              0            
    914000   328.72355     -1191.9185      243.33251     -948.58598      1165.9788      14.946078      14.946078      14.946078      0              0              0            
    915000   316.12244     -1185.4853      234.00473     -951.48056     -1813.041       15.052291      15.052291      15.052291      0              0              0            
    916000   300.38432     -1207.5691      222.35484     -985.21429     -245.29483      14.885736      14.885736      14.885736      0              0              0            
    917000   276.74198     -1230.4914      204.85396     -1025.6375     -1155.1277      14.934552      14.934552      14.934552      0              0              0            
    918000   314.30107     -1210.4813      232.65649     -977.82482      1802.9601      14.957096      14.957096      14.957096      0              0              0            
    919000   296.32616     -1220.0152      219.35085     -1000.6643     -1870.9193      15.192796      15.192796      15.192796      0              0              0            
    920000   261.2028      -1168.4191      193.35133     -975.06782      363.19104      15.190669      15.190669      15.190669      0              0              0            
    921000   278.69467     -1222.8358      206.29941     -1016.5364      3093.0973      14.938463      14.938463      14.938463      0              0              0            
    922000   278.49214     -1163.6542      206.14949     -957.50473      592.84865      15.21511       15.21511       15.21511       0              0              0            
    923000   279.79179     -1178.9983      207.11154     -971.8868      -153.70594      15.051295      15.051295      15.051295      0              0              0            
    924000   310.58703     -1215.9314      229.90723     -986.02417     -460.57322      15.005575      15.005575      15.005575      0              0              0            
    925000   300.91047     -1210.8909      222.74431     -988.14662      99.670977      15.131635      15.131635      15.131635      0              0              0            
    926000   301.58826     -1235.7921      223.24604     -1012.5461      1094.0196      14.758739      14.758739      14.758739      0              0              0            
    927000   304.44033     -1225.5166      225.35723     -1000.1594      545.45428      14.649846      14.649846      14.649846      0              0              0            
    928000   300.59877     -1203.7975      222.51358     -981.28391      918.4444       14.778124      14.778124      14.778124      0              0              0            
    929000   331.00174     -1236.9939      245.0189      -991.97503     -655.2163       14.990914      14.990914      14.990914      0              0              0            
    930000   272.15515     -1230.056       201.45863     -1028.5973      355.11182      14.99751       14.99751       14.99751       0              0              0            
    931000   304.21094     -1196.4174      225.18744     -971.22993      1174.7472      14.847503      14.847503      14.847503      0              0              0            
    932000   311.94639     -1168.3513      230.91348     -937.43779     -600.48937      15.186302      15.186302      15.186302      0              0              0            
    933000   284.49585     -1185.9083      210.59364     -975.31461      43.425857      15.270867      15.270867      15.270867      0              0              0            
    934000   292.59965     -1216.0658      216.59235     -999.47344     -1465.2193      15.139757      15.139757      15.139757      0              0              0            
    935000   310.74925     -1207.4697      230.02732     -977.44237     -49.987366      14.985492      14.985492      14.985492      0              0              0            
    936000   298.62939     -1212.3257      221.05577     -991.26995     -2390.0365      15.041876      15.041876      15.041876      0              0              0            
    937000   291.83944     -1181.4582      216.02962     -965.42857      102.61369      15.175999      15.175999      15.175999      0              0              0            
    938000   295.03317     -1219.2236      218.39373     -1000.8299     -225.629        14.854852      14.854852      14.854852      0              0              0            
    939000   291.36105     -1146.4442      215.6755      -930.76867     -610.78441      15.188973      15.188973      15.188973      0              0              0            
    940000   309.49939     -1201.7624      229.10213     -972.66028     -112.6777       15.105259      15.105259      15.105259      0              0              0            
    941000   299.17758     -1197.7852      221.46156     -976.32365     -940.50965      14.892985      14.892985      14.892985      0              0              0            
    942000   294.44765     -1188.8463      217.96031     -970.88595      1262.801       15.228511      15.228511      15.228511      0              0              0            
    943000   320.98272     -1221.462       237.60248     -983.85955      606.6472       15.079033      15.079033      15.079033      0              0              0            
    944000   301.9766      -1193.2041      223.5335      -969.67059      661.09562      15.020541      15.020541      15.020541      0              0              0            
    945000   313.79192     -1233.3964      232.27961     -1001.1168      50.848777      14.781071      14.781071      14.781071      0              0              0            
    946000   302.9819      -1184.0522      224.27765     -959.77458     -1359.5837      15.059763      15.059763      15.059763      0              0              0            
    947000   273.88998     -1178.1246      202.74281     -975.38183     -2016.6127      15.099219      15.099219      15.099219      0              0              0            
    948000   309.88965     -1199.8136      229.39101     -970.42258     -711.40766      14.785199      14.785199      14.785199      0              0              0            
    949000   308.61486     -1225.2439      228.44737     -996.79649     -1455.3086      14.893841      14.893841      14.893841      0              0              0            
    950000   337.61548     -1214.488       249.91462     -964.57338     -1070.3282      14.859636      14.859636      14.859636      0              0              0            
    951000   314.10328     -1203.7695      232.51008     -971.25937      239.76412      15.011153      15.011153      15.011153      0              0              0            
    952000   311.18499     -1204.2389      230.34986     -973.88899     -964.74186      15.242215      15.242215      15.242215      0              0              0            
    953000   315.95529     -1209.2664      233.88101     -975.38542      735.029        14.986561      14.986561      14.986561      0              0              0            
    954000   306.07249     -1213.8747      226.56541     -987.30929     -515.2104       14.885446      14.885446      14.885446      0              0              0            
    955000   285.83955     -1196.6199      211.5883      -985.03165     -1135.6928      15.087059      15.087059      15.087059      0              0              0            
    956000   311.14112     -1203.4656      230.31739     -973.14821      2739.703       14.704022      14.704022      14.704022      0              0              0            
    957000   286.8575      -1238.5494      212.34181     -1026.2076     -194.98445      14.822247      14.822247      14.822247      0              0              0            
    958000   281.92907     -1229.9194      208.69362     -1021.2258     -369.98136      15.022468      15.022468      15.022468      0              0              0            
    959000   326.16781     -1204.6309      241.44066     -963.19019     -152.88694      14.824229      14.824229      14.824229      0              0              0            
    960000   302.0195      -1195.6766      223.56525     -972.11138     -462.92024      15.008414      15.008414      15.008414      0              0              0            
    961000   291.11744     -1206.4751      215.49517     -990.97996     -394.26447      14.860832      14.860832      14.860832      0              0              0            
    962000   299.08262     -1186.1781      221.39128     -964.78679     -831.64632      15.000488      15.000488      15.000488      0              0              0            
    963000   291.18703     -1202.0058      215.54668     -986.45913      1577.8427      14.924288      14.924288      14.924288      0              0              0            
    964000   324.69984     -1233.6835      240.35402     -993.32949     -1509.3044      14.985194      14.985194      14.985194      0              0              0            
    965000   317.33823     -1203.2652      234.90471     -968.36054      2228.2905      14.914872      14.914872      14.914872      0              0              0            
    966000   327.10672     -1196.8944      242.13568     -954.75871      955.3266       15.038944      15.038944      15.038944      0              0              0            
    967000   302.72036     -1191.4554      224.08405     -967.37139     -333.15079      14.997662      14.997662      14.997662      0              0              0            
    968000   299.40024     -1195.1535      221.62639     -973.5271       921.5139       15.035097      15.035097      15.035097      0              0              0            
    969000   301.42558     -1208.8469      223.12561     -985.72128     -1565.9033      15.215215      15.215215      15.215215      0              0              0            
    970000   297.73637     -1191.2518      220.39473     -970.85711     -848.21548      15.144469      15.144469      15.144469      0              0              0            
    971000   292.62623     -1192.8852      216.61203     -976.27315      479.42854      14.975893      14.975893      14.975893      0              0              0            
    972000   316.04933     -1187.0682      233.95062     -953.11758      1218.5648      14.929728      14.929728      14.929728      0              0              0            
    973000   289.20464     -1187.349       214.07925     -973.26974      1101.9567      14.986474      14.986474      14.986474      0              0              0            
    974000   269.63269     -1184.631       199.59142     -985.03957      1594.957       14.822508      14.822508      14.822508      0              0              0            
    975000   318.91516     -1162.8278      236.072       -926.75577      958.24041      14.73024       14.73024       14.73024       0              0              0            
    976000   326.16425     -1227.0132      241.43803     -985.57522     -836.97858      14.914834      14.914834      14.914834      0              0              0            
    977000   291.41735     -1195.8845      215.71718     -980.16735      47.28678       14.840347      14.840347      14.840347      0              0              0            
    978000   312.61483     -1194.4529      231.40828     -963.04466     -1993.1328      15.14864       15.14864       15.14864       0              0              0            
    979000   307.56417     -1206.9354      227.66961     -979.26578      1087.1397      14.949678      14.949678      14.949678      0              0              0            
    980000   283.98236     -1216.2731      210.21354     -1006.0595     -980.65998      14.905214      14.905214      14.905214      0              0              0            
    981000   301.04386     -1222.3246      222.84305     -999.48159     -225.92519      14.841708      14.841708      14.841708      0              0              0            
    982000   286.0596      -1197.7378      211.75119     -985.98658      633.7094       15.143216      15.143216      15.143216      0              0              0            
    983000   288.64081     -1228.6214      213.66189     -1014.9595      768.13464      15.026155      15.026155      15.026155      0              0              0            
    984000   256.2685      -1185.9058      189.69878     -996.20702     -60.104018      15.337729      15.337729      15.337729      0              0              0            
    985000   301.49638     -1220.1604      223.17802     -996.98235      2015.1081      14.824385      14.824385      14.824385      0              0              0            
    986000   324.72489     -1201.5164      240.37256     -961.1438       1308.0194      15.020654      15.020654      15.020654      0              0              0            
    987000   302.55586     -1201.7416      223.96228     -977.77932      279.79395      14.994603      14.994603      14.994603      0              0              0            
    988000   296.2968      -1213.6672      219.32911     -994.33809      420.38705      14.973719      14.973719      14.973719      0              0              0            
    989000   283.37546     -1194.8016      209.76429     -985.03734     -1586.1643      15.027588      15.027588      15.027588      0              0              0            
    990000   280.01488     -1192.7463      207.27667     -985.46962      1240.9551      15.025419      15.025419      15.025419      0              0              0            
    991000   310.50531     -1235.9866      229.84674     -1006.1399      183.73717      14.982957      14.982957      14.982957      0              0              0            
    992000   310.78273     -1219.2245      230.0521      -989.17236     -1797.5684      14.893173      14.893173      14.893173      0              0              0            
    993000   283.96618     -1200.1447      210.20156     -989.94311     -284.52792      15.145633      15.145633      15.145633      0              0              0            
    994000   283.2441      -1195.1149      209.66705     -985.44782     -2376.8349      15.107258      15.107258      15.107258      0              0              0            
    995000   291.02085     -1181.3061      215.42367     -965.88246     -1442.751       15.459116      15.459116      15.459116      0              0              0            
    996000   282.64838     -1207.2439      209.22608     -998.01784      983.24848      14.834075      14.834075      14.834075      0              0              0            
    997000   287.3772      -1184.5067      212.72652     -971.78015     -816.60614      15.005095      15.005095      15.005095      0              0              0            
    998000   311.326       -1202.3381      230.45424     -971.88387      392.96622      15.059989      15.059989      15.059989      0              0              0            
    999000   294.44098     -1183.1337      217.95537     -965.17833     -2815.2516      15.054377      15.054377      15.054377      0              0              0            
   1000000   316.7624      -1222.7345      234.47845     -988.25604     -337.70627      15.163369      15.163369      15.163369      0              0              0            
Loop time of 206.579 on 12 procs for 1000000 steps with 320 atoms

Performance: 836.482 ns/day, 0.029 hours/ns, 4840.753 timesteps/s, 1.549 Matom-step/s
88.5% CPU use with 12 MPI tasks x 1 OpenMP threads

MPI task timing breakdown:
Section |  min time  |  avg time  |  max time  |%varavg| %total
---------------------------------------------------------------
Pair    | 22.749     | 24.422     | 26.164     |  23.5 | 11.82
Bond    | 0.64588    | 0.67737    | 0.71087    |   2.4 |  0.33
Kspace  | 80.713     | 82.672     | 85.372     |  16.2 | 40.02
Neigh   | 4.7317     | 4.8904     | 5.0214     |   5.5 |  2.37
Comm    | 23.531     | 25.446     | 27.966     |  25.4 | 12.32
Output  | 10.581     | 11.514     | 14.345     |  28.0 |  5.57
Modify  | 50.996     | 55.429     | 56.745     |  21.3 | 26.83
Other   |            | 1.528      |            |       |  0.74

Nlocal:        26.6667 ave          33 max          18 min
Histogram: 1 0 1 1 1 1 3 0 2 2
Nghost:        774.417 ave         821 max         740 min
Histogram: 2 1 2 2 1 1 1 0 1 1
Neighs:              0 ave           0 max           0 min
Histogram: 12 0 0 0 0 0 0 0 0 0

Total # of neighbors = 0
Ave neighs/atom = 0
Ave special neighs/atom = 1.9875
Neighbor list builds = 73930
Dangerous builds = 5187


Total wall time: 0:03:26
