LAMMPS data file via write_data, version 7 Feb 2024, timestep = 15000, units = real

1800 atoms
2 atom types
1200 bonds
1 bond types
600 angles
1 angle types

1.8290950971691782 28.17090490283111 xlo xhi
1.8290950971691782 28.17090490283111 ylo yhi
1.8290950971691782 28.17090490283111 zlo zhi

Masses

1 15.9994
2 1.008

Pair Coeffs # lj/cut/coul/long

1 0.1553 3.166
2 0 0

Bond Coeffs # harmonic

1 600 1

Angle Coeffs # harmonic

1 75 109.47

Atoms # full

940 314 1 -0.8476 3.4355273785434095 5.852471771989593 7.165698898650051 0 0 0
941 314 2 0.4238 3.762883790559256 5.101044546482408 6.592815922561892 0 0 0
942 314 2 0.4238 4.073796381598159 6.61993454324128 7.105585884296846 0 0 0
838 280 1 -0.8476 5.934837461203171 7.2741641243893325 7.11023229683544 0 0 0
1335 445 2 0.4238 3.9753063532171424 6.192234489037995 2.4875718901736144 0 0 0
343 115 1 -0.8476 3.6346432914392826 3.4882201892232394 5.217674430746364 0 0 1
792 264 2 0.4238 6.995865008809561 4.05214369717465 6.218171289176119 0 0 0
790 264 1 -0.8476 6.914389686770547 4.899106157476399 5.692798694959343 0 0 0
791 264 2 0.4238 6.369001189471136 5.559980509592031 6.208353229169918 0 0 0
996 332 2 0.4238 7.357710549165819 5.7409018704552395 4.149625514039538 0 0 0
1334 445 2 0.4238 4.447256410490397 7.680553011764709 2.965899825302083 0 0 0
433 145 1 -0.8476 2.7087075426068505 5.007763323450993 2.822591618260513 0 0 0
1626 542 2 0.4238 6.69615992528101 2.327280648923353 8.19340384781048 0 0 0
1624 542 1 -0.8476 6.258233913583527 2.6204005106682926 7.343520588212611 0 0 0
434 145 2 0.4238 2.9574742093506092 4.7912536203498926 3.7666460096999246 0 0 0
1333 445 1 -0.8476 4.68941308184643 6.887597093285441 2.406810335256359 0 0 0
995 332 2 0.4238 6.6501894843485125 6.220658597994178 2.758268650974639 0 0 0
994 332 1 -0.8476 7.48927827693154 5.859969406064247 3.1654950069488845 0 0 0
344 115 2 0.4238 4.603750436737465 3.2958541511418287 5.063315600935241 0 0 1
513 171 2 0.4238 6.578767752025178 3.451724197371908 4.495692964627291 0 0 1
840 280 2 0.4238 5.857029363659644 8.257016741551979 6.943059832269713 0 0 0
839 280 2 0.4238 6.389952627052572 7.120237907461625 7.987259608594835 0 0 0
903 301 2 0.4238 4.224245603819723 3.6235302709935238 7.977901617209115 0 0 0
690 230 2 0.4238 2.454382421981891 7.231316756222275 7.7778857921439295 1 0 0
345 115 2 0.4238 3.1922927926001012 2.6801937041159594 5.606800677044065 0 0 1
511 171 1 -0.8476 6.000955630620178 2.7158951739453387 4.142579950629611 0 0 1
1008 336 2 0.4238 8.153680437446669 8.026989455956684 2.7413340037064335 0 0 0
282 94 2 0.4238 5.1356623196995255 3.24442896539219 2.2379736646928974 0 1 1
330 110 2 0.4238 2.4277537716676116 2.3544047360429774 7.517687174303842 0 0 0
435 145 2 0.4238 3.070493499915157 4.302832609721391 2.21252308936324 0 0 0
512 171 2 0.4238 6.521417945046668 1.8621711399750651 4.126019361921093 0 0 1
1195 399 1 -0.8476 13.396196283459387 2.500089780871864 2.8354632430517324 0 1 1
500 167 2 0.4238 14.614888832545203 2.0656377124036513 7.82489299171576 0 1 0
644 215 2 0.4238 8.926222209312316 4.193340646648984 6.092465479303011 0 1 1
645 215 2 0.4238 10.222369679627525 3.202907903138377 6.017158036402335 0 1 1
643 215 1 -0.8476 9.223655141782366 3.2443356390485105 5.987951622585048 0 1 1
183 61 2 0.4238 12.048448926543047 7.425686966650843 8.264228877422479 0 0 0
1369 457 1 -0.8476 11.950224128012872 4.192881345188535 6.797506534944088 0 1 0
886 296 1 -0.8476 10.360457075008206 2.365206462827604 2.8539428401056006 0 1 1
1371 457 2 0.4238 11.956231322846493 4.991140854606115 7.399790246537225 0 1 0
1062 354 2 0.4238 11.742629675844768 5.130277557822813 5.440745439649574 0 0 0
1060 354 1 -0.8476 11.595413862742804 5.666344567360131 4.609505603215911 0 0 0
1197 399 2 0.4238 13.61481675952228 3.398146534559967 3.217168829351011 0 1 1
768 256 2 0.4238 9.666674999163144 8.196628921406301 4.086519273935256 0 0 0
1307 436 2 0.4238 13.221920488526168 4.965089354459649 4.406974075500607 0 0 0
1714 572 1 -0.8476 12.430073605471453 7.301390743415632 2.385278982168071 0 0 1
1061 354 2 0.4238 11.040773567562276 6.470032725730922 4.825050232173536 0 0 0
766 256 1 -0.8476 10.237085867514553 8.116618291429191 4.90397247771701 0 0 0
1133 378 2 0.4238 8.700019429265238 4.980297062042322 2.380257842459427 0 0 1
116 39 2 0.4238 13.907109335871638 8.317463222455892 1.8692997674870109 0 0 1
1306 436 1 -0.8476 14.132849160927309 4.7177617122093505 4.076765064131936 0 0 0
1308 436 2 0.4238 14.645783791256154 4.276333959052879 4.812998453599432 0 0 0
1007 336 2 0.4238 9.690487247584837 8.119243106624305 2.1969622672707305 0 0 0
887 296 2 0.4238 9.85032411737955 3.0969650249679854 2.40195415408448 0 1 1
1788 596 2 0.4238 14.589641091212558 8.05975056410681 5.49593860327227 0 0 0
135 45 2 0.4238 9.407310506184144 1.8782651018227852 7.671331977428944 0 0 0
1370 457 2 0.4238 12.634812624410365 3.534360361980949 7.1100584590965505 0 1 0
1716 572 2 0.4238 12.327045494113431 6.657856825891234 3.143730895791777 0 0 1
499 167 1 -0.8476 14.300513113089128 2.105087371559516 6.876414403963385 0 1 0
1196 399 2 0.4238 12.491499439699897 2.2147131082341587 3.151823442223624 0 1 1
665 222 2 0.4238 19.16332051610208 7.713106889046119 3.47531862684188 0 0 1
1364 455 2 0.4238 19.012314400621076 6.695928433348168 5.909986701353493 0 0 0
884 295 2 0.4238 15.339210315593606 3.320679813161112 6.407642539714421 0 0 0
1363 455 1 -0.8476 18.855545975071493 7.134452530359802 5.025045868807823 0 0 0
1009 337 1 -0.8476 18.11771663770432 3.862510015266532 3.748110206615261 0 0 0
885 295 2 0.4238 16.223623376893975 4.4446091584927245 7.195819460768731 0 0 0
1781 594 2 0.4238 16.479756678638527 6.992183914080935 2.940076613540227 0 1 0
1782 594 2 0.4238 15.491190562318373 6.159372152968951 3.9379684410422198 0 1 0
883 295 1 -0.8476 15.96839758245079 4.089923468744049 6.296343026750469 0 0 0
1365 455 2 0.4238 17.94891787618035 6.884480721397663 4.685134725946846 0 0 0
1780 594 1 -0.8476 16.20919674393025 6.853941914876021 3.8928024247787505 0 1 0
1011 337 2 0.4238 18.016018908974633 4.420493917005971 4.571706914589942 0 0 0
1463 488 2 0.4238 18.70200172334451 5.264184263453783 7.657802560055987 0 0 0
1464 488 2 0.4238 18.321964677909747 6.834537530612919 7.894844656736113 0 0 0
1462 488 1 -0.8476 18.953168434178178 6.207059014238145 7.438936190510431 0 0 0
54 18 2 0.4238 19.2925633711076 2.78199580763263 8.403029086914266 0 1 0
52 18 1 -0.8476 19.6087747568215 3.345108302758204 7.639540594929543 0 1 0
407 136 2 0.4238 19.739381895666426 2.1731963090228765 6.370277101708227 0 1 0
664 222 1 -0.8476 19.258807817441834 8.359197353098589 2.718054282270479 0 0 1
1046 349 2 0.4238 19.357966341775068 4.550172298126695 2.555336030227511 0 0 0
1010 337 2 0.4238 17.71370288399945 2.9611682567902107 3.9041740437455186 0 0 0
53 18 2 0.4238 20.607042795604947 3.311235825572522 7.591440927093046 0 1 0
95 32 2 0.4238 20.68039929924487 5.644332632132757 6.769790010887296 0 0 0
1047 349 2 0.4238 20.908027172714252 5.006652922869861 2.7910548347406636 0 0 0
666 222 2 0.4238 18.85109521033598 7.9681989089014875 1.8928933000020034 0 0 1
900 300 2 0.4238 21.461883226562325 2.207920546337092 5.82948582653386 0 0 0
1045 349 1 -0.8476 20.23804883465732 4.712892348671521 2.1092676600322093 0 0 0
269 90 2 0.4238 26.248165793482574 6.106380443827979 7.342260407626745 0 0 0
899 300 2 0.4238 22.888578010559986 2.231221008191728 6.623605198524002 0 0 0
1498 500 1 -0.8476 23.758549741594152 2.263847953846007 2.5843831147537357 0 1 1
689 230 2 0.4238 28.12502258694142 8.337320519668053 6.781435349913813 0 0 0
1027 343 1 -0.8476 24.77075923770689 4.801825350775197 4.241981135745767 0 0 0
1222 408 1 -0.8476 26.515510862708553 5.764910445600504 2.4469825692680094 -1 0 0
94 32 1 -0.8476 21.63990576923453 5.5019940784355095 6.526711689776603 0 0 0
1501 501 1 -0.8476 25.538521236872164 8.409005179926888 4.722342912191151 0 0 0
1502 501 2 0.4238 25.26121929941847 7.7148103522990805 5.38656966322868 0 0 0
96 32 2 0.4238 21.778678877191613 4.547678829529672 6.2620903939137476 0 0 0
336 112 2 0.4238 21.92701692391204 5.757274804786873 4.8124922700784625 0 0 0
334 112 1 -0.8476 22.19341333939149 5.615788840556785 3.8590696608639505 0 0 0
335 112 2 0.4238 23.12446463198684 5.252637386560034 3.823509682905833 0 0 0
1029 343 2 0.4238 25.25164886688127 5.38643482651597 3.588546421759768 0 0 0
268 90 1 -0.8476 26.069144701355903 5.370565570605355 7.995351458654931 0 0 0
1028 343 2 0.4238 25.432648834302793 4.233347027100014 4.730585840435918 0 0 0
898 300 1 -0.8476 22.144515917511033 2.7948384772125565 6.264847689448868 0 0 0
1150 384 1 -0.8476 22.94233452277714 7.825857121885659 6.417021613666032 0 0 0
1151 384 2 0.4238 22.27985990089552 7.089608323612772 6.555097978102576 0 0 0
1152 384 2 0.4238 22.874056251480912 8.163982640574815 5.478400704408766 0 0 0
732 244 2 0.4238 25.77348823857935 3.9296994285385747 6.839636031220715 0 1 0
1223 408 2 0.4238 27.46868715032697 5.64809076343148 2.725923650135732 -1 0 0
730 244 1 -0.8476 26.16098401279745 3.1575952337985367 6.335947499046529 0 1 0
731 244 2 0.4238 25.585374464814564 2.350657738674833 6.468331513377009 0 1 0
688 230 1 -0.8476 28.09721856351494 7.942169740824595 7.699630753014124 0 0 0
1257 419 2 0.4238 23.96649841489762 8.397120305575621 7.911686649570916 0 0 0
1500 500 2 0.4238 23.99548455470807 3.020819349774866 3.1933627532430027 0 1 1
329 110 2 0.4238 27.78312358706236 2.2451951995287294 6.2209081191387865 -1 0 0
1499 500 2 0.4238 22.803219388030893 2.006146453367613 2.7290684706998634 0 1 1
216 72 2 0.4238 4.402241647896792 9.583211258248777 4.875522139188348 1 0 0
214 72 1 -0.8476 4.102857399706325 9.172111806158444 4.014495825744807 1 0 0
215 72 2 0.4238 3.134532423627115 8.930952820762736 4.07921896287375 1 0 0
876 292 2 0.4238 7.30020380539805 11.830786105954806 5.0385453538315685 0 0 0
568 190 1 -0.8476 5.269261278458357 10.031983636766688 6.476453425912202 0 0 0
569 190 2 0.4238 4.74400317780919 10.505217445288489 7.183668874124527 0 0 0
570 190 2 0.4238 5.735976421519666 10.70432873564465 5.901884854488576 0 0 0
488 163 2 0.4238 7.148561963894141 12.462982274904313 7.199847522192857 0 0 0
875 292 2 0.4238 6.0868958558448805 12.876197950885748 4.719759549244525 0 0 0
874 292 1 -0.8476 6.401899069181714 12.154273260369033 5.335874568395796 0 0 0
892 298 1 -0.8476 4.209217277010564 13.008022916724142 2.960805781061364 0 0 1
1388 463 2 0.4238 2.578081798886549 13.529897546056457 5.219467081037351 1 0 0
1387 463 1 -0.8476 2.567604625662357 12.530617317341093 5.183008154074011 1 0 0
1389 463 2 0.4238 2.8364773942257986 12.161781972359153 6.072765380868456 1 0 0
893 298 2 0.4238 3.725904910824818 12.57537862318556 3.721876127332435 0 0 1
487 163 1 -0.8476 7.865819352158102 12.181916722839558 7.837455547892984 0 0 0
1058 353 2 0.4238 3.6656319607570285 14.403350859387169 2.4938464382715124 0 0 0
387 129 2 0.4238 4.509125835048589 10.150843422193034 2.6294410317091477 1 0 0
760 254 1 -0.8476 6.747835906022615 14.996412126007666 4.391184374777771 0 0 0
894 298 2 0.4238 4.504913494596466 12.306840468259567 2.3120323838858514 0 0 1
1585 529 1 -0.8476 3.2983664968515725 14.538621032289532 8.223953973016044 0 0 0
1587 529 2 0.4238 3.8748308010163166 13.721520338413992 8.229900577748417 0 0 0
1006 336 1 -0.8476 8.95727318439581 8.616668679410964 2.660605381200889 0 0 0
997 333 1 -0.8476 11.637731786358255 14.941097566726695 7.782987387354125 0 0 0
551 184 2 0.4238 9.135063376425991 10.215866753353813 4.055225116376752 0 0 0
552 184 2 0.4238 8.492733856105438 11.552735311181365 3.371981571514676 0 0 0
550 184 1 -0.8476 8.892401772680206 11.174067500979168 4.206772710657742 0 0 0
160 54 1 -0.8476 9.478442891797908 14.813807044878208 4.857407920903286 0 0 0
1636 546 1 -0.8476 10.296246750679327 8.716174554669356 7.552922015400731 0 0 1
1638 546 2 0.4238 10.218578323935924 8.483087691838925 6.583572682148991 0 0 1
1637 546 2 0.4238 10.919834118047602 9.490473582535316 7.660624432821192 0 0 1
767 256 2 0.4238 10.854530108946363 8.901397010781727 4.957684398087352 0 0 0
616 206 1 -0.8476 10.361473580673387 12.704198978617216 6.961058499453689 0 0 0
162 54 2 0.4238 9.718340103120171 14.206950952580426 4.099664553230189 0 0 0
617 206 2 0.4238 10.21796564354261 13.171443547887701 6.088654932012852 0 0 0
618 206 2 0.4238 9.4769388453194 12.452684465515151 7.353918209359049 0 0 0
1797 599 2 0.4238 11.950106060256614 11.00889676724973 3.1747212721535605 0 0 0
205 69 1 -0.8476 12.101897980307132 10.111708116295695 4.686600470433214 0 0 0
206 69 2 0.4238 13.04858165292021 9.790213877999468 4.707372537396573 0 0 0
207 69 2 0.4238 11.880002330731232 10.551303358695899 5.556955767753938 0 0 0
1795 599 1 -0.8476 12.130694967658112 11.780836404638492 2.5652158638369125 0 0 0
1796 599 2 0.4238 12.884849771864857 12.325668035479595 2.931834228546928 0 0 0
877 293 1 -0.8476 12.19307632120877 11.009668597814958 7.532921223967587 0 0 0
878 293 2 0.4238 13.116335733256776 11.382913913724014 7.441926761319765 0 0 0
879 293 2 0.4238 11.528317866649862 11.756498668186241 7.514453871764549 0 0 0
619 207 1 -0.8476 13.652379920602543 13.658394669560243 3.7906428426333587 0 0 0
621 207 2 0.4238 14.52299802952812 13.184205806955296 3.9216734917506226 0 0 0
998 333 2 0.4238 11.26699340424649 14.117699836776978 7.353372175381094 0 0 0
793 265 1 -0.8476 14.4468924465983 12.617857446082267 6.689849528914596 0 0 0
795 265 2 0.4238 13.956725044413028 13.484792427575163 6.7801803415550825 0 0 0
1786 596 1 -0.8476 14.661161939301769 8.991999258809685 5.141259678710587 0 0 0
1410 470 2 0.4238 14.96962400510034 11.74812360646194 8.051167081979237 0 0 0
130 44 1 -0.8476 10.136517175980021 13.73556781922811 2.35729431383909 0 0 1
620 207 2 0.4238 13.483554205482163 14.265830508704886 4.566864189449168 0 0 0
131 44 2 0.4238 10.51989686191777 14.621054896074156 2.094744026921245 0 0 1
822 274 2 0.4238 13.237562539433886 14.914418674259034 2.4707957624296926 0 0 1
161 54 2 0.4238 8.497505089901685 14.747294875669859 5.039992586661298 0 0 0
132 44 2 0.4238 10.876350501786467 13.072332231878788 2.470277523703176 0 0 1
1571 524 2 0.4238 16.064668726133707 9.376684717552367 2.0829146599443806 0 0 1
1568 523 2 0.4238 17.407804222075942 8.666693875521839 8.163341211032343 0 0 0
1559 520 2 0.4238 21.389781481204057 14.201609119322958 5.866051213802612 0 0 1
1560 520 2 0.4238 20.22451431804015 14.952833426490091 6.728861143017598 0 0 1
1787 596 2 0.4238 15.348335594353783 9.020633682491978 4.415331006184453 0 0 0
1486 496 1 -0.8476 19.43611321141082 11.687300527642334 3.271816515707398 0 0 1
1297 433 1 -0.8476 19.025258965644657 9.963315773737158 5.408328975705071 0 0 0
1298 433 2 0.4238 19.270548349978846 10.528785489294584 4.620879219382619 0 0 0
1299 433 2 0.4238 19.343220710446268 9.02714377218254 5.258387946091321 0 0 0
1437 479 2 0.4238 17.661221926823494 9.598362466469492 6.379713866135665 0 0 0
1435 479 1 -0.8476 16.82192516156558 9.662924111607351 6.919540443677448 0 0 0
1436 479 2 0.4238 16.0300194843648 9.552339073153332 6.318993736332246 0 0 0
1137 379 2 0.4238 20.4108669583332 11.647402452287535 8.136999102953464 0 0 0
1409 470 2 0.4238 16.142996097856567 10.637838751832161 8.29010633932194 0 0 0
1452 484 2 0.4238 16.524436057765712 11.48269078062424 3.8992125724870523 0 0 0
1450 484 1 -0.8476 16.177166232284076 12.390263581139687 4.1352534165973704 0 0 0
1451 484 2 0.4238 16.917478081141574 13.058908367158695 4.065593409534628 0 0 0
1487 496 2 0.4238 18.995424671026022 12.416994590703485 3.79463597280771 0 0 1
1572 524 2 0.4238 17.51158714947662 9.469602260846212 2.8341935039912904 0 0 1
1508 503 2 0.4238 21.27746485574076 11.650409971409077 3.5728146420233156 0 0 1
794 265 2 0.4238 15.289447998807786 12.76378906133298 6.171386314091648 0 0 0
1570 524 1 -0.8476 16.65578851673912 9.952239165953316 2.6479938314689404 0 0 1
651 217 2 0.4238 19.08746672775055 14.607178672796392 4.57787954732083 0 0 1
649 217 1 -0.8476 18.379428129077294 14.111950960459698 4.074460382274969 0 0 1
717 239 2 0.4238 20.946591142754855 8.674208304053879 2.336575447933191 0 0 0
1136 379 2 0.4238 20.86457949765021 11.425644785966066 6.584068014891135 0 0 0
1135 379 1 -0.8476 21.166791065750324 11.386648423566667 7.53651090128454 0 0 0
1488 496 2 0.4238 19.664081940898942 12.023034614351968 2.3578619865252026 0 0 1
1558 520 1 -0.8476 20.525234667660573 14.700915090422997 5.809021796559262 0 0 1
650 217 2 0.4238 17.84849132450734 14.75683805430431 3.524708851345663 0 0 1
1746 582 2 0.4238 24.82463731542132 8.424144449836424 2.230063865400565 0 0 0
118 40 1 -0.8476 23.47850676283521 13.63520346157308 1.8969878843319037 0 0 1
695 232 2 0.4238 22.79222960651647 9.077579173958165 3.2691714381470627 0 0 0
1503 501 2 0.4238 24.750929338323918 8.978424377862051 4.48684179037806 0 0 0
694 232 1 -0.8476 23.212679080659186 9.643948660023387 3.978006993803699 0 0 0
1355 452 2 0.4238 26.204648063809664 14.91538594951171 2.760785516478458 0 0 0
715 239 1 -0.8476 21.837017187447973 8.583184310665292 1.890642614902001 0 0 0
1362 454 2 0.4238 27.157705556137874 8.946713914291125 4.950651691386167 0 0 0
696 232 2 0.4238 23.156254961298675 10.606447029311605 3.7126521221927042 0 0 0
1507 503 1 -0.8476 22.182849310735417 12.065905384146033 3.6602363250418968 0 0 1
910 304 1 -0.8476 26.212751778452876 11.552708973626048 7.8226649781266495 0 0 0
911 304 2 0.4238 26.68484616259433 12.075854717276266 7.113126097318663 0 0 0
912 304 2 0.4238 25.336235865861774 11.987303804054358 8.029660602120215 0 0 0
956 319 2 0.4238 23.832634128997217 14.375779476927036 5.9730699498055895 0 0 1
955 319 1 -0.8476 23.079538791642317 13.740068591977204 6.142537007448841 0 0 1
1360 454 1 -0.8476 27.980477348414396 9.507512795761757 5.043124348918743 0 0 0
1361 454 2 0.4238 27.78639638342584 10.437894244423696 4.7321212315217025 0 0 0
957 319 2 0.4238 23.28702389635223 13.184617437708198 6.947784762217886 0 0 1
1575 525 2 0.4238 26.90740848501601 12.599174317638761 2.525780293316676 0 0 1
1573 525 1 -0.8476 26.839334930265114 11.608519427006794 2.407590281785014 0 0 1
1745 582 2 0.4238 25.77393785872948 9.74966592269789 2.138151958466805 0 0 0
1509 503 2 0.4238 22.43392462138566 12.1176343153072 4.6268206752555106 0 0 1
1356 452 2 0.4238 24.814261135981535 14.17222297739315 3.186413855494539 0 0 0
1354 452 1 -0.8476 25.735512261582105 14.416238798601626 3.4893208421972313 0 0 0
119 40 2 0.4238 22.92059449650427 13.065233581925177 2.500202804064004 0 0 1
461 154 2 0.4238 22.574269363683364 11.859171577205222 8.039977620372618 0 0 0
460 154 1 -0.8476 23.49153969938186 12.0997709688219 8.35735289353816 0 0 0
1077 359 2 0.4238 25.478452272723803 14.974314395511097 4.973092229893195 0 0 0
902 301 2 0.4238 3.0448437511188318 4.400390507976918 8.79773448872528 0 0 0
725 242 2 0.4238 2.8186676365846846 8.177467428259977 14.741594068200648 0 0 0
575 192 2 0.4238 3.593230916649517 4.133352163461921 13.304728296892135 0 0 0
158 53 2 0.4238 4.3381975115029165 2.379026168197676 13.975624064523503 0 0 0
237 79 2 0.4238 6.157748536544383 3.2406947234782733 13.619903776412333 0 0 0
901 301 1 -0.8476 3.5538715697362715 3.5435677460921697 8.715603893911906 0 0 0
68 23 2 0.4238 7.762366743948027 6.955551953357172 9.515361905416693 0 0 0
69 23 2 0.4238 6.966585744732393 5.531262554792661 9.584346002156511 0 0 0
99 33 2 0.4238 4.836531084373634 5.989029747524394 12.55542950708747 0 0 0
67 23 1 -0.8476 6.908015304656726 6.4859853901505815 9.292671849700124 0 0 0
97 33 1 -0.8476 5.107214135023709 6.558844022404388 13.331343405822123 0 0 0
98 33 2 0.4238 4.294364951475834 6.823093303665813 13.85042771706083 0 0 0
1261 421 1 -0.8476 4.154653783092285 6.681920304531451 10.321477594963678 0 0 0
1262 421 2 0.4238 4.9190138223864395 6.795807339369134 9.68682534873792 0 0 0
1263 421 2 0.4238 4.005891067907337 7.535538963655607 10.82068180105475 0 0 0
1214 405 2 0.4238 4.554407630994991 3.332784351424691 11.16979600300426 0 0 0
1213 405 1 -0.8476 4.183052000051891 4.066450352362783 11.738855924672242 0 0 0
1772 591 2 0.4238 5.464061236199585 8.015205838470035 14.408192902965892 0 0 0
1215 405 2 0.4238 4.042220212283404 4.883331431760916 11.179506561850669 0 0 0
1427 476 2 0.4238 7.190569733660153 3.935179064811337 11.319972464156448 0 0 0
724 242 1 -0.8476 3.2078595813599184 7.276441921733808 14.933121263990385 0 0 0
235 79 1 -0.8476 6.761772865248651 4.032965374458889 13.533521915225505 0 0 0
1592 531 2 0.4238 8.37750778519505 7.483166646513845 14.22533364635441 0 0 0
1426 476 1 -0.8476 7.44227562444133 4.09196003403249 10.36495211240957 0 0 0
1428 476 2 0.4238 8.385424373710574 3.794954938018235 10.215759586766634 0 0 0
78 26 2 0.4238 2.285702413530522 6.175459862052181 10.148343335407901 1 0 0
236 79 2 0.4238 6.247822099710907 4.867259591982295 13.733040759511049 0 0 0
576 192 2 0.4238 2.5646010119411407 3.8674032456859844 14.544816272580013 0 0 0
574 192 1 -0.8476 3.51579606106874 3.7988504992139127 14.243936729439637 0 0 0
1430 477 2 0.4238 3.748482367468225 1.9319878923576204 9.197984052654604 0 0 0
181 61 1 -0.8476 12.103456902277673 6.4625887332040355 8.527697880062618 0 0 0
454 152 1 -0.8476 9.34941062047088 4.057575444372946 14.702646207425454 0 0 0
672 224 2 0.4238 11.867015696000259 5.770660465517107 14.154689829155007 0 0 0
534 178 2 0.4238 10.626988410423337 2.899818098645831 11.225218935106207 0 0 0
145 49 1 -0.8476 13.404885860093302 4.039496820201127 10.028368809388578 0 1 0
146 49 2 0.4238 13.898396604588143 3.2813178399223863 9.602209474224567 0 1 0
1593 531 2 0.4238 8.92766453331247 7.787732187700459 12.718285578507414 0 0 0
182 61 2 0.4238 11.611199710167188 6.323450692715871 9.386955386586063 0 0 0
533 178 2 0.4238 11.57969433755773 3.7209012628553495 10.183681442248332 0 0 0
1398 466 2 0.4238 12.24575251841938 3.9094915718661336 13.158240890797288 0 0 0
652 218 1 -0.8476 10.969201024104963 6.662816061250413 11.01635569106957 0 0 0
654 218 2 0.4238 10.832407859441085 5.9947818566649556 11.747804890686952 0 0 0
671 224 2 0.4238 10.48022041021581 4.9832247485301115 13.803448712373283 0 0 0
653 218 2 0.4238 11.851011409681627 7.117654473428077 11.140984992249361 0 0 0
670 224 1 -0.8476 11.306876980738101 5.392735453672759 13.417521391752297 0 0 0
1397 466 2 0.4238 13.12836823388979 3.6552002409602173 11.808073525983527 0 0 0
1396 466 1 -0.8476 12.992053045995961 3.3770039565168695 12.758875817147919 0 0 0
147 49 2 0.4238 14.025713397824093 4.813593648118133 10.152252906106922 0 1 0
532 178 1 -0.8476 10.669989543806233 3.3298708588043997 10.323439845739456 0 0 0
134 45 2 0.4238 9.4038346520507 2.3980392207808268 9.219378901419905 0 0 0
456 152 2 0.4238 8.611661393257497 3.834129835800859 14.065623336747013 0 0 0
1591 531 1 -0.8476 8.519295278781374 8.193539467986337 13.53593770700497 0 0 0
704 235 2 0.4238 14.905058763400069 3.5375946307712924 13.517550718954276 0 0 0
165 55 2 0.4238 13.946192013834029 7.7905650702965685 10.743590999848553 0 0 0
322 108 1 -0.8476 9.25947279899565 8.396550151153155 9.811811351794619 0 0 0
324 108 2 0.4238 9.96911440698753 7.907725730725329 10.319215997236373 0 0 0
163 55 1 -0.8476 13.138885584756938 8.253656922879095 11.109380919960739 0 0 0
495 165 2 0.4238 13.985195375905398 5.1511080098937265 14.787700827572547 0 0 0
151 51 1 -0.8476 10.025110347519902 1.93812761451835 12.637506734000691 0 0 0
200 67 2 0.4238 21.51931256614443 3.3284526705361426 14.122311304657309 0 0 0
1567 523 1 -0.8476 17.807170105368442 8.059683574314192 8.850396802306067 0 0 0
1484 495 2 0.4238 21.109135081042556 7.535861635783688 9.40219329558363 0 0 0
1693 565 1 -0.8476 17.91840511852795 2.3891329357670665 10.373926229612342 0 1 0
185 62 2 0.4238 15.131544215753427 5.261222911364212 11.952120294772486 0 0 0
184 62 1 -0.8476 15.244372074502193 5.657674067455465 11.041024056639582 0 0 0
1695 565 2 0.4238 18.188054815728343 2.562984956449638 11.321061127987216 0 1 0
705 235 2 0.4238 15.882496899725215 3.7303051312206095 14.811422369409854 0 0 0
186 62 2 0.4238 15.755523271675694 6.514292587873143 11.111232062744573 0 0 0
659 220 2 0.4238 17.355656267716817 7.983319274057219 10.865119557808503 0 0 0
703 235 1 -0.8476 15.532018149466472 4.1636880625398875 13.98115501459342 0 0 0
1485 495 2 0.4238 20.25747042199387 6.323897657696814 8.714852681676543 0 0 0
272 91 2 0.4238 16.166276208216637 5.001851352451092 9.74338508011106 0 0 0
325 109 1 -0.8476 17.829992130914974 5.901442138160294 13.186569957622368 0 0 0
326 109 2 0.4238 17.053965129778557 5.57346860147389 13.725286444055007 0 0 0
327 109 2 0.4238 17.525806934027667 6.630671003429473 12.573628991406942 0 0 0
1204 402 1 -0.8476 20.837625874205482 5.019189788905673 11.675281716632789 0 0 0
1205 402 2 0.4238 20.9115944394133 5.60888746812045 10.871052086175437 0 0 0
1206 402 2 0.4238 19.872739338427742 4.862499954680643 11.886095067588682 0 0 0
658 220 1 -0.8476 16.65836111185622 7.81921590368391 11.562865607212519 0 0 0
271 91 1 -0.8476 16.784395760173922 4.586964899858999 9.075704429680398 0 0 0
273 91 2 0.4238 17.142797183225376 3.7282178563463195 9.441903740478173 0 0 0
626 209 2 0.4238 21.39623135921816 2.8706094479428903 10.827903127992153 0 0 0
984 328 2 0.4238 18.28512465758828 3.7504178346014663 13.028281911022235 0 0 0
983 328 2 0.4238 19.558049927328383 2.7380914514194905 13.174852872497999 0 0 0
982 328 1 -0.8476 18.78508825880271 2.9995294310324057 12.596769451340405 0 0 0
1483 495 1 -0.8476 20.930024596560333 6.552173070185307 9.418813773174012 0 0 0
199 67 1 -0.8476 20.87796096455807 2.641134805446581 14.463283848248377 0 0 0
105 35 2 0.4238 18.892864142986102 6.0463574747046875 14.700936525605956 0 0 0
1552 518 1 -0.8476 21.426910850330966 8.168453556043918 14.920054224558854 0 0 0
1673 558 2 0.4238 24.305929894411086 2.4713487379370496 14.300775438898434 0 1 0
270 90 2 0.4238 26.767099057706623 5.383300215303408 8.71138047014028 0 0 0
1562 521 2 0.4238 27.0888746807094 3.7439842595780424 13.72869561541708 -1 0 0
1554 518 2 0.4238 21.960617750870593 7.7762707356500105 14.17082156395434 0 0 0
228 76 2 0.4238 21.927478322264193 6.202753453267443 12.480895324403535 0 0 0
226 76 1 -0.8476 22.538041543137766 6.937274147771996 12.777023510628394 0 0 0
296 99 2 0.4238 24.24888086945311 4.439353258501651 9.018121085199814 0 0 0
625 209 1 -0.8476 21.995804022363952 2.270811094132667 10.298040356710212 0 0 0
627 209 2 0.4238 22.766267686774665 2.799689385597246 9.942128155941585 0 0 0
295 99 1 -0.8476 23.2999089092413 4.248743148382034 9.26935803444655 0 0 0
379 127 1 -0.8476 23.140165716441707 4.195904370167908 14.571963247485622 0 0 0
380 127 2 0.4238 23.866912688188044 4.8183773592063845 14.281504615336837 0 0 0
372 124 2 0.4238 26.248113155207303 2.4135701201388726 11.956089401622497 0 0 0
1561 521 1 -0.8476 26.726184740048094 3.9780589970682056 12.826661788874123 -1 0 0
1584 528 2 0.4238 26.49379961712075 7.097027777381325 10.536777923911183 0 0 0
1563 521 2 0.4238 25.98530584125065 4.642106010564743 12.927359461135339 -1 0 0
1404 468 2 0.4238 25.64087338459415 6.63712561396485 14.093658710260335 0 0 0
76 26 1 -0.8476 27.767270428954546 5.688989696983609 10.30108769975747 0 0 0
1583 528 2 0.4238 25.27291924950643 8.132780029378399 10.215382691159144 0 0 0
1582 528 1 -0.8476 25.829349711434155 7.726232953296562 10.940023716760098 0 0 0
77 26 2 0.4238 27.875629847113007 5.05179175148145 11.064132269071107 0 0 0
1402 468 1 -0.8476 25.12622442227932 6.226227034100961 13.341130436592273 0 0 0
1403 468 2 0.4238 25.41095937651116 6.641096236778531 12.476949002792605 0 0 0
227 76 2 0.4238 23.459609278835472 6.572002288820189 12.908512588481708 0 0 0
297 99 2 0.4238 22.730273025041825 5.039171148277904 9.044105872574454 0 0 0
1478 493 2 0.4238 3.1208323187710945 10.956559500805232 8.702385763019853 0 0 0
1477 493 1 -0.8476 4.008477917066278 11.373412626095426 8.5066339717726 0 0 0
1479 493 2 0.4238 4.56240304335721 11.384414578312828 9.339127762455668 0 0 0
234 78 2 0.4238 7.859300342286516 14.008435962529614 8.832444035971115 0 0 0
1438 480 1 -0.8476 3.3768046531494087 12.60325986445749 14.969771717396895 0 0 0
1773 591 2 0.4238 6.937297238810375 8.711490768811258 14.30147143572522 0 0 0
288 96 2 0.4238 2.480474257422953 9.091540376081817 12.152497434370867 0 0 0
1771 591 1 -0.8476 5.95564067701958 8.88555780242977 14.379260011468332 0 0 0
232 78 1 -0.8476 7.572376760396966 14.928738773471391 9.09837183508786 0 0 0
1250 417 2 0.4238 1.984734133007816 13.031179709105912 14.161278056195838 0 0 0
490 164 1 -0.8476 2.010010372727543 9.734840448646851 14.227958416288734 1 0 0
489 163 2 0.4238 7.471825944893221 11.594816976035707 8.544621074730646 0 0 0
286 96 1 -0.8476 2.9479467013874294 9.122463516238643 11.269030811599853 0 0 0
287 96 2 0.4238 2.2707220956560104 9.1183669040845 10.533265868717884 0 0 0
1586 529 2 0.4238 2.7269452255170887 14.549377338113075 9.044540368569455 0 0 0
933 311 2 0.4238 8.023170668728879 9.675745827559771 9.798400607323982 0 0 0
932 311 2 0.4238 6.564784042665758 9.734876562286129 10.530683681216653 0 0 0
300 100 2 0.4238 6.606537088000583 13.151448715384618 13.179514273192192 0 0 0
931 311 1 -0.8476 7.183395874114471 10.208373523424076 9.903690834526575 0 0 0
1564 522 1 -0.8476 5.492491137799494 9.64796914779332 11.862072588281963 0 0 0
1128 376 2 0.4238 7.97619065518089 13.475910788941958 10.901384568587046 0 0 0
1565 522 2 0.4238 5.710571166479936 9.342653563060392 12.789015679752932 0 0 0
1566 522 2 0.4238 4.513794597856472 9.530142708537639 11.693935700801195 0 0 0
1126 376 1 -0.8476 7.748781428508744 12.916102476664847 11.69819050301839 0 0 0
1127 376 2 0.4238 7.737000862763835 11.951340176989602 11.43533137076233 0 0 0
298 100 1 -0.8476 6.003179969786493 13.184593134351923 13.976296323320993 0 0 0
299 100 2 0.4238 5.793877484284457 14.137328417087506 14.196496120344385 0 0 0
1037 346 2 0.4238 7.711380716157114 11.457772302744113 13.784721279036878 0 0 0
1440 480 2 0.4238 4.314789934583955 12.741231449223253 14.651734842769418 0 0 0
491 164 2 0.4238 2.4737863992961784 10.618396731015562 14.293074413413345 1 0 0
1073 358 2 0.4238 14.206959622157788 14.300663147294502 12.604259134444048 0 0 0
1090 364 1 -0.8476 11.032100088310667 14.167845755610703 14.968315503443653 0 0 0
1091 364 2 0.4238 10.70819210638592 13.843837451463045 14.0794385501478 0 0 0
323 108 2 0.4238 9.577937863950293 8.574213469122757 8.880674547738964 0 0 0
804 268 2 0.4238 14.582378708994236 11.115692468333654 10.220667879983846 0 0 0
831 277 2 0.4238 9.480926236321062 12.90815821764819 12.507401703673112 0 0 0
1748 583 2 0.4238 11.190182667330609 10.701413082898473 9.869194324584459 0 0 0
1749 583 2 0.4238 12.402915686362832 11.336218181513962 10.759659150672306 0 0 0
830 277 2 0.4238 10.873892325290543 12.41626311807656 11.811477008625301 0 0 0
802 268 1 -0.8476 14.001871160840116 11.158024687174501 11.033821598412933 0 0 0
164 55 2 0.4238 13.283122692548593 9.242935480929704 11.086498801839108 0 0 0
1038 346 2 0.4238 8.618582913975064 10.102929743317167 13.69520979029268 0 0 0
1036 346 1 -0.8476 8.47324944487688 10.956692055685599 14.195177886027611 0 0 0
859 287 1 -0.8476 12.938957679027054 9.91231414122235 14.583108829834236 0 0 0
860 287 2 0.4238 12.794264183199266 9.26496941756544 13.834771605693772 0 0 0
1155 385 2 0.4238 14.175183691512668 10.992206540901057 14.15347421694706 0 0 0
803 268 2 0.4238 14.536749942116787 11.496605947290819 11.807945244642509 0 0 0
1747 583 1 -0.8476 11.415525953327315 11.343977152335375 10.601541114118488 0 0 0
829 277 1 -0.8476 10.456162671812399 13.10418591460951 12.404995468852997 0 0 0
414 138 2 0.4238 11.716174160128217 14.59031725432616 12.309971643081063 0 0 0
1153 385 1 -0.8476 14.986964122910377 11.4726310251736 13.821503064394593 0 0 0
861 287 2 0.4238 12.071525408088892 10.35210867900517 14.815793208087289 0 0 0
895 299 1 -0.8476 19.474069378609627 10.657224208198075 14.977056961347634 0 0 0
1569 523 2 0.4238 18.495386795827955 8.5590605928623 9.376686057689279 0 0 0
1074 358 2 0.4238 15.151303574516913 13.209000163513611 13.367877445289544 0 0 0
1072 358 1 -0.8476 15.0716744688539 14.165746084727504 13.088062421063576 0 0 0
1408 470 1 -0.8476 15.586470938654395 11.344571551581963 8.726922658784062 0 0 0
140 47 2 0.4238 19.210122772316552 12.70433459087568 9.622596974904113 0 0 0
139 47 1 -0.8476 19.940463617488472 12.077301383813692 9.893579644325369 0 0 0
141 47 2 0.4238 20.46624155712427 12.481571812761299 10.641993285626073 0 0 0
660 220 2 0.4238 16.54702872146318 8.640472589411791 12.122457025131453 0 0 0
958 320 1 -0.8476 17.65151440134175 13.298698414169584 9.195010404052002 0 0 0
1154 385 2 0.4238 15.679368267461015 11.494779556100958 14.542672907914563 0 0 0
1414 472 1 -0.8476 17.585694487144828 9.725302456116191 13.295045815003952 0 0 0
1415 472 2 0.4238 18.110586880296232 9.54122681883113 12.464019861507687 0 0 0
801 267 2 0.4238 19.264176053800064 10.366615440434156 10.50226674877565 0 0 0
799 267 1 -0.8476 19.20989364816125 9.425994620093004 10.837357621218631 0 0 0
800 267 2 0.4238 20.047890695387807 9.200260331404536 11.334152327073786 0 0 0
1416 472 2 0.4238 18.206661900729603 10.010390749457706 14.02519931686372 0 0 0
1453 485 1 -0.8476 19.097683200784658 14.172966592770683 13.03992857048793 0 0 0
1454 485 2 0.4238 18.661807208426918 13.850534149267197 13.880196050923946 0 0 0
1455 485 2 0.4238 18.40517959901002 14.286101603698079 12.32744051385302 0 0 0
960 320 2 0.4238 16.896488056126437 12.669942931718934 9.00899491724405 0 0 0
530 177 2 0.4238 20.99633859856944 13.354372908910157 12.609167014819052 0 0 0
959 320 2 0.4238 17.53892847541898 13.69435413776547 10.106482267404846 0 0 0
1280 427 2 0.4238 16.382315429606628 14.871262148126897 11.988758356075111 0 0 0
896 299 2 0.4238 20.114857905306756 9.936799431217729 14.711768053212833 0 0 0
1043 348 2 0.4238 20.7573557797064 13.613145722888 14.930982763815223 0 0 0
517 173 1 -0.8476 25.344097783466598 14.745920272498529 13.197916247576725 -1 0 0
492 164 2 0.4238 27.474065704476295 9.783201603924454 14.70462211555395 0 0 0
1071 357 2 0.4238 21.947396822344455 8.910766139221694 12.560048191348443 0 0 0
693 231 2 0.4238 25.41017076167121 10.01248238807169 13.95201864300686 0 0 0
529 177 1 -0.8476 21.62652881959613 12.753509422451605 12.117411632563694 0 0 0
1256 419 2 0.4238 24.877122341014733 9.624886558888411 8.486126017638503 0 0 0
1070 357 2 0.4238 21.920155495351924 9.574641672374025 11.068353288976816 0 0 0
332 111 2 0.4238 22.713409698450654 8.796389086416609 9.301372716800023 0 0 0
1161 387 2 0.4238 26.1503773870246 11.112724225481522 11.773308424671146 0 0 0
462 154 2 0.4238 23.423233954266166 12.634515766200382 9.199601269539382 0 0 0
1255 419 1 -0.8476 24.457134984253425 8.745499438778912 8.710377914309635 0 0 0
630 210 2 0.4238 26.960512676606697 10.609725390829738 8.672916624379248 0 0 0
1069 357 1 -0.8476 21.711316360059236 9.72793484509195 12.034214261777787 0 0 0
1050 350 2 0.4238 28.055513335138034 14.930557073447622 11.223802528117698 -1 0 0
333 111 2 0.4238 21.604356873050527 9.788803039441612 8.629254519239378 0 0 0
1159 387 1 -0.8476 26.93884509443787 11.607239806133707 11.407558489777843 0 0 0
1249 417 1 -0.8476 27.5341141351422 13.24580304192779 13.590321112542908 -1 0 0
1251 417 2 0.4238 27.46695036521923 12.5782270390719 12.848815004384303 -1 0 0
331 111 1 -0.8476 21.768266456597168 9.118880822246094 9.353366300213331 0 0 0
691 231 1 -0.8476 25.8000505227806 10.145604791310612 14.863211376540661 0 0 0
36 12 2 0.4238 23.006700366005216 13.439519778007682 11.338205719187485 0 0 0
35 12 2 0.4238 24.40823858297005 14.150672994379525 11.781577148589392 0 0 0
747 249 2 0.4238 24.358997886478104 14.198526624550125 14.677446417757462 0 0 0
628 210 1 -0.8476 27.66351613593513 10.083324043126938 9.151129712159342 0 0 0
629 210 2 0.4238 27.93611199546848 9.302941171059478 8.588373929990452 0 0 0
518 173 2 0.4238 26.146969853026818 14.151118742681495 13.238010886409329 -1 0 0
289 97 1 -0.8476 24.88309756143208 10.10532453576304 12.264077876706411 0 0 0
1049 350 2 0.4238 27.242340219080734 13.667148904672132 10.58413403775028 -1 0 0
290 97 2 0.4238 24.940483332009794 9.113699326857589 12.148378618228989 0 0 0
1048 350 1 -0.8476 27.9726122461796 14.331994930559908 10.427027295971065 -1 0 0
1160 387 2 0.4238 27.388719908215954 11.04860250555281 10.710753625885838 0 0 0
291 97 2 0.4238 23.924488385625676 10.38892611972503 12.238807545307026 0 0 0
531 177 2 0.4238 21.61522178183064 11.845023646352601 12.535174418767646 0 0 0
34 12 1 -0.8476 23.8519832982855 13.856667176681894 11.004312304770885 0 0 0
363 121 2 0.4238 3.0588816462475235 5.077079818070102 19.8989530594489 0 0 0
438 146 2 0.4238 5.445168000548913 4.654550839810816 16.194689328534228 0 0 0
437 146 2 0.4238 5.266840217814869 3.071632330628197 15.835252699389894 0 0 0
436 146 1 -0.8476 5.728868774613152 3.7259563653080545 16.433909253983977 0 0 0
1264 422 1 -0.8476 6.072125901931689 6.141186854137999 19.177471547440952 0 0 0
1266 422 2 0.4238 5.676736618152658 6.261463807651049 18.26686693030899 0 0 0
1623 541 2 0.4238 5.265291361697406 6.800167387516004 20.568554738427746 0 0 0
1265 422 2 0.4238 7.060269861984463 6.288402825254917 19.13389435070677 0 0 0
361 121 1 -0.8476 3.2408455331626067 5.201992047577218 18.92361410360256 0 0 0
450 150 2 0.4238 2.802208846544554 6.967780983814272 18.74221966488482 0 0 0
448 150 1 -0.8476 2.700887546994691 7.864505480550719 19.17305509892272 0 0 0
362 121 2 0.4238 4.192518256693688 4.964415700753363 18.728995228027806 0 0 0
1327 443 1 -0.8476 5.043573147627511 2.9489715497728928 19.002839014475274 0 0 0
1329 443 2 0.4238 5.526876965010301 2.6551978281924162 18.178148514574254 0 0 0
1621 541 1 -0.8476 5.2944175251838095 7.06539092578022 21.532301666497062 0 0 0
449 150 2 0.4238 2.649187969087325 7.753524639436096 20.165532003723335 0 0 0
1328 443 2 0.4238 5.532269436501935 3.714929855860675 19.42055160776269 0 0 0
787 263 1 -0.8476 7.870036993172766 2.8993755619991104 20.921828074318636 0 1 0
83 28 2 0.4238 8.061059263527056 3.255596799211137 17.16174289064579 0 0 0
84 28 2 0.4238 8.002837937577176 2.7451397858756783 18.711797860612872 0 0 0
82 28 1 -0.8476 8.277992484522297 2.5015929763771543 17.78175757820963 0 0 0
399 133 2 0.4238 5.988433694156544 6.387883954103405 15.944737895726897 0 0 0
397 133 1 -0.8476 5.183068572567019 6.35558338535728 16.536636277376992 0 0 0
398 133 2 0.4238 4.431046156341263 6.8525549406318635 16.10364487012456 0 0 0
1669 557 1 -0.8476 8.099672436392034 6.376961921212393 15.455248020912252 0 0 0
788 263 2 0.4238 7.190937103609301 3.319191232979546 21.52397269350073 0 1 0
726 242 2 0.4238 2.481938725125098 6.656087120241228 15.23010414357147 0 0 0
520 174 1 -0.8476 10.249766801472505 4.7896059292670925 19.572140570136863 0 0 0
521 174 2 0.4238 10.062096494217277 5.407748943853946 18.80880639082395 0 0 0
522 174 2 0.4238 10.621781159673546 3.9301991159902196 19.221391020458093 0 0 0
1209 403 2 0.4238 13.520408773816936 2.8595955481742905 16.795626629715862 0 0 0
1208 403 2 0.4238 12.329715661250994 3.3060195905898313 17.820117713727956 0 0 0
648 216 2 0.4238 12.034117748895344 6.705414134987535 16.186131258241392 0 0 0
1207 403 1 -0.8476 13.106186281724447 3.630301731913545 17.279808109541847 0 0 0
783 261 2 0.4238 10.047562079849987 2.2254009325305275 18.268672436724724 0 0 0
781 261 1 -0.8476 11.024254745280063 2.3188502546078595 18.461904580817666 0 0 0
493 165 1 -0.8476 13.21738340008603 5.4663552371327135 15.345449835211594 0 0 0
253 85 1 -0.8476 9.244834353006006 6.961377949586496 17.73040611117401 0 0 0
254 85 2 0.4238 10.203920112807245 6.989760682068774 17.44871669735303 0 0 0
494 165 2 0.4238 13.152864002019582 4.905815104315216 16.171059916781502 0 0 0
646 216 1 -0.8476 11.77639597028033 7.240036055622634 16.9909659535781 0 0 0
1670 557 2 0.4238 8.459422560349367 5.5044635920779 15.124602419117798 0 0 0
647 216 2 0.4238 12.534704712232173 7.247731779038228 17.64281611100365 0 0 0
219 73 2 0.4238 14.471092728840354 4.719839060683978 18.317387421033903 0 0 0
212 71 2 0.4238 14.68545300212922 7.825526035148306 20.36345255568466 0 0 0
255 85 2 0.4238 9.063451320191716 7.7073016206239675 18.371263406060095 0 0 0
455 152 2 0.4238 9.646233961780844 3.2268128544635872 15.173527745896843 0 0 0
789 263 2 0.4238 8.756344851269937 3.3414988037262408 21.05961566380229 0 1 0
1791 597 2 0.4238 10.052899140284497 5.0729648963194185 21.246663865744175 0 0 0
1671 557 2 0.4238 8.575877170650976 6.637001356558265 16.295253106105235 0 0 0
1632 544 2 0.4238 13.849298198414816 1.8308675343917513 15.268363970885288 0 1 0
213 71 2 0.4238 15.597242399478713 6.508211154955635 20.047306866986577 0 0 0
211 71 1 -0.8476 15.452777493005767 7.268320176882716 20.680839948677644 0 0 0
1318 440 1 -0.8476 16.669375720855992 3.5534759756282335 21.189902298450892 0 0 0
1504 502 1 -0.8476 18.413133202774663 5.57871354601938 20.681779460278527 0 0 0
1505 502 2 0.4238 18.721548764226064 6.166315830172471 19.93371302129847 0 0 0
1506 502 2 0.4238 18.601378109788996 6.025875332808293 21.556199377386285 0 0 0
1515 505 2 0.4238 18.95160674698612 7.012290815696475 18.0852057194723 0 0 0
217 73 1 -0.8476 15.231009829017252 5.1040361333859385 18.8417142372462 0 0 0
218 73 2 0.4238 15.547284075663192 4.432094847361494 19.511389911777144 0 0 0
1320 440 2 0.4238 17.064075798616933 4.43820882594884 20.941991765809064 0 0 0
1578 526 2 0.4238 18.937101420752814 3.4659038216095266 16.956370558412523 0 0 0
1576 526 1 -0.8476 18.35193224364859 3.966618133793494 16.318513041597807 0 0 0
1577 526 2 0.4238 18.684345318975677 4.9053928276787095 16.227939196100834 0 0 0
1513 505 1 -0.8476 19.3835178586679 7.257600336433303 18.953120479490558 0 0 0
953 318 2 0.4238 17.13234085831568 5.886171201333662 16.540375201061995 0 0 0
952 318 1 -0.8476 16.855893149451884 6.4155924155948485 17.342428716838874 0 0 0
954 318 2 0.4238 16.221386192820752 5.8757927991852235 17.89561701762488 0 0 0
1140 380 2 0.4238 17.018382055101558 2.874196679028389 16.15244395340095 0 1 0
64 22 1 -0.8476 19.985332550033228 2.48830703369937 17.8997474009289 0 1 0
1319 440 2 0.4238 17.39968009282963 2.927701094107843 21.463875512378603 0 0 0
65 22 2 0.4238 20.51854881922177 2.7971695937358088 18.687328716918707 0 1 0
103 35 1 -0.8476 19.203751375094484 6.521831777147487 15.523902695409655 0 0 0
104 35 2 0.4238 19.981914692521308 7.107346197153998 15.296669961439141 0 0 0
610 204 1 -0.8476 20.300555702912575 3.61919510677356 20.721045146328443 0 0 0
612 204 2 0.4238 19.709115184426235 4.362287009321323 20.40797560537401 0 0 0
611 204 2 0.4238 19.90216932876969 3.196515317328137 21.53506608740181 0 0 0
573 191 2 0.4238 15.737361989916334 2.1173731343870363 21.0501660352234 0 0 0
1138 380 1 -0.8476 16.357961070092497 2.277859228889149 15.696126335801518 0 1 0
1514 505 2 0.4238 19.363630041826962 8.25097740669497 19.066286159073428 0 0 0
719 240 2 0.4238 16.99176017958027 8.05842706309017 17.275279339030362 0 0 0
201 67 2 0.4238 21.045993112665606 2.4820176279790607 15.436138884238474 0 0 0
593 198 2 0.4238 27.879991229182615 4.77569083505655 18.958609600654672 -1 0 0
753 251 2 0.4238 26.716645948368523 3.958882465611238 16.061023007243712 -1 0 0
752 251 2 0.4238 27.458392354880623 2.571352378862099 15.623759903413605 -1 0 0
751 251 1 -0.8476 27.285054712351705 3.521403495431329 15.364227752026459 -1 0 0
580 194 1 -0.8476 26.603196889872514 6.788037613775082 15.484629985488098 0 0 0
497 166 2 0.4238 22.25970672394313 5.197016901885812 20.229483141772988 0 0 0
496 166 1 -0.8476 22.29014466128247 6.137717299355136 20.56735337453614 0 0 0
498 166 2 0.4238 21.662844331489165 6.234808958523878 21.340054808452795 0 0 0
470 157 2 0.4238 22.183775569258856 7.9880890657152195 20.4853547946857 0 0 0
1553 518 2 0.4238 21.931302017985377 8.066658592775541 15.777508209015012 0 0 0
635 212 2 0.4238 22.287793701564954 7.570118335789843 18.48590834713751 0 0 0
636 212 2 0.4238 23.14858836900848 7.417187142653311 17.106679908536968 0 0 0
594 198 2 0.4238 26.439340266865234 5.073111492290293 19.667617536150324 -1 0 0
592 198 1 -0.8476 26.916009907740023 4.511717653555104 18.991139146762187 -1 0 0
729 243 2 0.4238 24.16567907782848 6.360908686071453 20.230346147115657 0 0 0
198 66 2 0.4238 25.595321063970765 4.829585118677468 17.833801857572343 0 0 0
197 66 2 0.4238 24.21774571032223 4.581795843356185 16.9926638693476 0 0 0
727 243 1 -0.8476 25.14876427960963 6.300950520315025 20.05728978515835 0 0 0
728 243 2 0.4238 25.457321988279425 7.132756770097674 19.59588919645176 0 0 0
965 322 2 0.4238 27.387924032209234 2.642805311484783 19.51381732746479 0 0 0
1358 453 2 0.4238 22.366123054025305 3.917646464338366 18.068858687096217 0 0 0
1359 453 2 0.4238 22.485154942997436 5.4548960644439015 17.530972480206774 0 0 0
196 66 1 -0.8476 25.11063439998171 5.031966318994768 16.982849045998712 0 0 0
1556 519 2 0.4238 24.020757860198433 2.517330507951141 20.266590596598878 -1 1 0
1357 453 1 -0.8476 22.370559182713098 4.500262293738781 17.256123111333626 0 0 0
634 212 1 -0.8476 22.32558737927578 7.122663082471708 17.59240096931794 0 0 0
1555 519 1 -0.8476 23.56297291527059 1.9625543517516368 19.5718558553302 -1 1 0
1031 344 2 0.4238 24.84571499929326 4.408731402325196 21.22490925615313 0 0 0
581 194 2 0.4238 26.0602341120833 6.182881026242723 16.066847235762758 0 0 0
582 194 2 0.4238 26.820682692497584 7.625707907821701 15.985637374799104 0 0 0
1030 344 1 -0.8476 24.91108496539899 3.4148542038955325 21.31398721070719 0 0 0
381 127 2 0.4238 22.826420078276104 4.453220948804211 15.48593909667526 0 0 0
1665 555 2 0.4238 5.904524681345001 11.96970411603724 15.307278025862818 0 0 0
939 313 2 0.4238 4.210732971435318 9.320090000826536 19.31216872714615 0 0 0
602 201 2 0.4238 6.7213162634588075 10.80235218197093 17.54748512856278 0 0 0
603 201 2 0.4238 6.370661234359801 10.559505472068775 19.123776034847594 0 0 0
938 313 2 0.4238 3.9129844113512866 10.851498392077893 18.829716004746043 0 0 0
1439 480 2 0.4238 3.3727409918000357 12.510127426035108 15.965417154077112 0 0 0
937 313 1 -0.8476 4.573814703185786 10.251303799282525 19.28034864469529 0 0 0
601 201 1 -0.8476 7.107232255267416 10.717367777940732 18.466096307655334 0 0 0
1663 555 1 -0.8476 5.675968910633321 11.238330341123895 15.949815698734387 0 0 0
981 327 2 0.4238 7.526953326467963 12.616704971983651 18.76754588790865 0 0 0
979 327 1 -0.8476 7.904314077430173 13.523341583995554 18.95624914015578 0 0 0
823 275 1 -0.8476 3.633461612397419 12.747158592397588 20.549232835709102 0 0 0
824 275 2 0.4238 3.676141688098596 11.752570838161581 20.454503694068347 0 0 0
825 275 2 0.4238 4.218867501397231 13.03522687475393 21.30706963201758 0 0 0
772 258 1 -0.8476 3.948317190665325 12.483994021525683 17.630073959308845 1 0 0
773 258 2 0.4238 4.254250570319701 12.692801372585256 18.5589465325785 1 0 0
774 258 2 0.4238 4.698454591847562 12.065185002719653 17.11831924743013 1 0 0
1395 465 2 0.4238 7.129255724976809 14.650117679691036 19.98554856144917 0 0 0
1131 377 2 0.4238 8.325466021056272 9.602796392127914 19.064550342291042 0 0 0
1685 562 2 0.4238 2.642289924388652 13.734998364865644 17.604250905302813 0 0 0
1684 562 1 -0.8476 1.9014398493271887 14.33185666270259 17.296190296662324 0 0 0
1172 391 2 0.4238 2.2443488013978876 12.950228763336623 21.543605335668904 1 0 0
1664 555 2 0.4238 5.73655387451081 10.355112931941445 15.484781860949626 0 0 0
504 168 2 0.4238 7.433377531737529 14.83817395359556 18.105050203280094 0 0 0
980 327 2 0.4238 8.900888392582894 13.464160312344545 19.014017743041137 0 0 0
1229 410 2 0.4238 12.657601855618749 14.16808780401902 15.420898727052322 0 0 0
1130 377 2 0.4238 9.078916068852127 9.257313712240478 20.471526261967345 0 0 0
607 203 1 -0.8476 13.976801120621218 9.63409813236789 17.133474184945843 0 0 0
1376 459 2 0.4238 11.117917317659888 12.620348129467477 15.450022904386552 0 0 0
1129 377 1 -0.8476 9.062780926349035 9.076541735427169 19.488133588825303 0 0 0
1604 535 2 0.4238 11.49691691731868 10.745731161098808 17.89563105598822 0 0 0
1603 535 1 -0.8476 11.538637767396148 10.151844510748084 18.699097307438663 0 0 0
1605 535 2 0.4238 10.615143644118515 10.005422964598594 19.05366653214745 0 0 0
586 196 1 -0.8476 14.03753657634108 10.032699765854096 20.673252927482014 0 0 0
587 196 2 0.4238 14.786536111180332 10.625926793190079 20.378157365231324 0 0 0
588 196 2 0.4238 13.407620379739443 9.88670124643257 19.910435768786297 0 0 0
258 86 2 0.4238 11.107219745592872 13.053110878656442 19.704643312687253 0 0 0
256 86 1 -0.8476 10.58352863371881 13.53966435569813 19.005348429724002 0 0 0
257 86 2 0.4238 11.147323632345856 14.265708431094215 18.6116541319228 0 0 0
1634 545 2 0.4238 14.227031061523226 13.217005613176234 17.164014598118353 0 0 0
608 203 2 0.4238 13.091506623424788 9.777453428419417 17.575857403822365 0 0 0
1375 459 1 -0.8476 10.966242894281569 11.65370543445449 15.656412752699538 0 0 0
1635 545 2 0.4238 14.452149875668283 11.661532165498109 17.607241817798226 0 0 0
1186 396 1 -0.8476 12.040255648507607 12.170647949645563 21.002229244037913 0 0 0
1187 396 2 0.4238 12.6116179195511 11.728295169804232 20.310948423090526 0 0 0
1188 396 2 0.4238 12.609730453678498 12.752826137457456 21.582545540486265 0 0 0
1633 545 1 -0.8476 14.552105800831637 12.614603035883748 17.89301223100254 0 0 0
1377 459 2 0.4238 10.081780263309895 11.368774220938748 15.286899480955556 0 0 0
1228 410 1 -0.8476 13.594260396056 14.183095158129174 15.77082094407262 0 0 0
812 271 2 0.4238 10.871081235995737 10.741089224709002 21.40396199973889 0 0 0
609 203 2 0.4238 13.841230730766803 9.501878306322046 16.151568595283198 0 0 0
1092 364 2 0.4238 10.357494277816475 14.792681922994715 15.361363546805494 0 0 0
1230 410 2 0.4238 14.236412661636667 14.187948159910748 15.004259194309936 0 0 0
1580 527 2 0.4238 20.954299850662704 14.759875547038941 19.41507601410872 0 0 0
897 299 2 0.4238 19.977844884667164 11.502644800899057 15.154466828454426 0 0 0
1466 489 2 0.4238 16.2465177633226 13.761661253939119 18.46232682877137 0 0 0
1620 540 2 0.4238 17.61599943920996 12.946774397800686 15.847686271575023 0 0 0
1618 540 1 -0.8476 18.311231516502747 13.62671523918842 15.614592275664966 0 0 0
1650 550 2 0.4238 18.572111325187816 10.088759803237592 19.705224552374403 0 0 0
720 240 2 0.4238 15.705384787482718 9.0529778938596 17.426055632924722 0 0 0
718 240 1 -0.8476 16.704026458647935 9.002233406473177 17.43787974506944 0 0 0
1648 550 1 -0.8476 18.80707481646112 9.847758085772252 18.763571574912277 0 0 0
1649 550 2 0.4238 17.998752391912213 9.483326467392338 18.301181638265582 0 0 0
58 20 1 -0.8476 15.90332586332748 11.916055229489581 20.008446789614485 0 0 0
59 20 2 0.4238 16.096485781532923 12.781632722053144 20.47046935441174 0 0 0
60 20 2 0.4238 15.459452449665521 12.098340718022914 19.13109372879471 0 0 0
555 185 2 0.4238 19.796039846789384 10.694026436325407 21.380385349299466 0 0 0
1579 527 1 -0.8476 21.55052306499756 13.968701607492324 19.55131725634573 0 0 0
1082 361 2 0.4238 21.559325012170795 13.735391131371305 21.55999077646968 0 0 0
624 208 2 0.4238 19.892503363745668 11.115857207058102 17.99591180844142 0 0 0
623 208 2 0.4238 20.700702643487002 12.146165639729746 17.02025564310275 0 0 0
622 208 1 -0.8476 20.51879089265255 11.89505012911248 17.970965438597506 0 0 0
1581 527 2 0.4238 21.285999691611842 13.239410054924589 18.920317084949755 0 0 0
405 135 2 0.4238 17.140584635883464 10.872415943679172 20.88497695311849 0 0 0
403 135 1 -0.8476 17.977645091942463 10.660042963427236 21.389186740981682 0 0 0
1353 451 2 0.4238 16.672476697720985 10.687645407841869 16.67723160727526 0 0 0
1619 540 2 0.4238 18.43384716608953 14.254939434556924 16.382901954664522 0 0 0
244 82 1 -0.8476 16.378097382003844 14.500294437049416 20.9382898930954 0 0 0
1352 451 2 0.4238 17.81793498146537 10.977750364949895 15.550115406858621 0 0 0
1465 489 1 -0.8476 16.988290379633128 14.36909828194375 18.178084603344498 0 0 0
1351 451 1 -0.8476 16.891579544198002 11.205363592435194 15.850211762275826 0 0 0
1042 348 1 -0.8476 21.342826662197478 12.930527061520115 15.368310568697709 0 0 0
246 82 2 0.4238 16.61312471012087 14.711887776733576 19.989611647505654 0 0 0
1799 600 2 0.4238 25.14294548839279 14.959985260603684 21.376697385204135 0 0 0
472 158 1 -0.8476 24.06078251569672 8.92610162734962 16.345141512840517 0 0 0
337 113 1 -0.8476 26.356685903918915 8.613930511485599 19.278859005509045 0 0 0
339 113 2 0.4238 26.080696622544146 9.56836507701871 19.165348756206257 0 0 0
338 113 2 0.4238 27.35487413931482 8.55407579485508 19.284995749573714 0 0 0
469 157 1 -0.8476 22.36901125477731 8.937626401556583 20.23224100867605 0 0 0
471 157 2 0.4238 21.818879839894134 9.54791580927765 20.802242995685834 0 0 0
692 231 2 0.4238 25.905753303465737 11.124009013825951 15.040840483201436 0 0 0
108 36 2 0.4238 25.373339166757017 13.08269679919123 16.290660392941923 0 0 0
473 158 2 0.4238 23.61210655960567 9.656301112117333 16.860407074358633 0 0 0
1628 543 2 0.4238 22.824822925573496 9.796296680377598 18.811912130526302 0 0 0
107 36 2 0.4238 26.996734508893102 13.258450420118571 16.308680466150044 0 0 0
474 158 2 0.4238 24.82792463866927 9.305834471088334 15.828134810211834 0 0 0
72 24 2 0.4238 23.383610410666044 14.297398546669049 20.11369425294318 0 0 0
70 24 1 -0.8476 24.376326343490398 14.181681432673678 20.1472297007192 0 0 0
71 24 2 0.4238 24.61791642876501 13.274214476179258 19.803517679427202 0 0 0
1686 562 2 0.4238 27.721899674450047 14.651543943145311 18.087388274749287 -1 0 0
1730 577 2 0.4238 25.830971708824766 11.87945835297977 18.22615880592226 0 0 0
1627 543 1 -0.8476 22.879230106029876 10.545381290463318 18.15167572917958 0 0 0
1629 543 2 0.4238 21.972479797738885 10.949193247524136 18.030268226261867 0 0 0
1729 577 1 -0.8476 25.22582224436223 11.61930219996779 18.97856355187111 0 0 0
1731 577 2 0.4238 24.339533238343318 11.337266297451917 18.611211476175583 0 0 0
174 58 2 0.4238 25.606112636797377 11.324563719475552 20.64860672244366 0 0 0
106 36 1 -0.8476 26.236165694961095 12.669390863626514 16.581707787481935 0 0 0
746 249 2 0.4238 24.009195179250895 14.171100813290838 16.272285715637114 0 0 0
172 58 1 -0.8476 25.967344564864142 11.445392007631161 21.573221246955566 0 0 0
1044 348 2 0.4238 22.30224103671688 13.174415734568317 15.226739480052647 0 0 0
745 249 1 -0.8476 23.916253059274617 13.677811157661642 15.407400128988684 0 0 0
708 236 2 0.4238 6.222804391257151 3.553597803817361 23.462031367441334 0 0 0
57 19 2 0.4238 8.117777463853049 1.92926865568191 23.32493150890856 0 1 0
858 286 2 0.4238 8.307698062599709 7.3962639347650185 23.712958795768078 0 0 0
280 94 1 -0.8476 4.369141036791099 3.2823280161742248 27.93868380196299 0 1 0
309 103 2 0.4238 4.948780734396903 6.544581999893895 26.806505136974994 0 0 0
706 236 1 -0.8476 5.966779002659612 4.2194978764243185 22.76129739958364 0 0 0
707 236 2 0.4238 5.088531613177632 4.633760400829392 23.000186670489583 0 0 0
1134 378 2 0.4238 8.363535719439426 4.420225624700271 27.225496502711202 0 0 0
1201 401 1 -0.8476 3.6378214275970127 5.052011992501822 24.10660007034835 0 0 0
1203 401 2 0.4238 4.224713672776207 5.632059362603932 24.671491689158447 0 0 0
764 255 2 0.4238 6.829331498343766 3.442643123351382 25.903265877714535 0 0 0
765 255 2 0.4238 6.191096312569813 4.90606450332919 26.24631136659449 0 0 0
763 255 1 -0.8476 6.869204768914561 4.225604270051547 26.52405727993033 0 0 0
1202 401 2 0.4238 3.0890470043228695 4.4589009970730595 24.695723130054397 0 0 0
307 103 1 -0.8476 5.080813307864372 6.400611384398744 25.82577078893097 0 0 0
278 93 2 0.4238 4.490890663510004 8.177226264291667 22.540378692819754 0 0 0
1622 541 2 0.4238 6.124320203585668 6.699755525171179 21.95369494861671 0 0 0
281 94 2 0.4238 4.711701103563602 3.189970283660571 27.003738536231825 0 1 0
308 103 2 0.4238 5.3652641792810964 7.258693164895472 25.398239082801854 0 0 0
856 286 1 -0.8476 7.769428330931435 7.017743817989752 22.959972595906443 0 0 0
1759 587 1 -0.8476 2.091844116609404 5.210236603222216 21.818079058350374 1 0 0
1761 587 2 0.4238 2.725560586705704 5.2009736427597115 22.591589002118276 1 0 0
857 286 2 0.4238 8.186454297509277 6.163914228858174 22.648421033658682 0 0 0
784 262 1 -0.8476 6.1989379102137265 2.0458140992441343 24.81744097811412 0 1 0
748 250 1 -0.8476 13.92829992682984 6.79471972132558 23.154398493440294 0 0 0
749 250 2 0.4238 14.726886542342859 6.514985468659786 22.62147432864418 0 0 0
750 250 2 0.4238 13.922705535634583 7.790227682329016 23.248910939071006 0 0 0
1442 481 2 0.4238 14.866986599470339 4.705377546295788 27.913379702164143 0 0 0
55 19 1 -0.8476 9.012689899612095 1.8472044747320162 23.763562564061466 0 1 0
1391 464 2 0.4238 10.39884964815909 2.7608803476455206 24.220410404411307 0 1 0
1132 378 1 -0.8476 9.076049523418632 4.51507150829195 27.920714696892 0 0 0
1715 572 2 0.4238 11.982051804897711 6.931696423690452 27.91308474841186 0 0 0
389 130 2 0.4238 12.799149841860913 2.1336061030572577 23.42779048398676 0 1 0
1750 584 1 -0.8476 10.81633394859274 5.6180934193198615 25.911201167813463 0 0 0
1751 584 2 0.4238 10.161952576956446 5.3111985873302725 26.602287691028383 0 0 0
1752 584 2 0.4238 10.852156367808869 4.951381436145103 25.166747082064358 0 0 0
1789 597 1 -0.8476 9.56992762337097 5.09219125462276 22.122088825980974 0 0 0
1790 597 2 0.4238 10.203734724446626 4.8532594499896815 22.857751895175472 0 0 0
458 153 2 0.4238 12.26223907166892 6.541842933636784 25.92410894875727 0 0 -1
1443 481 2 0.4238 14.467642049168107 5.892802492361814 26.8659197159206 0 0 0
459 153 2 0.4238 13.378265558470376 6.865876931635139 24.776889116258847 0 0 -1
457 153 1 -0.8476 13.225900372103474 6.751496273794667 25.75857232132614 0 0 -1
8 3 2 0.4238 14.393184808418836 4.151826802728419 24.135982239100876 0 0 0
1392 464 2 0.4238 11.53823022990293 2.3470479806792928 25.31456814311947 0 1 0
117 39 2 0.4238 14.577744109648142 8.245020999334118 26.72395537143038 0 0 0
1770 590 2 0.4238 9.872785799761296 7.013068580875245 25.38805363354641 0 0 0
1768 590 1 -0.8476 9.340115644073878 7.814184995668449 25.11515256135246 0 0 0
1390 464 1 -0.8476 11.275601840982219 3.0215483528097677 24.624585840922858 0 1 0
945 315 2 0.4238 15.505620837375321 1.898322625883561 24.74490329650286 0 1 0
1034 345 2 0.4238 20.358880523090804 3.4918090379994435 24.969556655095232 0 1 0
1102 368 1 -0.8476 18.5426942335122 1.9702205720961898 22.25588749486568 0 1 0
977 326 2 0.4238 20.844304463455142 2.0022699545124887 27.278720971458913 0 1 -1
210 70 2 0.4238 16.84217432669529 7.526136855962069 22.138957754369386 0 0 0
9 3 2 0.4238 15.476746498251893 3.7025163824237404 22.99991854999321 0 0 0
1441 481 1 -0.8476 15.220904334957615 5.3469335601999335 27.232829838049497 0 0 0
208 70 1 -0.8476 17.37667726457787 7.257067806538789 22.9401496515144 0 0 0
833 278 2 0.4238 20.278120170973427 7.00356784616466 23.312244486125202 0 0 0
832 278 1 -0.8476 20.956834038099316 6.373040211821326 22.935704463131255 0 0 0
1104 368 2 0.4238 18.863005713489837 2.3899840237062597 23.105121973971432 0 1 0
1551 517 2 0.4238 16.756155902528153 6.09310247177882 27.50273703712387 0 0 -1
209 70 2 0.4238 17.53999791514001 8.058002108020549 23.516197053924657 0 0 0
834 278 2 0.4238 20.882477956962283 5.488907093967576 23.396985075262297 0 0 0
1033 345 1 -0.8476 19.88035612272918 4.03377406757749 24.27869610115782 0 1 0
1035 345 2 0.4238 18.950723280188523 4.227521843534236 24.592136011500727 0 1 0
1699 567 1 -0.8476 17.581579513839717 2.961502001144881 27.195660384057174 0 1 -1
1701 567 2 0.4238 17.462802831072015 3.8156730758512962 26.689415507757065 0 1 -1
1550 517 2 0.4238 17.896087524026388 6.84215811876616 26.604907414531887 0 0 -1
7 3 1 -0.8476 15.272141367033862 3.7015853284524547 23.978762701752043 0 0 0
1324 442 1 -0.8476 19.899127956225133 8.21762461192309 25.30877879661008 0 1 0
826 276 1 -0.8476 17.454861209595624 5.4367008553724 24.962716195957707 0 0 0
827 276 2 0.4238 16.63473104875901 4.880587117821606 24.82809067753987 0 0 0
828 276 2 0.4238 17.602842243103836 6.0124853519698656 24.158618050694525 0 0 0
1700 567 2 0.4238 17.80518331800478 3.1670524030569527 28.148419729879155 0 1 -1
1549 517 1 -0.8476 17.534153331018018 6.72081322729663 27.529179591577883 0 0 -1
348 116 2 0.4238 20.962678700080854 7.104964438432136 25.985419511374594 0 0 0
347 116 2 0.4238 20.98297018550477 5.952509061219551 27.14216553117841 0 0 0
346 116 1 -0.8476 21.522154045414624 6.659354185569921 26.684289199173055 0 0 0
978 326 2 0.4238 20.833350578711784 3.6341008728057247 27.218435304089578 0 1 -1
976 326 1 -0.8476 20.978456644488606 2.7984390031871587 26.68870568498557 0 1 -1
1687 563 1 -0.8476 25.800058362273553 2.834126573834365 27.3179023275399 0 0 0
1689 563 2 0.4238 25.7821913860692 3.833177970199444 27.278189878633242 0 0 0
1688 563 2 0.4238 24.98165813869571 2.5045734410605553 27.78866320818157 0 0 0
1760 587 2 0.4238 27.951335027252394 4.335461856718484 21.77184458633087 0 0 0
1544 515 2 0.4238 27.68886976075994 7.036302037187462 21.702482468235736 -1 0 0
716 239 2 0.4238 21.820392096165694 7.799259499052667 27.61181927925321 0 0 -1
1093 365 1 -0.8476 28.166151712082563 3.698710073539564 25.664249592958285 0 0 0
870 290 2 0.4238 26.320878773712028 7.779530907966702 26.841751240105094 0 0 0
1094 365 2 0.4238 28.151530570045043 3.9384954031960677 26.63496542053223 0 0 0
1543 515 1 -0.8476 27.665956502921297 8.03142503065067 21.798426256521367 -1 0 0
1545 515 2 0.4238 26.949712591299498 8.28728267093906 22.447680849869112 -1 0 0
1095 365 2 0.4238 27.49479946859299 2.978679495193805 25.488630313196552 0 0 0
543 181 2 0.4238 22.714669570062 6.918603086732946 22.968585952156815 0 0 0
974 325 2 0.4238 23.976593207668234 2.512226445250894 24.06936648285242 0 0 0
1032 344 2 0.4238 24.97785727161754 3.1705847727676693 22.281392970536842 0 0 0
973 325 1 -0.8476 24.645765304264756 3.248986091834939 24.166288762631364 0 0 0
975 325 2 0.4238 24.22647341781525 4.018941134647875 24.647291409214237 0 0 0
541 181 1 -0.8476 23.384499411784613 7.323706192568187 23.59085555353066 0 0 0
1018 340 1 -0.8476 24.139128308445482 5.877665907237436 25.795140499040187 0 0 0
1019 340 2 0.4238 23.377741105728166 6.175230268156956 26.371113570166724 0 0 0
1020 340 2 0.4238 24.99554589918512 6.243264325750302 26.159676788956645 0 0 0
868 290 1 -0.8476 26.61719030209358 6.965358733473247 26.342428550414617 0 0 0
542 181 2 0.4238 23.68800736015388 6.634312250738257 24.248593281090887 0 0 0
869 290 2 0.4238 27.292231938704347 7.225140278966948 25.65189807499902 0 0 0
1224 408 2 0.4238 26.482922193282384 6.1557849907225854 27.868925499443897 -1 0 -1
385 129 1 -0.8476 4.361757002218451 10.607924899339904 28.094119746614982 1 0 -1
935 312 2 0.4238 6.316527792818747 14.406175200216692 26.96843780588214 1 0 -1
1424 475 2 0.4238 5.914102032349144 11.462422029940532 22.948154821139873 1 0 0
1423 475 1 -0.8476 4.9420973366866825 11.442040539985985 23.182230591973322 1 0 0
1458 486 2 0.4238 7.26903068619514 9.063045387122424 22.225144827862295 0 0 0
279 93 2 0.4238 2.8926178915599072 8.511928987081271 22.551546905702978 0 0 0
277 93 1 -0.8476 3.7930504539784575 8.817779773540526 22.860863082089526 0 0 0
1425 475 2 0.4238 4.612606644667913 10.498252011500211 23.155790142226408 1 0 0
738 246 2 0.4238 7.970090456188026 13.760547279236873 23.73997240381188 0 0 0
1456 486 1 -0.8476 7.47110532451692 10.041311754009252 22.27162876034562 0 0 0
736 246 1 -0.8476 8.053729833917492 14.60297534870262 23.20769484249164 0 0 0
638 213 2 0.4238 7.105265308516987 12.78219649824141 25.60655507806648 0 0 0
386 129 2 0.4238 4.687051304055718 10.02030731256053 27.353249185105707 1 0 -1
313 105 1 -0.8476 4.905342185430266 9.274981062231952 25.658226111653615 0 0 0
314 105 2 0.4238 4.3508863273397 9.4865907004411 24.85336583653629 0 0 0
315 105 2 0.4238 5.868462077707563 9.451723469248464 25.455341428452805 0 0 0
1118 373 2 0.4238 8.045276393679568 8.712336088735972 25.20581269634385 0 0 0
1117 373 1 -0.8476 7.427826267742436 9.492654078131496 25.106519305719377 0 0 0
481 161 1 -0.8476 3.8534622788763997 12.900567681852166 25.100763401450955 0 0 0
482 161 2 0.4238 4.102241060545548 12.54864458389464 24.19840025341635 0 0 0
483 161 2 0.4238 4.683001576195254 13.068303203561802 25.63342591090361 0 0 0
1119 373 2 0.4238 7.720861056826393 10.053110254057437 24.331910057602066 0 0 0
639 213 2 0.4238 8.149424281624746 11.592109815478263 25.206489806433883 0 0 0
934 312 1 -0.8476 6.14337284824174 13.428561808851988 26.84889943460445 1 0 -1
637 213 1 -0.8476 7.749561833893036 12.460357467289114 24.912796023670758 0 0 0
39 13 2 0.4238 2.6939579231014013 12.051339181592652 26.03379311115254 1 0 0
38 13 2 0.4238 3.0361411474662345 10.883327936659356 27.122501918801095 1 0 0
37 13 1 -0.8476 2.3255176203724193 11.266882542729919 26.532671377951946 1 0 0
123 41 2 0.4238 3.664534193665667 14.92174970152169 24.444367722034645 1 0 0
936 312 2 0.4238 6.835715260295205 12.904357261009242 27.344753825030814 1 0 -1
1394 465 2 0.4238 7.147388164473584 14.908015834693256 21.59793382913902 0 0 0
891 297 2 0.4238 13.613250370689348 9.607281695515127 22.506128906237173 0 0 0
1380 460 2 0.4238 8.629343052966991 10.836580889573122 27.423555864832974 0 0 -1
1378 460 1 -0.8476 8.415340552283343 11.767631016206861 27.719103815954668 0 0 -1
1379 460 2 0.4238 9.235487590457641 12.19249558143222 28.10231255411681 0 0 -1
1457 486 2 0.4238 8.461204620227932 10.178845000195741 22.24355758582087 0 0 0
16 6 1 -0.8476 13.890668489542124 13.818657210966325 22.56908909836914 0 0 0
1769 590 2 0.4238 9.948352740326266 8.602195341451976 25.019825074779693 0 0 0
811 271 1 -0.8476 10.32138980317223 9.993153538174793 21.776025888742833 0 0 0
813 271 2 0.4238 10.868100400707016 9.471540819703886 22.43102794560008 0 0 0
713 238 2 0.4238 14.225096839351421 12.646767822926185 23.63245515409016 0 0 0
712 238 1 -0.8476 14.445990437199956 12.142173946263975 24.467075449838468 0 0 0
714 238 2 0.4238 13.752940496982392 12.3296005954977 25.163173885072972 0 0 0
890 297 2 0.4238 13.556909556171469 10.55713680961412 23.833241361916173 0 0 0
889 297 1 -0.8476 13.461391796957377 9.621142207376211 23.494433950143595 0 0 0
428 143 2 0.4238 11.340277923155561 13.046532895298382 26.044938112275727 0 0 0
427 143 1 -0.8476 11.804770478466143 12.165532289552733 25.955023715475697 0 0 0
62 21 2 0.4238 11.274362603323462 10.643718019874013 25.328845311120574 0 0 0
63 21 2 0.4238 12.110218465891307 9.522040334540034 24.48634270435094 0 0 0
61 21 1 -0.8476 11.211218285919491 9.76928663167181 24.84782291816768 0 0 0
17 6 2 0.4238 14.741600900154204 13.98372553248224 22.070424399580794 0 0 0
429 143 2 0.4238 11.887757323637537 11.739028888573223 26.855694594595636 0 0 0
115 39 1 -0.8476 14.723914973146572 8.524925795712933 27.672790121870285 0 0 0
18 6 2 0.4238 13.858499516639638 14.406716833636063 23.377266700993545 0 0 0
267 89 2 0.4238 15.225258249021747 14.529001532649058 24.64842092922675 0 0 0
1325 442 2 0.4238 20.639314933616028 8.736167836783022 24.880717863484332 0 1 0
1326 442 2 0.4238 19.08944792668917 8.79867416520075 25.39123888648544 0 1 0
1533 511 2 0.4238 16.887857708667156 11.886394460043679 27.84585770857336 0 0 0
404 135 2 0.4238 17.84642675511647 10.872392851226072 22.357530312885906 0 0 0
175 59 1 -0.8476 17.026365069365422 14.93961223236949 27.065975630335362 0 0 -1
553 185 1 -0.8476 20.756227691310244 10.85971120199468 21.605302804538162 0 0 0
554 185 2 0.4238 20.932898159376315 11.84397766288163 21.607963575017923 0 0 0
1081 361 1 -0.8476 21.49899867334361 13.408877483225615 22.50325615293169 0 0 0
1276 426 1 -0.8476 17.466907910555605 9.406249115856749 25.025887652628523 0 0 0
1253 418 2 0.4238 21.480730075642438 10.034314772063489 23.16151431162574 0 0 0
923 308 2 0.4238 20.200426873760097 14.036773249463327 23.913010792660064 0 0 0
922 308 1 -0.8476 19.290818397983397 14.253686197473263 24.267356942342698 0 0 0
924 308 2 0.4238 19.379333937528482 14.778999624762154 25.113649328213935 0 0 0
1277 426 2 0.4238 16.9110164866763 9.578138221014953 25.83917656832895 0 0 0
1278 426 2 0.4238 17.736364243327714 10.277699193231625 24.616048602039022 0 0 0
1532 511 2 0.4238 17.039054793919046 13.23968741399374 26.944545266977098 0 0 0
1106 369 2 0.4238 19.991488110759317 14.240722291595153 27.005017152639272 0 0 0
1272 424 2 0.4238 21.114655842610645 11.742652619345641 26.712445314798156 0 0 0
1531 511 1 -0.8476 17.037094896971094 12.239934137802225 26.922419590509865 0 0 0
1198 400 1 -0.8476 17.582972933578844 11.770424405409496 23.8632771167251 0 0 0
1270 424 1 -0.8476 20.391746289629157 12.391699356261817 26.949384360795467 0 0 0
1199 400 2 0.4238 16.69862579489469 11.832932826860697 24.3259031380005 0 0 0
1271 424 2 0.4238 19.622784540117067 12.278459592648527 26.320198709545295 0 0 0
1200 400 2 0.4238 18.00903579573922 12.674678135325443 23.835070212718595 0 0 0
1574 525 2 0.4238 27.55788698118321 11.296862009569843 28.12766653978153 0 0 0
5 2 2 0.4238 24.90570670985301 8.57923639490174 23.168123024046576 -1 0 0
1510 504 1 -0.8476 26.191716276719404 10.2990103595074 25.65617850791708 0 0 0
990 330 2 0.4238 22.221819694869794 9.704465534840473 27.14870555974034 0 0 0
988 330 1 -0.8476 22.298211463730603 10.482537779832297 26.52519302639443 0 0 0
1512 504 2 0.4238 27.158539630599723 10.36928983876698 25.901766368362644 0 0 0
4 2 1 -0.8476 25.697497256366614 9.189989768054323 23.17505466513768 -1 0 0
1475 492 2 0.4238 27.46382990244967 13.856263408201 23.95301353088074 -1 0 0
1474 492 1 -0.8476 26.978309770953878 13.975337717381702 24.819091766848207 -1 0 0
680 227 2 0.4238 24.890951762859384 12.243506900766393 22.834296199273062 0 0 0
6 2 2 0.4238 25.841137125395402 9.539003895126799 24.10109825328067 -1 0 0
1173 391 2 0.4238 27.058002439550943 12.715159429457898 22.06906478334614 0 0 0
1171 391 1 -0.8476 27.914629179103358 13.201749904134475 22.240588364971654 0 0 0
120 40 2 0.4238 23.654789429750608 13.144413910172446 27.385539207705534 0 0 0
1252 418 1 -0.8476 21.816664692891965 9.566560066351466 23.979043190766664 0 0 0
681 227 2 0.4238 24.291400494783275 12.64527837729893 24.299132180797745 0 0 0
173 58 2 0.4238 25.87676335202692 10.588709284843622 22.081049718360465 0 0 0
1511 504 2 0.4238 25.68426891539513 9.888935182265092 26.414027783504135 0 0 0
1476 492 2 0.4238 27.362583018368074 13.356739231425337 25.50441649608922 -1 0 0
1221 407 2 0.4238 23.441214211701574 11.766377543622784 26.258760777553153 0 0 0
1254 418 2 0.4238 22.56503112599464 8.952629330728325 23.727972018239505 0 0 0
1219 407 1 -0.8476 24.218286110016155 12.382648467164369 26.13081776812053 0 0 0
679 227 1 -0.8476 24.201413540929014 12.786742261851032 23.313287204385315 0 0 0
1220 407 2 0.4238 25.05688566839156 11.84630355918887 26.03550291934479 0 0 0
1744 582 1 -0.8476 25.455217029882398 8.938093274707517 27.990301810379634 0 0 -1
989 330 2 0.4238 22.175368548358417 10.168548978302578 25.58374698403587 0 0 0
1083 361 2 0.4238 22.417231739668914 13.213331447331653 22.847653864544377 0 0 0
873 291 2 0.4238 24.38182276537741 14.995162509794756 25.97746512371036 -1 0 0
742 248 1 -0.8476 4.843070725682509 16.96040463320781 4.053218713371135 0 0 0
743 248 2 0.4238 4.496001066249561 16.367841909904303 3.3262991370299715 0 0 0
744 248 2 0.4238 5.226585047445288 17.791733306735683 3.6509633198844904 0 0 0
304 102 1 -0.8476 3.1628339153100087 18.344584686877983 5.6153025936647225 0 0 0
305 102 2 0.4238 3.7982381468918467 17.83095719332179 5.038719329632894 0 0 0
306 102 2 0.4238 3.6752204551879264 18.839868707013174 6.316839316269753 0 0 0
1012 338 1 -0.8476 6.502039782990356 18.603720732019717 8.044108115276147 0 0 0
796 266 1 -0.8476 5.119638847163113 19.824251578178526 3.2336578932343776 0 0 0
1013 338 2 0.4238 5.838787103240421 19.15629988379234 7.539378322371024 0 0 0
798 266 2 0.4238 4.801658508058976 20.36562791529157 4.011989548489393 0 0 0
1269 423 2 0.4238 3.0525637229556297 20.397007658296115 7.37356467177869 0 0 0
416 139 2 0.4238 2.5678260713494327 16.064563790834526 5.144363879284282 0 0 0
410 137 2 0.4238 6.165898736630169 21.524971231858885 5.879833258639179 0 0 0
409 137 1 -0.8476 5.172363564954377 21.430149759162216 5.817409297102975 0 0 0
411 137 2 0.4238 4.844842612948751 20.853827158298024 6.566129729403873 0 0 0
248 83 2 0.4238 6.764747404744632 20.237208200280328 2.6626025533302884 0 0 1
247 83 1 -0.8476 7.603171726894923 20.65327000035786 2.31055534832153 0 0 1
1057 353 1 -0.8476 3.5179512229341072 15.385859395095872 2.380411977232322 0 0 0
797 266 2 0.4238 4.3979771312840565 19.192916692208673 2.9497201718827277 0 0 0
1322 441 2 0.4238 8.225668024837939 18.226912759692354 7.427234318141238 0 0 0
559 187 1 -0.8476 8.060390113657853 16.129674318911892 1.9823960370037041 0 0 0
762 254 2 0.4238 7.105160978597963 15.140062402650198 3.4683174339125817 0 0 0
415 139 1 -0.8476 2.790567016227095 15.165746082192346 5.521873081982461 0 0 0
761 254 2 0.4238 5.916491532317903 15.538245930295941 4.514807434328059 0 0 0
249 83 2 0.4238 7.764294207000018 21.523547755970725 2.776018745919942 0 0 1
417 139 2 0.4238 3.001144573471261 15.255932924533758 6.495281231664577 0 0 0
1267 423 1 -0.8476 3.8882574262538663 19.904932756007213 7.617446456298793 0 0 0
1059 353 2 0.4238 2.5418523284583987 15.587693206218292 2.4609977136064747 0 0 0
1316 439 2 0.4238 8.873945333410548 19.709879103173748 2.188414750966208 0 0 0
377 126 2 0.4238 10.128034613618635 20.015840595470465 7.287534510622264 0 0 0
376 126 1 -0.8476 10.883586372373827 20.5932864268463 6.9781838169404695 0 0 0
1168 390 1 -0.8476 9.579805339562741 17.625023982426598 4.7111814042108096 0 0 0
1170 390 2 0.4238 9.409463347970211 16.64814568810151 4.840380490866402 0 0 0
1762 588 1 -0.8476 12.492169678844066 18.46547938557694 4.859453295917255 0 0 0
1763 588 2 0.4238 11.536697126716186 18.19199346923793 4.970257879347408 0 0 0
1764 588 2 0.4238 12.535369126799225 19.434023317415022 4.61438910063075 0 0 0
1323 441 2 0.4238 9.558897531619644 17.82745577103139 6.573091653457595 0 0 0
1384 462 1 -0.8476 13.897117327867933 20.785134425266374 2.4842648210114637 0 0 0
1169 390 2 0.4238 9.589716228748774 17.83520196875046 3.7335685010859274 0 0 0
1321 441 1 -0.8476 9.21190728618306 18.367338930948662 7.339984046966654 0 0 0
1116 372 2 0.4238 13.68757991744426 16.25954173413448 5.558489580095316 0 0 0
1114 372 1 -0.8476 13.450541905674609 15.359287236494133 5.923667373054461 0 0 0
1063 355 1 -0.8476 14.166591988203917 20.312655914909595 7.022969665149454 0 0 0
1339 447 1 -0.8476 14.513890431182299 17.840872639701715 3.1909925976390277 0 0 0
1340 447 2 0.4238 13.747753283964041 17.717617815717258 3.821739868764823 0 0 0
194 65 2 0.4238 11.014689728689183 20.792233380398194 5.327960355618066 0 0 0
195 65 2 0.4238 10.933503002925146 20.124092008965153 3.8401356621416864 0 0 0
1065 355 2 0.4238 13.478796506773788 20.849812920694095 7.511231610088097 0 0 0
1064 355 2 0.4238 14.30326427125331 20.69703735160084 6.109968242266094 0 0 0
193 65 1 -0.8476 11.162176943739649 20.952213142627723 4.351920398910644 0 0 0
1115 372 2 0.4238 12.682577177653107 15.44852405266233 6.557912567889086 0 0 0
1341 447 2 0.4238 14.531968993383618 18.78761686461615 2.869513923080755 0 0 0
987 329 2 0.4238 9.044226986719824 21.181504003815153 5.6579753398710615 0 0 0
378 126 2 0.4238 11.346919008367909 20.98904222735955 7.771089999787239 0 0 0
820 274 1 -0.8476 13.23875614949712 15.762823882869716 1.941449772258518 0 0 1
1315 439 1 -0.8476 9.643668058055779 19.07848350581649 2.094252514277559 0 0 0
1385 462 2 0.4238 13.241569583493675 21.53117695852137 2.6012164923810417 0 0 0
999 333 2 0.4238 10.921567977656045 15.389149143512277 8.31811277795048 0 0 0
1608 536 2 0.4238 12.773355876393877 18.964633510883413 8.103202894010344 0 0 0
821 274 2 0.4238 14.065680442998099 16.28488448198466 2.150373068430791 0 0 1
1052 351 2 0.4238 18.08260357239387 19.347384683539495 3.337106123969817 0 0 0
657 219 2 0.4238 17.665575153818455 17.12935491557757 2.9836175872616946 0 0 0
656 219 2 0.4238 16.044969047647314 17.25964165907513 3.1362206943351554 0 0 0
275 92 2 0.4238 17.135214307769 18.760920110896446 6.787741074498691 0 0 0
927 309 2 0.4238 19.881429094216642 17.676567496445927 3.347505491216937 0 0 0
1595 532 2 0.4238 20.49136177868196 18.169643326325303 5.911145063660046 0 0 0
967 323 1 -0.8476 21.099849974331693 16.779054040595963 4.100852774828036 0 0 0
274 92 1 -0.8476 16.627836556508022 19.199568781401307 6.046016623368817 0 0 0
276 92 2 0.4238 15.713229317059376 19.444947175601765 6.367393413478192 0 0 0
1185 395 2 0.4238 21.370909874985884 21.387339200348098 5.40201491375392 0 0 0
1517 506 2 0.4238 19.856179942084882 21.470651130947754 7.466852083759219 0 0 0
1518 506 2 0.4238 20.72560631741434 20.365818848277755 6.636147623538506 0 0 0
1596 532 2 0.4238 21.546456394992152 18.21182770318154 7.156786394124329 0 0 0
1594 532 1 -0.8476 20.844713003799434 18.72575595787813 6.663396120654785 0 0 0
1516 506 1 -0.8476 20.33550492424633 21.28618512248011 6.608819535884932 0 0 0
1051 351 1 -0.8476 17.370964169916423 20.002700741690486 3.5903455853234254 0 0 0
1053 351 2 0.4238 17.112859026947966 19.861694611213764 4.546117004835868 0 0 0
674 225 2 0.4238 19.171256919565092 18.026535635455318 8.108832053258851 0 0 0
655 219 1 -0.8476 16.806187014290995 16.62005659405927 3.0290845571856124 0 0 0
925 309 1 -0.8476 19.13628117372535 18.178563371514723 2.908467089687961 0 0 0
969 323 2 0.4238 20.839869875959508 15.986382246513184 4.6522888775015865 0 0 0
926 309 2 0.4238 19.505682678802685 18.749898441585884 2.1755832204637056 0 0 0
85 29 1 -0.8476 19.813316080215305 15.15533792952293 8.302238544820558 0 0 0
1347 449 2 0.4238 16.886657963678093 20.606022383430624 1.9060241948288996 0 0 1
1547 516 2 0.4238 26.8831012249124 20.827284252372802 3.4602333424930722 -1 0 0
418 140 1 -0.8476 22.65907236583666 20.12057715400634 2.4967446960518616 0 0 0
837 279 2 0.4238 28.07316807858425 18.118612390117526 6.664685056861083 -1 0 0
1546 516 1 -0.8476 27.10111724445 19.918265037625858 3.8154136945125474 -1 0 0
1548 516 2 0.4238 27.989354896623347 19.943839848237086 4.274085475135008 -1 0 0
835 279 1 -0.8476 27.23531826048798 18.004635106979737 7.198554761243393 -1 0 0
1659 553 2 0.4238 23.807932856835112 16.67973094035406 6.404737358815661 0 0 0
1120 374 1 -0.8476 23.548950896649746 18.294847878420367 4.3197887399107815 0 0 0
1121 374 2 0.4238 22.736589519926284 17.72343235759435 4.436207364620105 0 0 0
1122 374 2 0.4238 23.86070021461394 18.61706893172254 5.213648883094235 0 0 0
1657 553 1 -0.8476 23.26577391755115 17.22872102885727 7.040876940426969 0 0 0
1658 553 2 0.4238 23.45315523055265 16.9348278864814 7.978168284895458 0 0 0
113 38 2 0.4238 26.11198510832708 19.65339085582364 7.073542801316554 0 0 0
1644 548 2 0.4238 25.11917261130162 17.951402223305124 3.1142055454087343 -1 0 1
114 38 2 0.4238 25.037021188041688 20.274863438457505 8.134132681665186 0 0 0
112 38 1 -0.8476 25.753913684132897 20.497161099088352 7.473338538878081 0 0 0
420 140 2 0.4238 22.979522481593854 19.45346390301107 3.1692561336259053 0 0 0
1643 548 2 0.4238 26.528530500767847 18.74565886741489 2.891734833031402 -1 0 1
1076 359 2 0.4238 25.723922414430717 15.33146023107722 6.547518397373576 0 0 0
1184 395 2 0.4238 22.323369024044023 20.992707827792117 4.135636556254859 0 0 0
836 279 2 0.4238 27.13875761899129 17.046110807654625 7.4667099590884 -1 0 0
373 125 1 -0.8476 26.42494443865416 15.471700539239878 8.285247388860698 0 0 0
1642 548 1 -0.8476 25.91303507517393 18.053528624898178 2.514745299380761 -1 0 1
771 257 2 0.4238 27.37827635883565 21.46839259903524 7.30674159332788 -1 0 0
968 323 2 0.4238 21.61449423576457 16.47345893035741 3.299757953481466 0 0 0
1075 359 1 -0.8476 25.048621694390043 15.312648127144652 5.810215852773295 0 0 0
419 140 2 0.4238 23.39095398843762 20.77279667697667 2.2993643921489046 0 0 0
1142 381 2 0.4238 26.940903719312345 16.86159079747745 1.965197169107061 0 0 1
579 193 2 0.4238 3.828539943023414 27.676622042440066 2.271302853821585 0 0 1
1433 478 2 0.4238 6.612259749533219 23.53573482265181 2.5371217519661475 0 0 0
577 193 1 -0.8476 3.590445798927095 26.712823761688583 2.3913197383924807 0 0 1
1434 478 2 0.4238 5.514856554165369 24.389808505034683 3.3932122069032165 0 0 0
986 329 2 0.4238 8.053216857357153 21.870958329294965 6.757601709033146 0 0 0
985 329 1 -0.8476 8.161584318698623 21.631833722953996 5.792678957731087 0 0 0
109 37 1 -0.8476 3.97100098433194 24.93900776265335 4.419386963823147 0 0 0
111 37 2 0.4238 3.23904107789453 24.491251327938922 4.932951828815858 0 0 0
110 37 2 0.4238 3.5736767255892072 25.582362218579767 3.7649952787725423 0 0 0
1040 347 2 0.4238 4.805529456935896 26.168263622983435 5.437409717655104 1 -1 0
1039 347 1 -0.8476 5.1758316118501195 26.752933056610534 6.159239314903604 1 -1 0
1041 347 2 0.4238 5.277964830523477 26.220735832971414 6.9996766539182405 1 -1 0
769 257 1 -0.8476 1.9592433698541531 21.831642269527382 7.17816234344544 0 0 0
1432 478 1 -0.8476 5.7743443851551275 24.078435672484677 2.4790387962576856 0 0 0
770 257 2 0.4238 1.9037420930119742 22.761287380989458 6.813910267240817 0 0 0
485 162 2 0.4238 8.259068615957569 22.728606235664884 4.286976408225994 0 0 1
484 162 1 -0.8476 8.334869570081748 23.107731951298646 3.364741130701185 0 0 1
1651 551 1 -0.8476 8.090842470955215 25.14363925150491 5.950723012169549 0 -1 0
1652 551 2 0.4238 7.565340132677159 24.30734887691372 5.794307853550486 0 -1 0
756 252 2 0.4238 8.277075442092622 26.49573739137301 4.8791070563719945 0 0 1
1625 542 2 0.4238 5.952396606441799 28.15922296233311 6.8319789468084275 0 -1 0
676 226 1 -0.8476 5.5947901179904775 25.713994517586432 8.366048751190863 0 0 0
677 226 2 0.4238 6.587946241071497 25.83078763825037 8.365517559730215 0 0 0
1538 513 2 0.4238 4.232685245116345 22.671954290264004 7.856679343092187 0 -1 0
328 110 1 -0.8476 2.150590547018315 28.119917551412644 6.748881395255654 0 -1 0
972 324 2 0.4238 4.151793960823808 23.298885610833825 1.8719115988138768 0 0 1
1767 589 2 0.4238 14.74766386562426 21.60706531776581 3.921534176640552 0 0 0
1239 413 2 0.4238 13.241254623214001 23.876611195787085 2.1973048677552858 0 0 0
1411 471 1 -0.8476 11.85510242203468 22.856244571350185 2.576359079258 0 0 0
486 162 2 0.4238 8.94735592426455 23.898092023395748 3.378576678649795 0 0 1
1640 547 2 0.4238 9.463475239794773 26.201925386610508 3.326350214036971 0 0 1
1176 392 2 0.4238 13.287048980140762 24.624544007477567 5.777029470763008 0 0 0
1174 392 1 -0.8476 13.961950356069663 24.091471463383243 6.287266470124857 0 0 0
1413 471 2 0.4238 11.48579453929651 22.30878375628361 3.3272907297628325 0 0 0
682 228 1 -0.8476 12.325230403995555 25.43467535072523 4.637672939616477 0 0 1
755 252 2 0.4238 8.920942188326238 27.955336590857936 5.227865260772064 0 0 1
1175 392 2 0.4238 14.031425264997408 23.175626965513555 5.891789425573375 0 0 0
683 228 2 0.4238 13.012138281689497 25.57729516862255 3.9250600326881724 0 0 1
684 228 2 0.4238 11.44480546876059 25.22154382854302 4.2140848287297015 0 0 1
1639 547 1 -0.8476 9.96681033120251 25.3802155959599 3.0590548610657446 0 0 1
1653 551 2 0.4238 8.568318554978621 25.078286091022843 6.826933919209138 0 -1 0
501 167 2 0.4238 13.476845787345477 27.889002704816146 6.77479799693379 0 0 0
302 101 2 0.4238 14.850388363137794 24.072184457375442 8.040157318878947 0 0 0
888 296 2 0.4238 9.723976247192947 28.107660378585404 3.3393958997073194 0 0 1
1661 554 2 0.4238 12.039189977745785 26.426617424906734 5.847638614931841 0 -1 0
1662 554 2 0.4238 12.017261220866729 26.26686517779467 7.47263856703745 0 -1 0
1660 554 1 -0.8476 12.088720257923123 26.918087515882835 6.717123463009856 0 -1 0
754 252 1 -0.8476 8.654897604806314 27.33564575061743 4.489486264512338 0 0 1
1641 547 2 0.4238 9.90350416028742 25.257999580349 2.068572365377097 0 0 1
406 136 1 -0.8476 19.85834276462668 27.917414083392433 5.577350827829081 0 0 0
320 107 2 0.4238 19.27140337908445 25.265227291234126 2.198131390890754 0 0 0
1765 589 1 -0.8476 15.117545440428312 21.805368889739544 4.829203342127571 0 0 0
686 229 2 0.4238 18.098395279738035 21.85912803648833 4.089530799156688 0 0 0
685 229 1 -0.8476 18.123365717764628 22.2786084013058 4.9969517052260795 0 0 0
1766 589 2 0.4238 16.113344505393997 21.8788517693481 4.7745728686539834 0 0 0
687 229 2 0.4238 18.939815818969112 21.969532792728888 5.484682676601457 0 0 0
11 4 2 0.4238 20.94604121640289 26.895405095122644 3.3274227100111324 0 -1 0
408 136 2 0.4238 18.982597493780144 27.809773278187272 5.1067303037754606 0 0 0
1727 576 2 0.4238 17.41721350752499 23.7548292432246 5.974114249542148 0 0 0
464 155 2 0.4238 15.011213043776662 25.466873148810983 5.830363969138772 0 0 0
124 42 1 -0.8476 17.407056271524706 27.573445890449378 4.133744717941314 0 0 0
126 42 2 0.4238 17.709419863300955 27.162354909246517 3.2737560764130373 0 0 0
319 107 1 -0.8476 19.98584877121045 24.57173376276031 2.2910534423443023 0 0 0
463 155 1 -0.8476 15.362883247200049 26.284735881537863 5.374920648348511 0 0 0
465 155 2 0.4238 15.043088336948065 27.09929365089689 5.8588905397325 0 0 0
178 60 1 -0.8476 20.026251447085823 25.797348089418083 7.1727919841315915 0 0 0
179 60 2 0.4238 20.21741259963732 26.447639391020648 6.437551454215665 0 0 0
180 60 2 0.4238 19.17875110052647 25.3062369868066 6.971414111739101 0 0 0
125 42 2 0.4238 16.62207070681226 27.06535676831837 4.488206432631328 0 0 0
1726 576 1 -0.8476 17.24742744707367 24.487123118493646 6.63359766398897 0 0 0
1728 576 2 0.4238 16.648896825026537 25.17431459246473 6.221858702281954 0 0 0
1232 411 2 0.4238 17.54194983647806 24.615145615712784 8.340934070821152 0 0 0
351 117 2 0.4238 21.361127622359156 24.598391688191604 7.830233617326199 0 0 0
1419 473 2 0.4238 21.218133101700126 24.60967299735863 3.4277860924435215 0 0 0
10 4 1 -0.8476 21.40303023890991 27.165321279385232 2.4798931902913415 0 -1 0
238 80 1 -0.8476 24.962090741317645 25.870626707118884 1.8624520297743326 0 0 0
239 80 2 0.4238 24.624485319301748 26.61860903726683 2.4338932015740187 0 0 0
1527 509 2 0.4238 24.85660409702668 22.01868634979479 7.069207147929971 0 0 0
2 1 2 0.4238 27.603292169496353 24.97544674256297 6.576268034091346 -1 0 0
1 1 1 -0.8476 27.77427517188538 24.279216281489457 5.879110980061804 -1 0 0
3 1 2 0.4238 27.18132046071106 24.444082769302288 5.0909334926211915 -1 0 0
1678 560 1 -0.8476 24.567662966117172 22.437998776835837 2.289616269510701 0 0 0
22 8 1 -0.8476 27.10782274540209 22.80119535864079 2.734981383660693 -1 0 0
1525 509 1 -0.8476 24.081120150635396 22.61801137430215 6.8706267765321725 0 0 0
23 8 2 0.4238 26.780957743646038 23.38181068747678 3.480665707326925 -1 0 0
354 118 2 0.4238 25.501715142712616 25.167964396104868 3.2977139402742592 0 0 1
349 117 1 -0.8476 21.96122917396601 23.973178004486016 8.329218564472844 0 0 0
350 117 2 0.4238 22.25968729113641 23.23941520955519 7.718878566532916 0 0 0
1526 509 2 0.4238 23.40402819730721 22.118877697403935 6.329875392493126 0 0 0
1418 473 2 0.4238 22.15098077122207 23.489302072596757 4.163442745777508 0 0 0
1448 483 2 0.4238 22.938276670150632 24.99540891615634 5.186974894012024 0 0 0
1449 483 2 0.4238 23.82890445785667 24.249233397375495 6.334420201691956 0 0 0
1447 483 1 -0.8476 23.586251754851123 25.13374245836238 5.9359689665678586 0 0 0
1183 395 1 -0.8476 22.030575994685346 21.736511396654816 4.736493022410817 0 0 0
1417 473 1 -0.8476 22.036146918432514 24.46650705926022 3.984882951004897 0 0 0
1698 566 2 0.4238 23.869720342947318 26.772342359754376 6.718221879938322 0 0 0
1696 566 1 -0.8476 24.289813242870068 27.647752454246515 6.957343442980057 0 0 0
1697 566 2 0.4238 24.681721668737147 27.589633251113028 7.875510064012008 0 0 0
353 118 2 0.4238 25.365006425779107 25.335862119465844 4.916277370104394 0 0 1
352 118 1 -0.8476 25.8288880040669 24.838297558316274 4.183308483432446 0 0 1
12 4 2 0.4238 22.15699331858169 26.53566246756815 2.292624786101503 0 -1 0
24 8 2 0.4238 28.029591320620277 23.08514719479965 2.4709472031192985 -1 0 0
1679 560 2 0.4238 24.150673305486034 23.24483325191183 2.7081108964432965 0 0 0
1284 428 2 0.4238 27.740239129965882 26.757994507128775 7.459036088102903 0 0 0
1283 428 2 0.4238 26.392852272930398 26.466363534840543 8.334322628996317 0 0 0
1282 428 1 -0.8476 27.109580628647986 26.049344758992273 7.7753988374860805 0 0 0
1680 560 2 0.4238 25.562669005101256 22.537779697936855 2.2922143813600715 0 0 0
1014 338 2 0.4238 6.027095677548955 17.859654009197424 8.513994068146383 0 0 0
1301 434 2 0.4238 7.441778128839418 20.942152213455913 14.739952126364816 0 0 0
1300 434 1 -0.8476 7.169479294656633 19.999128388964113 14.931157281520624 0 0 0
851 284 2 0.4238 6.805275353766035 16.451358446409458 14.130332295083678 0 0 0
100 34 1 -0.8476 8.131413560366795 17.177428361303388 14.438480040266114 0 0 0
294 98 2 0.4238 4.487854389381275 16.270831832568152 8.541248087449457 0 0 0
1268 423 2 0.4238 3.8831334519094676 19.704414386293955 8.59712299899556 0 0 0
292 98 1 -0.8476 5.320636114655369 16.402971617980807 9.078848008557472 0 0 0
850 284 1 -0.8476 5.911387298736377 16.00707427273198 14.070534986526168 0 0 0
293 98 2 0.4238 5.947856870147007 15.641698414364386 8.914357177973457 0 0 0
1084 362 1 -0.8476 4.802788118534836 16.79560971328911 11.590688447583096 0 0 0
1085 362 2 0.4238 4.934052149767494 16.50520511376603 10.642830376619996 0 0 0
1086 362 2 0.4238 4.11603938727742 16.21322462366482 12.025664064731815 0 0 0
596 199 2 0.4238 4.303684670199482 18.27527074414762 10.8283883786782 0 0 0
595 199 1 -0.8476 4.0287470024361625 19.152298610399534 10.43439421542415 0 0 0
597 199 2 0.4238 4.798076678690047 19.790085817012294 10.471263285550371 0 0 0
1026 342 2 0.4238 2.323374090364952 18.934638222761443 10.231996147680865 0 0 0
863 288 2 0.4238 7.726291293716447 16.36410553169075 11.082251189193268 0 0 0
1756 586 1 -0.8476 5.9241792918476515 21.109984668183273 10.881852044501159 0 0 0
1758 586 2 0.4238 6.762378937213963 20.7216406848275 10.498954793124277 0 0 0
864 288 2 0.4238 8.11738028943628 17.32484259798296 12.343464962531451 0 0 0
1645 549 1 -0.8476 2.1955868096204205 15.901046735540586 12.596716217520296 1 0 0
605 202 2 0.4238 8.077759254876034 19.527045482515984 9.011538615310096 0 0 0
317 106 2 0.4238 2.7256088701562176 21.377610774982344 11.03361296916958 0 0 0
852 284 2 0.4238 5.271453490870451 16.6087177391328 13.59250793613758 0 0 0
233 78 2 0.4238 8.379873739013005 15.49284827570374 9.270793118660535 0 0 0
478 160 1 -0.8476 3.885408091741421 21.395001806246423 13.875904328601044 0 0 0
101 34 2 0.4238 7.901647457682737 18.126638478474234 14.653439784250331 0 0 0
1520 507 2 0.4238 8.233166767574618 21.56098426107985 8.993347872464565 0 -1 0
1757 586 2 0.4238 6.134966556153358 21.575982097074355 11.741162887843082 0 0 0
479 160 2 0.4238 3.4479781968302703 21.41888053404057 12.976968906330562 0 0 0
1646 549 2 0.4238 2.14944615250123 15.179925803301145 13.287987250372613 1 0 0
1534 512 1 -0.8476 13.484185539935504 20.18907071631008 14.9458654512308 0 0 0
26 9 2 0.4238 13.285975808952925 21.19833006568113 9.685741949511884 0 0 0
1535 512 2 0.4238 14.153453930380508 19.46954617212615 14.760489476833017 0 0 0
862 288 1 -0.8476 8.419114296932719 16.982123585423313 11.453801954890366 0 0 0
1495 499 1 -0.8476 9.893926911224234 16.588074767837885 9.192587780531035 0 0 0
1496 499 2 0.4238 9.913448741047883 17.36326407108467 8.561160474890952 0 0 0
1497 499 2 0.4238 9.695179268268545 16.915523620357337 10.116317515582955 0 0 0
263 88 2 0.4238 12.993334784165416 15.40284083851327 9.053815728591196 0 0 0
341 114 2 0.4238 10.570396856824681 21.00853601928832 11.672403353461139 0 0 0
1406 469 2 0.4238 13.106063175163799 21.053775294653803 13.513384380033528 0 0 0
1606 536 1 -0.8476 12.460731302982252 18.26733535805227 8.748215422704774 0 0 0
1607 536 2 0.4238 13.194190424073884 17.60607237367101 8.90559707090446 0 0 0
1296 432 2 0.4238 10.212977695328215 17.06610142939113 13.002928496092855 0 0 0
412 138 1 -0.8476 12.547246495697477 15.134588520168384 12.19557075915232 0 0 0
413 138 2 0.4238 12.450791325104886 15.99826219189752 12.690307243395601 0 0 0
1294 432 1 -0.8476 11.160169708887802 17.37855084427814 13.07505791173119 0 0 0
1295 432 2 0.4238 11.29951139812494 17.818061653264635 13.962421502621151 0 0 0
1422 474 2 0.4238 11.643611614897404 18.94058388171654 10.18856267723758 0 0 0
1420 474 1 -0.8476 11.006631621272525 19.17520253184095 10.92287226913412 0 0 0
1421 474 2 0.4238 11.222664751695262 18.635589015080644 11.73659638645225 0 0 0
604 202 1 -0.8476 8.44041568584425 20.10936718345445 9.7391248642914 0 0 0
262 88 1 -0.8476 13.617495630693462 15.686355267405396 9.781856116402615 0 0 0
264 88 2 0.4238 13.420831355396917 15.16410051023812 10.611659184275359 0 0 0
29 10 2 0.4238 14.53616605053298 20.646167652433522 11.585397987764992 0 0 0
606 202 2 0.4238 9.283189516579371 19.708318795885795 10.098140826428107 0 0 0
1405 469 1 -0.8476 13.185902687615599 21.465895808579592 12.60575982424901 0 0 0
1245 415 2 0.4238 11.881968307434597 19.59103239537776 14.983397497460645 0 0 0
190 64 1 -0.8476 20.033739929050764 19.887908363718843 14.716701913147384 0 0 0
673 225 1 -0.8476 18.34105968730647 18.41230770919075 8.511265231179081 0 0 0
87 29 2 0.4238 20.228303142286737 15.869613179992589 8.865795644761402 0 0 0
633 211 2 0.4238 16.60511613293882 21.020850754206975 14.961145406160536 0 0 0
1738 580 1 -0.8476 16.37238364420296 16.501794610928894 14.491392365961156 0 0 0
28 10 1 -0.8476 15.30894909347733 20.306680155559267 11.049156803203807 0 0 0
30 10 2 0.4238 15.908798971027885 21.069860492232465 10.808873848889998 0 0 0
369 123 2 0.4238 19.869520571649513 15.733608010946586 12.721538719436216 0 0 0
675 225 2 0.4238 18.146115977201585 17.952836813667453 9.37780054267667 0 0 0
1004 335 2 0.4238 15.63577040179544 20.10121038103141 12.577170382962848 0 0 0
1003 335 1 -0.8476 16.05798784983974 19.972572520016122 13.474491243801381 0 0 0
1667 556 2 0.4238 19.108361207435014 21.564865836721257 13.53523700506511 0 0 0
1281 427 2 0.4238 16.884275243867105 16.06118382181145 10.989383926473197 0 0 0
1016 339 2 0.4238 15.753220902131305 18.229555357876755 10.324176616870293 0 0 0
1015 339 1 -0.8476 16.088913806639606 17.291798555391413 10.235168452807166 0 0 0
1017 339 2 0.4238 15.355988070385957 16.706984077804645 9.887588401659723 0 0 0
1717 573 1 -0.8476 19.140492435121878 21.0581128552516 9.09009081671179 0 0 0
1718 573 2 0.4238 18.820487356975995 20.152082093499843 8.813134125627801 0 0 0
137 46 2 0.4238 20.62293646283286 20.7739692759596 9.96750927980013 0 0 0
1109 370 2 0.4238 21.320069998717024 19.384953504280315 13.461638537159372 0 0 0
136 46 1 -0.8476 21.520302349210404 20.577730053797175 10.362761899863212 0 0 0
366 122 2 0.4238 17.445837296653046 17.46778653239217 13.764784227527395 0 0 0
367 123 1 -0.8476 20.241570686054732 16.65598504262876 12.61761892434432 0 0 0
191 64 2 0.4238 19.2095998372493 19.45922952239571 14.346529574768592 0 0 0
364 122 1 -0.8476 17.966897764555448 18.15140447919984 13.25374363069831 0 0 0
365 122 2 0.4238 18.827750688782345 17.74950841660735 12.941634999387826 0 0 0
1739 580 2 0.4238 16.16562833210762 15.659148130518245 13.994201104988754 0 0 0
1337 446 2 0.4238 20.723297452629975 17.194949566595497 10.764710884440005 0 0 0
1336 446 1 -0.8476 20.83519083511329 17.437924946525314 9.801153498646451 0 0 0
368 123 2 0.4238 20.873744506909592 16.846957595699998 13.368542185546728 0 0 0
1005 335 2 0.4238 16.81813526602589 19.327603315966293 13.395810677532792 0 0 0
1279 427 1 -0.8476 17.114566920128297 15.168075061778861 11.375806605172933 0 0 0
86 29 2 0.4238 18.862553705715477 15.020794943833636 8.581432191332459 0 0 0
1080 360 2 0.4238 25.934397454257766 21.2081262053964 11.150906598193131 0 0 0
1732 578 1 -0.8476 25.822529732649098 20.067315502231725 14.377149983205047 0 0 0
375 125 2 0.4238 27.092736223398322 15.198122277604984 8.97749666983169 0 0 0
1734 578 2 0.4238 26.665627327883083 20.325953147795 14.848629583209862 0 0 0
1692 564 2 0.4238 26.970354760229117 17.011532386613727 14.501474970305864 0 0 0
1647 549 2 0.4238 27.82875007574647 16.58280654299128 12.778440313233018 0 0 0
1110 370 2 0.4238 21.738652386337673 19.284259969048435 11.886431854874406 0 0 0
1024 342 1 -0.8476 27.671494656434007 18.841295387695272 10.169796386657104 -1 0 0
1690 564 1 -0.8476 26.136441223656917 16.99779422043619 13.949750875922213 0 0 0
1000 334 1 -0.8476 22.078810802193402 16.741976056542097 14.538489942456419 0 0 0
1001 334 2 0.4238 22.37541682014564 17.580993843206365 14.082338625687042 0 0 0
1108 370 1 -0.8476 22.07257303755445 19.211731123889727 12.826238518676458 0 0 0
1338 446 2 0.4238 21.613414657664265 18.05803074165963 9.701974444051817 0 0 0
1025 342 2 0.4238 27.423932680745168 18.513409272085173 9.258092617114539 -1 0 0
1235 412 2 0.4238 24.182786906686026 19.615207805945236 9.985702024452408 0 0 0
1234 412 1 -0.8476 23.839523859139163 19.880295590661355 9.084647671709032 0 0 0
374 125 2 0.4238 25.5895719798046 15.788178571979186 8.734685382141986 0 0 0
1079 360 2 0.4238 26.506431156538103 19.686013686514006 11.000648758145577 0 0 0
250 84 1 -0.8476 24.271713049349355 16.2572931917072 9.698966317469262 0 0 0
540 180 2 0.4238 23.421925704599595 18.63533981886328 12.205644435706063 0 0 0
1733 578 2 0.4238 25.900788142061554 20.29345614152778 13.406204035879496 0 0 0
539 180 2 0.4238 24.924975051122495 18.814375438488327 11.592932917941456 0 0 0
251 84 2 0.4238 24.157778978643268 16.98290575916059 10.377571821058636 0 0 0
538 180 1 -0.8476 24.132075709025447 18.207389523078152 11.646586732452473 0 0 0
1236 412 2 0.4238 22.976921743054792 20.37530356842349 9.188977395623915 0 0 0
1078 360 1 -0.8476 25.91425330079547 20.28636653255428 11.538144662720756 0 0 0
252 84 2 0.4238 23.915818171842215 15.398155274396293 10.066690229145728 0 0 0
519 173 2 0.4238 25.58862329841938 15.658460737273819 13.525753360637893 -1 0 0
138 46 2 0.4238 21.862873496901482 21.391469464346212 10.832307617024773 0 0 0
1691 564 2 0.4238 25.651339249278518 17.865621870096614 14.057227594115618 0 0 0
917 306 2 0.4238 7.553634192658148 22.49204766011329 13.448930195134947 0 0 0
480 160 2 0.4238 3.4625636130706945 22.07875858292295 14.470613683851349 0 0 0
916 306 1 -0.8476 8.392983340867698 22.383649574939934 13.981605389363255 0 0 0
157 53 1 -0.8476 5.0476015954526 28.019450367772702 13.906312613341132 0 -1 0
1429 477 1 -0.8476 3.7807818228796215 27.358833574404024 9.600224525118321 0 -1 0
1519 507 1 -0.8476 7.980289272740805 22.35454245536954 8.439887517156215 0 -1 0
426 142 2 0.4238 5.84361251368177 26.985844163594486 12.606170821337134 0 -1 0
1431 477 2 0.4238 4.29622099255664 26.74836127790353 8.998854391523627 0 -1 0
316 106 1 -0.8476 2.4319530687589586 21.958046958602917 11.793126041516231 0 0 0
1539 513 2 0.4238 4.797328820759525 22.386765117679587 9.362159752630477 0 -1 0
424 142 1 -0.8476 5.810851368434164 26.292869251105923 11.885953855389168 0 -1 0
525 175 2 0.4238 1.847638993275741 25.6229365310476 13.52896829500369 0 0 0
678 226 2 0.4238 5.3730964462992565 24.74582889250787 8.482269396342213 0 0 0
584 195 2 0.4238 5.26352941223043 22.40295340192504 13.163145061188539 0 -1 0
585 195 2 0.4238 5.657118885948146 23.82696301084511 12.46750833483063 0 -1 0
583 195 1 -0.8476 6.011486597127124 22.946296391671055 12.781912264768568 0 -1 0
1537 513 1 -0.8476 4.468969235047264 23.09142041176209 8.733159832910967 0 -1 0
1125 375 2 0.4238 2.5987022197015768 23.890463863327664 9.14589867609945 0 0 0
1461 487 2 0.4238 2.5018218092090763 26.638869124036685 10.800854920693638 0 -1 0
425 142 2 0.4238 5.152275236340392 26.57010227188239 11.186368742308963 0 -1 0
1521 507 2 0.4238 8.072660362260665 23.18604793880011 8.987670515123202 0 -1 0
1794 598 2 0.4238 7.4810100083663205 26.015938476860224 11.79338527645889 0 -1 0
1792 598 1 -0.8476 8.398380738938867 25.778992560279473 12.113209564646814 0 -1 0
159 53 2 0.4238 4.8742136834875485 27.30216841554436 14.581177957693392 0 -1 0
1737 579 2 0.4238 12.368016204421519 24.85934668945408 14.684978617875146 0 0 0
153 51 2 0.4238 10.32350245726421 28.094073919035505 13.573678143410898 0 -1 0
25 9 1 -0.8476 12.707221073828197 21.666822084600085 9.018240500228721 0 0 0
1311 437 2 0.4238 12.870824579564736 27.097866353557198 12.287856610882015 0 -1 0
1309 437 1 -0.8476 13.513562596690553 26.69818126180448 11.634297379605762 0 -1 0
1735 579 1 -0.8476 12.998612526760034 25.514639921945705 14.2691191972557 0 0 0
27 9 2 0.4238 12.529555252696063 22.6007492543092 9.328425763734177 0 0 0
342 114 2 0.4238 9.55434155324843 22.003805481285056 12.47471053482504 0 0 0
340 114 1 -0.8476 10.346504481867404 21.963786282144376 11.865714345809385 0 0 0
1407 469 2 0.4238 12.317041077117409 21.893469195170006 12.356239282215515 0 0 0
1736 579 2 0.4238 13.797601354488279 25.029187270470008 13.914221217049807 0 0 0
143 48 2 0.4238 8.613505089292184 26.598497033813675 8.805329828437136 0 -1 0
1703 568 2 0.4238 9.051568671564016 25.269551102074193 13.798362991512318 0 0 0
144 48 2 0.4238 9.09045395718212 25.156366745706958 9.404835045030424 0 -1 0
142 48 1 -0.8476 8.467863725496633 25.609898032610502 8.767111927035447 0 -1 0
152 51 2 0.4238 9.532464752181488 27.486131854868557 12.280893439397712 0 -1 0
1793 598 2 0.4238 8.832110124674116 25.163408818914775 11.455231238764476 0 -1 0
1702 568 1 -0.8476 9.276772958647694 24.713787357721735 14.598619006521433 0 0 0
169 57 1 -0.8476 10.0487337353852 24.255769500360614 10.4792672054957 0 0 0
171 57 2 0.4238 10.890241116052708 24.532477277232875 10.015264905376052 0 0 0
170 57 2 0.4238 10.206373092540186 23.401005203086125 10.973764757761016 0 0 0
1210 404 1 -0.8476 12.379657957506822 25.389546683833817 9.31214452821232 0 0 0
1211 404 2 0.4238 12.440653826135811 26.187764251250403 9.91141760377435 0 0 0
1613 538 2 0.4238 14.223832490632244 22.896283831475866 12.551598016329297 0 0 0
1212 404 2 0.4238 13.280193431524388 24.961849484067898 9.233971864421928 0 0 0
1612 538 1 -0.8476 14.556208269645415 23.830146414879472 12.419586589336747 0 0 0
1343 448 2 0.4238 14.46052846390885 27.707135712997314 10.282128082809573 0 0 0
1310 437 2 0.4238 13.76489363449526 25.77793084538658 11.934250510164834 0 -1 0
301 101 1 -0.8476 14.900737837659676 24.17995897596085 9.033056902710406 0 0 0
918 306 2 0.4238 8.724888540777702 23.282660255732953 14.267295315871054 0 0 0
133 45 1 -0.8476 8.957342907918859 28.13467225743978 8.560283915326055 0 -1 0
516 172 2 0.4238 18.305681295141945 24.818583951465964 14.893989649940236 0 0 0
758 253 2 0.4238 19.72500754153379 26.371977044099197 8.743889872452504 0 0 0
1719 573 2 0.4238 18.37159991848762 21.588347993572835 9.447379209986963 0 0 0
1342 448 1 -0.8476 15.013833879141185 28.13351341268887 9.566547776557279 0 0 0
1666 556 1 -0.8476 19.020160950143584 22.378573697327045 12.960693506087063 0 0 0
1668 556 2 0.4238 19.761952058681402 23.01592208150882 13.169339111098921 0 0 0
1089 363 2 0.4238 17.886438933044708 22.109822895247678 11.478266971172648 0 0 0
1087 363 1 -0.8476 17.157112827789465 22.304947016482963 10.82251548660155 0 0 0
303 101 2 0.4238 15.840217895667607 24.397825178765157 9.297464804055252 0 0 0
1233 411 2 0.4238 18.13730474661997 25.49253155480601 9.582857152187408 0 0 0
1231 411 1 -0.8476 17.53200680938181 24.736604433610893 9.333480740647165 0 0 0
1614 538 2 0.4238 15.50447552009128 23.80482747180587 12.103124628165077 0 0 0
1088 363 2 0.4238 17.354620808622858 23.163938435350133 10.35015509470536 0 0 0
1694 565 2 0.4238 18.43961975165547 27.956288774471595 10.015810972039366 0 0 0
515 172 2 0.4238 18.038399391087193 23.4474789877573 14.048260344881145 0 0 0
392 131 2 0.4238 20.08290941227194 24.98365675951802 13.900913848661814 0 0 0
757 253 1 -0.8476 19.35051297264568 26.620902173198594 9.637080836352109 0 0 0
356 119 2 0.4238 21.220281913976585 23.87669585507683 11.496281142283438 0 0 0
1471 491 1 -0.8476 19.320793441729194 26.45396678423419 14.3682692305779 0 0 0
391 131 1 -0.8476 20.747648344200574 24.293567488614613 13.614733921730949 0 0 0
759 253 2 0.4238 20.00609658570611 26.37921277120921 10.352480276712816 0 0 0
1291 431 1 -0.8476 21.478110285397204 26.174494983000127 11.249170462696473 0 0 0
514 172 1 -0.8476 17.66093485420776 24.07143897968355 14.732507706503249 0 0 0
1472 491 2 0.4238 18.84659677225769 27.256389605539038 14.0059777256736 0 0 0
1344 448 2 0.4238 15.983045778996956 27.97827763662422 9.757676390384315 0 0 0
1293 431 2 0.4238 21.639200374398555 27.02515137624009 10.748736966734102 0 0 0
1672 558 1 -0.8476 24.70326469489448 27.895642927893928 14.283741611437206 0 0 0
962 321 2 0.4238 24.837750986379884 26.322003401286572 9.503306809672704 0 0 0
662 221 2 0.4238 23.67264901282855 26.365543436230613 13.653948944155566 0 0 0
1709 570 2 0.4238 23.315187055307344 24.63709860253826 9.192634583577561 0 0 0
370 124 1 -0.8476 25.893685628431445 27.82034717401296 11.96583010813926 0 -1 0
906 302 2 0.4238 24.25060586493533 22.61036914321987 13.27271346156545 -1 0 0
847 283 1 -0.8476 25.851555493511825 22.81062087457474 10.398744514514723 -1 0 0
524 175 2 0.4238 27.126062201035808 24.482125387247255 14.01310192610391 -1 0 0
963 321 2 0.4238 25.214896026000083 27.70698113827825 10.281911190797153 0 0 0
523 175 1 -0.8476 27.837097043732204 25.116662642958655 14.316073745917013 -1 0 0
848 283 2 0.4238 25.264414321157826 23.58812733787074 10.173469253388612 -1 0 0
393 131 2 0.4238 21.60876834935438 24.74052734072399 13.372454687494745 0 0 0
849 283 2 0.4238 26.665992222304492 22.828915993756908 9.818780633377903 -1 0 0
961 321 1 -0.8476 25.236956580219246 27.233200088427296 9.401544875695702 0 0 0
371 124 2 0.4238 26.62422055008761 27.184372123966725 11.717124531251011 0 -1 0
318 106 2 0.4238 27.85112651887909 22.29968343439007 11.614166063141312 -1 0 0
1123 375 1 -0.8476 27.971230331735292 23.9878248807742 9.371761091505418 -1 0 0
1460 487 2 0.4238 27.8652002571664 25.333456753566058 10.728763891709617 -1 -1 0
1459 487 1 -0.8476 28.066172641355156 26.176661556084845 11.227377732087245 -1 -1 0
1124 375 2 0.4238 27.592165751933656 24.77311572180946 8.882242614492691 -1 0 0
1708 570 1 -0.8476 23.86231111926524 25.020236294313765 9.936852809499811 0 0 0
661 221 1 -0.8476 23.175941591526556 25.576177545666514 13.293139813931232 0 0 0
904 302 1 -0.8476 24.859669421699778 23.38005261067508 13.081326566081993 -1 0 0
1710 570 2 0.4238 23.271188857285424 25.212984355759822 10.720065843237423 0 0 0
357 119 2 0.4238 21.957359720798856 23.172927549035723 10.220329351156215 0 0 0
905 302 2 0.4238 25.113361711264492 23.37184082240088 12.114076449120043 -1 0 0
355 119 1 -0.8476 21.901690847918665 23.19958690580939 11.218422661073893 0 0 0
1292 431 2 0.4238 22.10890728362545 26.11850248988292 12.023095515758154 0 0 0
1674 558 2 0.4238 25.20503552813504 27.765535506220214 13.428581924741186 0 0 0
663 221 2 0.4238 23.774629609250564 24.775207098229775 13.297498687925666 0 0 0
527 176 2 0.4238 4.908086376717948 20.391880137077532 17.014615608119257 0 0 0
502 168 1 -0.8476 7.4705389537061135 15.763805056565628 17.728452155027718 0 0 0
503 168 2 0.4238 7.91760937186929 16.372589999904356 18.383821466167085 0 0 0
526 176 1 -0.8476 4.886682084587235 19.87296098702305 16.160060301541474 0 0 0
528 176 2 0.4238 4.255924410650415 20.311218459281676 15.519689202263015 0 0 0
1720 574 1 -0.8476 4.112639002004333 19.686101263777275 19.040456785375227 0 0 0
1721 574 2 0.4238 4.3075563788304025 18.705788536480153 19.008926277509307 0 0 0
43 15 1 -0.8476 4.2192817115114885 21.569017380273827 20.791896304605704 0 0 0
1112 371 2 0.4238 4.848353661658965 16.503256257560917 18.230106323886545 1 0 0
44 15 2 0.4238 4.081183631844146 20.935472110072745 20.03061494333787 0 0 0
853 285 1 -0.8476 4.609116416822932 17.073135487279384 16.237033588013546 0 0 0
854 285 2 0.4238 5.3048784150771855 16.587221104222852 15.70807002203056 0 0 0
1374 458 2 0.4238 6.628378304846803 20.054196935974886 21.16644512465036 0 0 0
855 285 2 0.4238 4.764388863045695 18.058468073718668 16.166251093299454 0 0 0
1111 371 1 -0.8476 4.790105722610402 16.80574108761895 19.181479071653943 1 0 0
1113 371 2 0.4238 5.44485175590736 16.291487651309605 19.735420436004677 1 0 0
1610 537 2 0.4238 7.588202968862124 19.451646164894377 16.717263337319842 0 0 0
1611 537 2 0.4238 7.649919289046149 18.778332051707483 18.203690495300485 0 0 0
1609 537 1 -0.8476 8.0127013944626 19.505625613425348 17.621081519153176 0 0 0
1302 434 2 0.4238 6.191507210611459 19.969974902542564 15.137847090335649 0 0 0
1373 458 2 0.4238 6.576007684022873 18.53105014979558 20.580008699277354 0 0 0
1722 574 2 0.4238 3.137389574832875 19.837384140175374 18.879205285766457 0 0 0
1470 490 2 0.4238 2.861113852624365 16.89474849220601 15.817760220561732 1 0 0
1468 490 1 -0.8476 1.9959204844513139 16.47644949684172 15.541234659062674 1 0 0
669 223 2 0.4238 3.9334023426050355 16.420801616113824 20.971011499704677 1 0 0
1101 367 2 0.4238 7.540502049190688 21.287808531473406 17.72159120033649 0 0 0
1372 458 1 -0.8476 6.622046393279159 19.084703874961207 21.411482084224318 0 0 0
1469 490 2 0.4238 1.8761592389067439 15.608588801512472 16.02339133233811 1 0 0
667 223 1 -0.8476 3.135993156511993 16.302756107316906 21.56279173577375 1 0 0
1393 465 1 -0.8476 6.836757344945074 15.265748364528353 20.717288650265793 0 0 0
468 156 2 0.4238 1.979236038003204 15.944355200068582 20.431334184688808 1 0 0
1774 592 1 -0.8476 8.45699927624255 17.619545623374723 19.561014517404278 0 0 0
1776 592 2 0.4238 9.28926948309433 17.939429258208794 19.10824441794298 0 0 0
1775 592 2 0.4238 8.668976435519632 17.359381898838212 20.503023286149784 0 0 0
102 34 2 0.4238 8.828496061600097 16.85050645151336 15.076600758774287 0 0 0
1742 581 2 0.4238 9.763614869828078 19.530200177311787 18.062357818791245 0 0 0
1243 415 1 -0.8476 11.106280133117323 19.02531863024106 15.263175609855091 0 0 0
1522 508 1 -0.8476 13.598706202867199 19.190309534620596 18.648834887340808 0 0 0
1523 508 2 0.4238 13.864945945557059 19.983947172944877 18.101792203028108 0 0 0
1723 575 1 -0.8476 10.257681737133248 16.62987739284698 16.26134910168389 0 0 0
1724 575 2 0.4238 10.964715853487942 17.329181262428474 16.15610245654394 0 0 0
1725 575 2 0.4238 10.37922925104011 16.162107927791986 17.136802086966817 0 0 0
1524 508 2 0.4238 13.280466455711998 19.495702251180436 19.54630842567707 0 0 0
1741 581 1 -0.8476 10.617394802841579 19.49903019648272 18.58205798070325 0 0 0
1743 581 2 0.4238 11.389514596495808 19.645757487434786 17.96375212891726 0 0 0
1260 420 2 0.4238 14.004547536408635 17.73886317246932 19.186852554697705 0 0 0
1258 420 1 -0.8476 14.341363288497542 16.833636136811833 19.44592621811258 0 0 0
1536 512 2 0.4238 13.764188668125948 20.704020103511382 15.756066276236801 0 0 0
1259 420 2 0.4238 14.594479165367979 16.836482122055017 20.413358000338 0 0 0
558 186 2 0.4238 13.04068755411791 15.841079909263055 18.652474499759908 0 0 0
1244 415 2 0.4238 10.417003895895714 19.599653130618027 15.704806847987353 0 0 0
809 270 2 0.4238 10.245109697790202 15.3307948140314 20.852165172118493 0 0 0
1675 559 1 -0.8476 14.40230484745106 21.574286013945 17.22740671802539 0 0 0
1216 406 1 -0.8476 9.735781770374562 21.52452133355356 16.194397548577143 0 0 0
557 186 2 0.4238 12.17192108122419 15.673690262184172 17.279939612478167 0 0 0
556 186 1 -0.8476 12.152024604380166 15.580191176710768 18.27536015237109 0 0 0
1288 430 1 -0.8476 13.30134570328327 19.89835216663941 21.2059374293113 0 0 0
1289 430 2 0.4238 13.743043614180833 20.765858092170117 20.97716587361966 0 0 0
1784 595 2 0.4238 10.211894614219357 19.9882456943459 20.64077787391748 0 0 0
1785 595 2 0.4238 11.487908002580479 20.62850927438391 21.433544470071944 0 0 0
1783 595 1 -0.8476 10.490458101351814 20.560420645400608 21.412152108018375 0 0 0
808 270 1 -0.8476 9.914347821291491 16.003589968326576 21.513937989199057 0 0 0
1331 444 2 0.4238 15.327112411828034 16.916495307490802 18.04919134455839 0 0 0
1330 444 1 -0.8476 15.987238733289038 17.012282161670324 17.304169117845277 0 0 0
589 197 1 -0.8476 17.31532787684027 19.37375615122134 17.416445792745535 0 0 0
590 197 2 0.4238 18.27127887127312 19.09610212447359 17.321230575004822 0 0 0
591 197 2 0.4238 17.164930850590363 20.22741019105451 16.91779209047568 0 0 0
1332 444 2 0.4238 16.40291825313869 17.921009149802902 17.34192885609734 0 0 0
1467 489 2 0.4238 16.60429548376431 15.180768631118811 17.737926490583362 0 0 0
1156 386 1 -0.8476 20.144036272638363 18.83489941450918 17.40100277691191 0 0 0
1157 386 2 0.4238 20.19402025073231 17.983878016790484 17.923749544069313 0 0 0
1158 386 2 0.4238 20.632927178679836 19.556434225036522 17.89128147234731 0 0 0
192 64 2 0.4238 20.29792457868017 19.426293809238565 15.563530392831613 0 0 0
1656 552 2 0.4238 19.713888939262453 16.731628056755618 19.952598593631038 0 0 0
13 5 1 -0.8476 21.338173527556165 20.856471078039977 18.806342945494425 0 0 0
1654 552 1 -0.8476 19.56309229358743 16.16836021832288 19.140201083877574 0 0 0
1274 425 2 0.4238 17.290037831964298 19.51361054025673 19.459116654832208 0 0 0
631 211 1 -0.8476 16.96803362762112 21.421797835135447 15.802294816408171 0 0 0
81 27 2 0.4238 19.08820662481973 18.856082818651778 20.615406363620462 0 0 0
1273 425 1 -0.8476 17.69973276732242 19.704180147966063 20.351211540242506 0 0 0
79 27 1 -0.8476 19.860730873088762 18.30574387523926 20.93216073725362 0 0 0
1275 425 2 0.4238 17.945758143111668 20.67194322201283 20.405120231518563 0 0 0
1655 552 2 0.4238 18.654007007829758 15.754250927921536 19.185780013632158 0 0 0
1740 580 2 0.4238 15.861833242656271 16.51534299998285 15.35113344829308 0 0 0
245 82 2 0.4238 16.974609798024783 15.016797478184161 21.552616797965243 0 0 0
865 289 1 -0.8476 28.083176216658025 20.96922043476474 16.086614872810316 0 0 0
544 182 1 -0.8476 23.972009941709285 15.244838393888019 17.67507985570014 0 0 0
467 156 2 0.4238 27.004450887397255 15.06691929067748 20.83545105048359 0 0 0
843 281 2 0.4238 23.448383445947318 18.632209955339615 17.084661566229023 0 0 0
14 5 2 0.4238 21.708327134753468 20.460516862963576 19.64670391951555 0 0 0
91 31 1 -0.8476 22.78929646661489 19.888445526944462 21.01027838981466 0 0 0
93 31 2 0.4238 23.438244751825852 19.128436505346674 21.045667798211618 0 0 0
15 5 2 0.4238 22.01622577509613 21.46859551270759 18.39946602785884 0 0 0
32 11 2 0.4238 27.42554671767725 17.16701999772501 17.192354127402808 0 0 0
31 11 1 -0.8476 27.184948422911216 17.420071168264073 18.12941205819448 0 0 0
33 11 2 0.4238 27.307843786722977 16.630027764942078 18.730018543700606 0 0 0
1144 382 1 -0.8476 27.821725693466277 19.684893353399957 19.102244287494322 0 0 0
1146 382 2 0.4238 27.519927889366862 18.752302155934764 18.90427523974493 0 0 0
1145 382 2 0.4238 27.34151861250778 20.026169817594802 19.91028607750265 0 0 0
360 120 2 0.4238 23.45201757414318 21.357686014965783 20.99557134693649 0 0 0
841 281 1 -0.8476 24.150971379648244 17.934285063475336 16.945841392084233 0 0 0
842 281 2 0.4238 25.05604176203383 18.350033378211073 17.035289375506206 0 0 0
545 182 2 0.4238 24.035614013221544 16.22660422905418 17.495942012126793 0 0 0
1002 334 2 0.4238 22.610698129179237 16.611579002763005 15.375205234400438 0 0 0
1348 450 1 -0.8476 23.37808147147016 20.914344331585784 15.793854856058248 0 0 0
867 289 2 0.4238 27.919605083590174 20.582283244216555 16.994097156391156 0 0 0
1350 450 2 0.4238 24.34778846783325 20.928420712728947 15.549989736140773 0 0 0
466 156 1 -0.8476 27.43750297779918 15.602911585918319 20.110759290866632 0 0 0
1349 450 2 0.4238 22.855877937026662 20.48130314842959 15.059158454596824 0 0 0
546 182 2 0.4238 24.454491533488877 15.028969250413752 18.523968556592884 0 0 0
45 15 2 0.4238 5.197922552794523 21.660712339455287 20.975891245430763 0 0 0
1383 461 2 0.4238 3.2576349073631556 27.57866842025927 18.716551445242136 0 0 0
447 149 2 0.4238 7.214249581959199 27.602577265554068 20.537916548871856 0 -1 0
89 30 2 0.4238 2.574398208673856 22.347899206849824 20.7951506137468 0 0 0
395 132 2 0.4238 5.181181943812781 25.305063986665708 16.190724849937137 0 -1 0
225 75 2 0.4238 2.453555884988023 23.96855698683663 15.212718142355822 0 0 0
701 234 2 0.4238 6.228283838316442 23.255604346758965 17.254611936424116 0 -1 0
223 75 1 -0.8476 3.055842599217869 23.239608637786333 15.538117924615797 0 0 0
224 75 2 0.4238 3.851020641904777 23.641899717167355 15.991829030822082 0 0 0
394 132 1 -0.8476 4.750367317496446 26.021233828854044 15.641635135133278 0 -1 0
1446 482 2 0.4238 1.9812895441300125 27.128523578638937 17.16009581274572 0 0 0
1382 461 2 0.4238 3.9565484634706043 26.128128900217433 18.988730498553423 0 0 0
700 234 1 -0.8476 5.423738175825894 23.842653149482206 17.164723226317196 0 -1 0
702 234 2 0.4238 5.1376561841092325 24.156960148066094 18.069912822298292 0 -1 0
1381 461 1 -0.8476 3.323635009955149 26.632068788166322 18.40096766398192 0 0 0
445 149 1 -0.8476 7.2879956018120255 26.625166494052383 20.339851639500775 0 -1 0
446 149 2 0.4238 8.144092613548828 26.447055590663048 19.854697630339764 0 -1 0
1100 367 2 0.4238 8.06958563950433 22.283813572839136 18.90255309947322 0 0 0
1099 367 1 -0.8476 7.706605497152446 22.241669285452804 17.971709785422693 0 0 0
1312 438 1 -0.8476 6.695169731500734 22.194896081735344 21.42921611542948 0 0 0
396 132 2 0.4238 4.003785221020568 26.436221475557897 16.161635545055358 0 -1 0
1313 438 2 0.4238 6.884252040613691 23.02279365599284 20.901169254881466 0 0 0
48 16 2 0.4238 4.706126192913156 24.52561533666674 20.434344863814456 0 0 0
46 16 1 -0.8476 4.959843302238445 25.014857584572304 19.599917124993244 0 0 0
47 16 2 0.4238 5.771377800298395 25.572560164265234 19.774214546298314 0 0 0
1490 497 2 0.4238 8.28313327734595 25.697051184332583 21.581372163871645 0 0 0
866 289 2 0.4238 2.313979718633764 21.784766829505678 16.170269388256553 1 0 0
782 261 2 0.4238 11.337094960359854 27.869879659537553 18.988019927162014 0 -1 0
149 50 2 0.4238 10.872227834909827 22.803942669708103 16.139862428712828 0 0 0
188 63 2 0.4238 9.471930473367191 25.80150652576624 17.515663501002415 0 -1 0
1704 568 2 0.4238 9.110456178457477 25.243892393767776 15.430079997429308 0 0 0
477 159 2 0.4238 13.178449547615063 27.189428121365577 20.028662112459237 0 -1 0
921 307 2 0.4238 13.76482554363134 24.4093240352228 17.660459812581763 0 -1 0
919 307 1 -0.8476 12.960941439605929 23.89866921194482 17.965422103322748 0 -1 0
1677 559 2 0.4238 13.862182295737185 22.398402661848415 17.397992121247423 0 0 0
475 159 1 -0.8476 12.274922693512321 26.765495325012562 20.091273677744056 0 -1 0
1217 406 2 0.4238 9.246463901703356 21.69055701125036 15.338243253404732 0 0 0
452 151 2 0.4238 10.682450349428978 26.210183355028406 19.463778759766956 0 0 0
1218 406 2 0.4238 9.19841420699515 21.87907872665833 16.959593704366657 0 0 0
453 151 2 0.4238 9.970705783861737 24.746765105970695 19.59962130424135 0 0 0
168 56 2 0.4238 13.68664464790148 23.101727442389336 21.056799517313674 0 0 0
167 56 2 0.4238 12.697663539483969 23.81401187612287 19.96997214011298 0 0 0
451 151 1 -0.8476 9.8178202481762 25.712938297140568 19.391930722705737 0 0 0
166 56 1 -0.8476 12.880830653185111 23.683111726145533 20.944300092709092 0 0 0
920 307 2 0.4238 12.337196343536258 23.767679753780453 17.194848409900334 0 -1 0
476 159 2 0.4238 12.129745928316265 26.42592091884074 21.020581446750697 0 -1 0
187 63 1 -0.8476 9.169843174013133 26.320206391930157 16.715854953644836 0 -1 0
400 134 1 -0.8476 10.67874882287395 28.075682061041448 15.32338754037985 0 -1 0
1631 544 2 0.4238 13.144718661917805 26.699606377568255 15.284367452093697 0 0 0
189 63 2 0.4238 8.479638675089486 26.98854388603179 16.99324050420449 0 -1 0
148 50 1 -0.8476 11.279094136589158 23.682113904676537 15.888317016018604 0 0 0
402 134 2 0.4238 10.028808769891967 27.54463012557164 15.867043469602852 0 -1 0
1630 544 1 -0.8476 13.38958637170974 27.49365370086888 15.840720445323674 0 0 0
536 179 2 0.4238 9.1275778668583 23.622678510985654 21.419433373109204 0 -1 0
535 179 1 -0.8476 9.426841269120413 23.046969481530756 20.658512529996482 0 -1 0
537 179 2 0.4238 9.77258474698458 22.17841900936919 21.013592133515186 0 -1 0
150 50 2 0.4238 10.624979067572651 24.20937936073344 15.345984447062703 0 0 0
401 134 2 0.4238 11.602774725472965 27.93730966073682 15.679799114512349 0 -1 0
1139 380 2 0.4238 16.160339672272436 27.832524332909493 16.28037713966545 0 0 0
66 22 2 0.4238 19.338291363835467 28.12545974051379 18.190945059613497 0 0 0
600 200 2 0.4238 19.972712425075635 21.86906031885526 20.055713590747626 0 0 0
1597 533 1 -0.8476 15.02629692155386 22.03508725839576 20.832227537242247 0 0 0
1676 559 2 0.4238 15.285983833927741 21.83013427511662 16.83542060075947 0 0 0
710 237 2 0.4238 16.438765319730745 24.516713454946153 20.89468524183195 0 0 0
632 211 2 0.4238 17.34486091310161 22.326741872313978 15.604614553086986 0 0 0
880 294 1 -0.8476 16.56897058265132 23.61058704546073 19.316690917439818 0 0 0
881 294 2 0.4238 17.541527720225538 23.51082240808122 19.106501404627117 0 0 0
882 294 2 0.4238 16.086056599842447 23.94711307519537 18.508270039102193 0 0 0
950 317 2 0.4238 15.850076838418415 25.550474508437965 17.284909853241373 0 0 0
949 317 1 -0.8476 15.5623627580512 24.6879304421226 16.868690750323783 0 0 0
1166 389 2 0.4238 19.63073727490605 23.40044787006044 18.075462849700365 0 0 0
1165 389 1 -0.8476 19.424938917398844 24.246008379189615 17.5828428526799 0 0 0
778 260 1 -0.8476 15.978074241397552 27.077999264778324 18.269967826236694 0 0 0
779 260 2 0.4238 16.95413627095107 26.913807593258582 18.412600254117354 0 0 0
1167 389 2 0.4238 20.1620309094305 24.442979939540106 16.93639285483651 0 0 0
1097 366 2 0.4238 19.015382148435595 25.900196898561983 18.427392896030952 0 0 0
1098 366 2 0.4238 18.977766435691844 26.705403667188722 19.84755260996855 0 0 0
1096 366 1 -0.8476 18.67130365304731 26.71400900241977 18.895708866975447 0 0 0
285 95 2 0.4238 20.120464453755787 25.11152975087782 21.559419919750763 0 0 0
598 200 1 -0.8476 19.038729665636236 22.12040795154063 20.30968322009042 0 0 0
951 317 2 0.4238 16.071152064854452 24.541122542680515 16.020409616525953 0 0 0
1777 593 1 -0.8476 21.31907371912194 23.870150402791296 21.46411608474825 0 0 0
711 237 2 0.4238 15.940480749035002 26.041339525713642 21.20104177614897 0 0 0
599 200 2 0.4238 19.00664013815482 22.342640098756554 21.284148783864268 0 0 0
283 95 1 -0.8476 19.31384837430598 25.6915381477057 21.44557458609545 0 0 0
1598 533 2 0.4238 15.636120809321193 22.37592718634066 20.116725636865574 0 0 0
571 191 1 -0.8476 15.188025043519724 27.63831113228688 20.89396618067539 0 -1 0
780 260 2 0.4238 15.533814543589461 27.233504513659632 19.152266776983897 0 0 0
1473 491 2 0.4238 20.014571971178015 26.745838641532995 15.026662859805569 0 0 0
1182 394 2 0.4238 23.92495858530791 23.444129568626746 18.08822743406394 0 0 0
1180 394 1 -0.8476 23.379331654513944 22.60815942600429 18.146923030592845 0 0 0
1181 394 2 0.4238 23.39665884541216 22.13624533878028 17.26544877529608 0 0 0
439 147 1 -0.8476 26.73257110128172 25.220957857752737 20.13220768350348 0 0 0
441 147 2 0.4238 27.417277904780274 24.493935107006422 20.183339993771238 0 0 0
88 30 1 -0.8476 28.082853439523124 22.808295806436625 21.10101843445283 -1 0 0
1444 482 1 -0.8476 28.08019619848765 27.442739381465778 16.242345035925418 -1 0 0
1445 482 2 0.4238 27.771825194305865 26.66505568407788 15.694517151812773 -1 0 0
440 147 2 0.4238 27.180065697352486 26.084526426697256 19.89983317278284 0 0 0
156 52 2 0.4238 22.32289728196545 25.68190905784136 16.702175062868676 0 0 0
154 52 1 -0.8476 21.62022474730404 25.12031043690944 16.265301742540643 0 0 0
359 120 2 0.4238 23.776919781423178 22.59123713449705 19.976053477359624 0 0 0
90 30 2 0.4238 27.404598650685557 22.124991013820022 21.371323820676775 -1 0 0
844 282 1 -0.8476 24.007630450948866 26.836003782506474 16.846417263453827 -1 0 0
548 183 2 0.4238 23.657554042692666 25.420405053213052 20.655778832545035 0 0 0
21 7 2 0.4238 24.968866138617283 25.44512421002931 17.702979086220477 0 0 0
358 120 1 -0.8476 23.6505476035377 22.335882896787982 20.934606702776048 0 0 0
19 7 1 -0.8476 24.824223445263332 24.746692928592637 18.40388723739556 0 0 0
1779 593 2 0.4238 22.19122643473272 23.386895324508252 21.38786537997785 0 0 0
1194 398 2 0.4238 25.700475469087337 24.664005238387272 21.32373203602161 0 0 0
547 183 1 -0.8476 22.818042447224133 25.963008047626765 20.68410323091488 0 0 0
549 183 2 0.4238 22.03528898295492 25.358503102271715 20.831990976288353 0 0 0
846 282 2 0.4238 24.163965044781275 27.297977537292102 15.973411109596146 -1 0 0
20 7 2 0.4238 25.42377791429059 24.92766539398781 19.183491884284255 0 0 0
845 282 2 0.4238 23.63077998654704 27.487081211609677 17.505266190604456 -1 0 0
909 303 2 0.4238 28.088590162974214 27.519174765790524 21.18806794154795 0 0 0
966 322 2 0.4238 26.17147716727625 27.90655838740704 19.67090713437952 0 -1 0
1557 519 2 0.4238 23.27980916082256 27.43366042888422 19.973966916242198 -1 0 0
155 52 2 0.4238 21.977777412606123 24.744498556087684 15.410362258258859 0 0 0
964 322 1 -0.8476 27.15689407778385 28.04569190452297 19.768863129175433 0 -1 0
1056 352 2 0.4238 8.035941326548883 19.16042876564315 22.39407730058429 0 0 0
737 246 2 0.4238 7.5603331637896325 15.339734502987165 23.670021214766166 0 0 0
817 273 1 -0.8476 3.4983619177738365 18.188185387753133 27.850152812392906 0 0 -1
819 273 2 0.4238 2.84351551209611 18.531183215827003 27.17670743604767 0 0 -1
818 273 2 0.4238 3.5481130587102814 17.191298832142667 27.788980766218963 0 0 -1
560 187 2 0.4238 7.662018187439177 17.002800253244605 28.043223794822385 0 0 -1
563 188 2 0.4238 3.3774018166444004 20.07394832060258 22.161218409666876 0 0 0
734 245 2 0.4238 5.470310488576444 18.170102467632773 27.459956865950545 0 0 -1
122 41 2 0.4238 4.753509715278046 16.128694295038912 24.2893078733118 1 0 0
121 41 1 -0.8476 3.793773795462235 15.874549911481864 24.169651713689486 1 0 0
1482 494 2 0.4238 6.658024488439949 17.119348652955356 22.72662139152058 0 0 -1
1247 416 2 0.4238 2.7887305111353555 21.17429629012778 24.135477616283648 0 0 0
1682 561 2 0.4238 6.595007509537084 21.18577179441584 24.547628583719785 0 0 0
1480 494 1 -0.8476 6.338010737887724 16.938007196082797 23.65651734026452 0 0 -1
1248 416 2 0.4238 2.2571186141513095 21.414690613749716 25.66067460530973 0 0 0
733 245 1 -0.8476 6.441278920921693 18.32168911192325 27.274911485905907 0 0 -1
1481 494 2 0.4238 5.889402967363039 17.7545648522072 24.019814274552484 0 0 -1
735 245 2 0.4238 6.561448972885859 19.21020009570068 26.832071345075146 0 0 -1
1681 561 1 -0.8476 6.915435752413387 20.27661572601309 24.813637952856514 0 0 0
562 188 1 -0.8476 2.898005225964919 19.92299452232032 23.025736691511952 0 0 0
1683 561 2 0.4238 7.699941745490192 20.02116244667438 24.248576921713077 0 0 0
203 68 2 0.4238 8.074927839927428 17.4421948010396 25.80684606937064 0 0 0
564 188 2 0.4238 2.3315350986802867 19.10205639292432 22.95381880352664 0 0 0
668 223 2 0.4238 3.438469521070589 16.071700982063966 22.487519575729557 1 0 0
230 77 2 0.4238 2.1877339113731806 16.24022594175154 24.851019006271077 1 0 0
1386 462 2 0.4238 13.685469990101037 20.283914563265842 27.98703705041819 0 0 -1
739 247 1 -0.8476 12.431747747374475 19.29683609979966 27.07979433523574 0 0 -1
1163 388 2 0.4238 11.584309615406404 18.457883172852803 22.192925867115182 0 0 0
777 259 2 0.4238 10.47656054008861 16.654156009752548 26.591053829926697 0 0 -1
775 259 1 -0.8476 10.683594232874553 16.165766355912975 27.43876403753874 0 0 -1
741 247 2 0.4238 12.324952613414945 18.518361172971503 26.46127061889318 0 0 -1
1190 397 2 0.4238 13.171813251984323 16.470694649763455 25.545371242191447 0 0 0
776 259 2 0.4238 11.641908584747542 16.313752150562205 27.683169044836134 0 0 -1
1055 352 2 0.4238 9.538203381196231 19.7211331023007 22.7030204364453 0 0 0
1054 352 1 -0.8476 8.828505370528125 19.08170769006975 22.998763358355934 0 0 0
204 68 2 0.4238 9.28909533287779 17.854224860898693 24.795581997026773 0 0 0
202 68 1 -0.8476 9.022027559727793 17.75884113834181 25.75452764200843 0 0 0
1191 397 2 0.4238 12.425271925729874 17.41706624398012 24.443698264837522 0 0 0
1287 429 2 0.4238 14.8752396872764 17.15615264394304 22.94645352229914 0 0 0
1290 430 2 0.4238 13.812081738430495 19.44706274586585 21.937706901970422 0 0 0
1285 429 1 -0.8476 14.351889692371822 17.00818162604671 22.107281692033485 0 0 0
1286 429 2 0.4238 13.392347466460102 17.23957457421748 22.267706192162358 0 0 0
642 214 2 0.4238 10.415975347655566 19.934374768654664 25.524840253375924 0 0 0
1189 397 1 -0.8476 12.503472506206585 17.20347435324585 25.41748631849121 0 0 0
1162 388 1 -0.8476 11.76615849058088 17.558828199570637 22.591211118700333 0 0 0
641 214 2 0.4238 9.073883597573353 20.556220646046018 26.21673904244225 0 0 0
1368 456 2 0.4238 13.743368675067689 19.58286236972769 26.02370610111286 0 0 0
740 247 2 0.4238 11.551795796952561 19.507339461041873 27.505673308501915 0 0 -1
810 270 2 0.4238 9.368213917954629 15.542554755130167 22.21335509781962 0 0 0
1366 456 1 -0.8476 14.47770386248375 19.967639835979835 25.464511918379316 0 0 0
1367 456 2 0.4238 14.251742277518073 20.91076529715976 25.220676468516487 0 0 0
561 187 2 0.4238 9.017595882468811 16.09230612075985 28.037220243838735 0 0 -1
640 214 1 -0.8476 9.944810295114415 20.779079120250454 25.778765540959974 0 0 0
265 89 1 -0.8476 14.689554367584092 15.373043881705748 24.673197216827017 0 0 0
1164 388 2 0.4238 11.213782305615892 16.869024534936006 22.12318178782902 0 0 0
1317 439 2 0.4238 9.517231284548103 18.518564521358226 27.617218944705836 0 0 -1
176 59 2 0.4238 16.55120490207427 15.492966852733645 27.750096584229702 0 0 -1
80 27 2 0.4238 20.246961604070524 18.71736237595724 21.757627897307735 0 0 0
1494 498 2 0.4238 21.404591474839037 19.798322829799055 27.734624725443133 0 0 0
1346 449 2 0.4238 16.081493993644283 20.345527226561646 26.851238228699295 0 0 0
1345 449 1 -0.8476 16.887423356725282 20.772117067560686 27.261724488269714 0 0 0
1107 369 2 0.4238 20.447747140813302 15.77782054326203 27.31450569426185 0 0 0
1240 414 1 -0.8476 18.04062964805282 15.956492604279285 22.30012651617065 0 0 0
177 59 2 0.4238 17.996908979141615 15.180407454827078 27.058090197330014 0 0 -1
1589 530 2 0.4238 15.539908916930623 18.525546223405932 25.051575181068852 0 0 0
1588 530 1 -0.8476 16.05246314086133 17.769175917546164 24.645136836470126 0 0 0
266 89 2 0.4238 15.30647223481417 16.157705622547482 24.734175061714737 0 0 0
1242 414 2 0.4238 18.261832983775303 16.93168650628667 22.292006308741403 0 0 0
1590 530 2 0.4238 16.76107472318014 18.133421739223213 24.04082350151036 0 0 0
422 141 2 0.4238 19.512367040042854 18.92018042664143 26.066646472756716 0 0 0
1304 435 2 0.4238 21.055976224128564 18.668741853700926 23.818153945726575 0 0 0
1303 435 1 -0.8476 20.894189922899532 19.385339233974072 23.139689954540547 0 0 0
1305 435 2 0.4238 20.95441336927081 20.281089601497047 23.58014927798081 0 0 0
421 141 1 -0.8476 18.82172105957349 18.474299287393656 25.497262472860374 0 0 0
423 141 2 0.4238 18.00690133390016 18.28789796796406 26.04619176045935 0 0 0
805 269 1 -0.8476 17.644689700973046 19.339712437365463 23.21756463383073 0 0 0
806 269 2 0.4238 18.560542501715094 18.964877983862927 23.361483985746325 0 0 0
807 269 2 0.4238 17.491082498754334 19.477957501744662 22.23915105583045 0 0 0
384 128 2 0.4238 16.25268399617749 20.977795110266303 23.483525356580255 0 0 0
1241 414 2 0.4238 18.714876265501008 15.466361236480155 22.852541886316118 0 0 0
1493 498 2 0.4238 20.058945911175233 20.562662291354854 27.213424476326363 0 0 0
1712 571 2 0.4238 18.491951183169498 21.35430838162872 26.69942669549297 0 0 0
1492 498 1 -0.8476 20.48718782615377 19.670593289353384 27.357721939711517 0 0 0
1105 369 1 -0.8476 19.692755966462986 15.195017405612251 27.01395814492138 0 0 0
220 74 1 -0.8476 26.042625011922183 21.52516483721387 24.205333019382188 0 0 0
92 31 2 0.4238 22.077281104199507 19.75110676641184 21.69888000798931 0 0 0
1617 539 2 0.4238 27.944112237755036 17.440033077217134 21.85897453831335 0 0 0
1141 381 1 -0.8476 27.263747560544065 15.978524095942522 27.96647055258371 0 0 0
1143 381 2 0.4238 27.317388614849275 16.005617623597814 26.968277896796224 0 0 0
1540 514 1 -0.8476 26.6741690170821 20.619878027411193 21.608915560389637 0 0 0
1615 539 1 -0.8476 27.235510657869963 17.981367856340643 22.31156757616459 0 0 0
1541 514 2 0.4238 26.82911094071824 19.63405305560883 21.67327490537204 0 0 0
1066 356 1 -0.8476 27.98322853864989 19.258220069307725 26.156568475955183 -1 0 0
1068 356 2 0.4238 27.018420747570936 19.43047937545473 26.355245746257655 -1 0 0
1542 514 2 0.4238 26.329141721498242 20.960845604967165 22.48338527191395 0 0 0
1067 356 2 0.4238 28.10513548027889 18.298644940254324 25.902887043247702 -1 0 0
699 233 2 0.4238 24.60059013411961 17.582331569706565 27.31198480785862 0 0 0
697 233 1 -0.8476 23.930862893367593 17.659719858232688 26.57342101521133 0 0 0
41 14 2 0.4238 24.982825459468486 20.72979680940848 27.028567871940115 0 0 0
698 233 2 0.4238 24.10569933381409 16.951542518866486 25.88937637111582 0 0 0
1798 600 1 -0.8476 25.224022622095855 15.55741576250182 22.174508950555186 0 0 0
1800 600 2 0.4238 24.529330251805586 15.30842293242594 22.849346028113235 0 0 0
229 77 1 -0.8476 27.803297762938115 16.865547858955924 25.13656990196945 0 0 0
231 77 2 0.4238 26.977570015728524 16.68335114790091 24.60273655158367 0 0 0
42 14 2 0.4238 24.765405656663734 19.227439717430503 26.426672289044973 0 0 0
1022 341 2 0.4238 22.740690570321544 16.766897133794476 27.411825717397086 0 0 0
40 14 1 -0.8476 25.386853408112856 20.010002211739625 26.46407061428905 0 0 0
1616 539 2 0.4238 26.505739891001966 17.376065732210968 22.62944171220709 0 0 0
1023 341 2 0.4238 22.76558704375141 15.302718842558399 28.134451894791678 0 0 0
1021 341 1 -0.8476 22.26933186057525 16.167599040420935 28.058867263232464 0 0 0
222 74 2 0.4238 25.752603021355302 20.863195791433125 24.896480056872416 0 0 0
871 291 1 -0.8476 24.77833282901124 15.514017407116137 25.220121499601383 -1 0 0
872 291 2 0.4238 25.58353251082223 15.03361822364251 24.872457729638146 -1 0 0
908 303 2 0.4238 2.6819747774029983 26.372110670334276 21.8781997063003 1 0 0
312 104 2 0.4238 4.720213793840141 22.705843628420066 24.60464852011312 0 0 0
1246 416 1 -0.8476 2.6647888169535054 21.852822654653746 24.85952211015272 0 0 0
310 104 1 -0.8476 5.581447710329452 22.74674096852911 24.09808801170865 0 0 0
1314 438 2 0.4238 6.646348014978155 22.423578281426426 22.40149225498768 0 0 0
578 193 2 0.4238 3.215879790065018 26.353106300997844 27.87855148823379 0 0 0
565 189 1 -0.8476 2.7062226785850765 25.53987651008051 26.553826784400727 1 0 -1
1754 585 2 0.4238 3.4555067857814494 27.323938115088858 23.614785117015803 0 0 0
907 303 1 -0.8476 2.166568660898058 27.213150475436265 22.042542583593285 1 0 0
1753 585 1 -0.8476 3.9375900383524045 27.132696431934843 24.46978357094945 0 0 0
311 104 2 0.4238 6.055196466304543 23.600405578206743 24.31446465186967 0 0 0
74 25 2 0.4238 5.7931520043759175 25.842364932565044 24.157399618488036 0 0 0
613 205 1 -0.8476 3.541563390118002 24.731111548031922 22.283749980740048 0 0 0
614 205 2 0.4238 2.8628893153600816 24.10650552847679 21.897396747800528 0 0 0
615 205 2 0.4238 3.8314565597143266 24.395386451107502 23.17999247556629 0 0 0
971 324 2 0.4238 3.3098767960078725 22.374538804175824 27.163300077680784 0 0 0
1179 393 2 0.4238 8.241297932751609 25.86018258625818 26.870504176475958 0 0 0
73 25 1 -0.8476 6.573870819772171 25.258344997573154 24.37965813201269 0 0 0
970 324 1 -0.8476 3.248653810422361 23.125299629484804 27.821030971917033 0 0 0
75 25 2 0.4238 6.847312432199551 25.41437441429235 25.328807491032045 0 0 0
1177 393 1 -0.8476 7.243599302123366 25.85350545976814 26.803029303819702 0 0 0
566 189 2 0.4238 2.963017627096831 24.741125376118394 27.097934292550473 1 0 -1
785 262 2 0.4238 6.791640951031963 27.719695868207296 25.26752457391869 0 0 0
1755 585 2 0.4238 3.4162960884750904 26.467900899914643 25.004853209819167 0 0 0
1491 497 2 0.4238 8.160589802180445 25.191792973009665 23.129378537166335 0 0 0
1178 393 2 0.4238 6.866370236365583 25.24504389649128 27.50122179731849 0 0 0
786 262 2 0.4238 5.311362271564412 27.969195856076965 24.624756122339406 0 0 0
1412 471 2 0.4238 11.211250419167579 22.849919208338438 28.153044981096052 0 0 -1
1706 569 2 0.4238 13.792036233295475 27.680542503379826 27.92591442496024 0 0 0
1238 413 2 0.4238 14.021027271492448 25.190762275103705 27.963277845055032 0 0 -1
572 191 2 0.4238 14.517839226587629 27.540756202800807 21.629720220101465 0 -1 0
928 310 1 -0.8476 11.349462794369456 27.455912465818685 26.934756460307756 0 -1 0
388 130 1 -0.8476 13.249047567719929 27.75337882037402 22.902191321756874 0 0 0
1489 497 1 -0.8476 8.70995088708947 25.141930727126457 22.295282526603668 0 0 0
127 43 1 -0.8476 9.796590679097275 25.468421246146573 26.560061139777478 0 -1 0
128 43 2 0.4238 10.374364998258594 26.255803638401506 26.345105785109624 0 -1 0
129 43 2 0.4238 10.27945444306068 24.62574920119509 26.32184608961459 0 -1 0
241 81 1 -0.8476 13.752393181817059 22.896678888670184 25.5136290027286 0 0 0
1148 383 2 0.4238 10.663089355245392 25.55109147216925 22.67164039035921 0 0 0
1147 383 1 -0.8476 11.643874182432635 25.669544923106397 22.516624575887764 0 0 0
1149 383 2 0.4238 12.037400240714945 24.807405299051172 22.197481175356806 0 0 0
431 144 2 0.4238 10.582188771061901 22.29683465872449 25.950264717604206 0 0 0
242 81 2 0.4238 14.241314958090076 23.4364939631491 24.82838803630355 0 0 0
430 144 1 -0.8476 11.061280421313944 23.15559978286931 26.131906266339566 0 0 0
432 144 2 0.4238 12.031890060296474 23.047747818431784 25.91676704979139 0 0 0
243 81 2 0.4238 13.996386330655408 23.21919450370185 26.42820596580856 0 0 0
390 130 2 0.4238 12.655706241347158 26.949299242462835 22.86474665831679 0 0 0
1705 569 1 -0.8476 13.974444205649556 26.835438367983215 27.423394443294896 0 0 0
1707 569 2 0.4238 14.766023026687577 26.966754965751726 26.826603926236885 0 0 0
56 19 2 0.4238 9.085750296992233 27.295835582672478 24.207289949160668 0 0 0
1237 413 1 -0.8476 14.087865522430292 24.205492215075875 28.120680376912613 0 0 -1
929 310 2 0.4238 12.257414638649873 27.05105951270129 27.04300402303194 0 -1 0
930 310 2 0.4238 11.11314435966221 27.969729355238073 27.759465985886745 0 -1 0
261 87 2 0.4238 15.878648829025893 23.735165932921035 27.831082511235874 0 0 0
946 316 1 -0.8476 19.234700152597345 22.725591052406223 22.98809236761473 0 0 0
260 87 2 0.4238 16.799851488803306 22.476054773790125 27.348743166220608 0 0 0
1530 510 2 0.4238 18.032808821085524 27.985701774738818 26.401779875430115 0 0 0
1399 467 1 -0.8476 20.855391021027454 27.216260811107304 24.484799202312704 0 0 0
1103 368 2 0.4238 18.863654955891572 27.366053889403382 22.209923398209575 0 0 0
1778 593 2 0.4238 20.70266499921475 23.35363460035072 22.058465910914897 0 0 0
284 95 2 0.4238 18.489799526309938 25.157085447860258 21.63346766143049 0 0 0
259 87 1 -0.8476 16.777528412201065 23.466487577110833 27.484921513886757 0 0 0
947 316 2 0.4238 19.982282127229485 22.296117750136204 23.49472228565949 0 0 0
510 170 2 0.4238 20.50400035712436 21.613862112000145 25.36053792297669 0 0 0
508 170 1 -0.8476 21.09537919538812 21.896871833930337 24.605437554176323 0 0 0
948 316 2 0.4238 18.55528311431941 23.078144298093893 23.631597376972394 0 0 0
382 128 1 -0.8476 16.07435960819412 21.941906370783457 23.28682789851602 0 0 0
1599 533 2 0.4238 15.458275556849518 22.15945745710966 21.7254948613595 0 0 0
443 148 2 0.4238 17.347583568494613 24.99804348957119 27.964276056313537 0 0 0
321 107 2 0.4238 20.187054650707612 24.178196480783832 27.73584340331813 0 0 -1
943 315 1 -0.8476 15.749700612689693 27.419433921627892 25.261506644456936 0 0 0
915 305 2 0.4238 20.60272311896837 25.384844239300254 25.218109475185372 0 0 0
914 305 2 0.4238 21.573567366352883 24.5917871190939 26.264602832349773 0 0 0
913 305 1 -0.8476 20.665524201514668 24.609150227663072 25.84608624574066 0 0 0
51 17 2 0.4238 16.5999535735801 24.273211252753516 24.280100811274995 0 0 0
944 315 2 0.4238 16.745144341269956 27.35140837162712 25.328322120156876 0 0 0
49 17 1 -0.8476 17.430253786308782 23.904704143473904 24.69819657443081 0 0 0
444 148 2 0.4238 17.675685468448993 26.42052896507864 27.232490083234282 0 0 0
50 17 2 0.4238 17.545047123720057 24.295192828735736 25.611619300436843 0 0 0
507 169 2 0.4238 15.589060784059873 25.11908374776059 23.233985991957816 0 0 0
505 169 1 -0.8476 15.098768832764753 24.875230138857713 24.0707351897083 0 0 0
506 169 2 0.4238 15.128846581508832 25.643202013264816 24.710512126746508 0 0 0
709 237 1 -0.8476 16.35342703831521 25.22190848372237 21.598544140423353 0 0 0
1711 571 1 -0.8476 19.360615336434837 21.797621659158594 26.478302461603146 0 0 0
1713 571 2 0.4238 19.24980310686847 22.79032640353841 26.525820250695404 0 0 0
1529 510 2 0.4238 19.128388815607313 27.28406852751112 25.414844336923633 0 0 0
1528 510 1 -0.8476 18.215251953490466 27.198032110304705 25.81331492049731 0 0 0
383 128 2 0.4238 16.564401601258062 22.51268306411631 23.945669921610985 0 0 0
1401 467 2 0.4238 21.09110629920159 27.72166825394947 25.314860419555664 0 0 0
442 148 1 -0.8476 17.708549424512622 25.92096452457293 28.09814320671384 0 0 0
1225 409 1 -0.8476 23.027734876162793 24.60441057787662 26.582696793263104 0 0 0
815 272 2 0.4238 24.50375100382766 22.56878664123271 24.448575107739753 0 0 0
816 272 2 0.4238 23.703343161331453 23.768007066893627 23.681865155067754 0 0 0
992 331 2 0.4238 25.736548593421155 25.886471855639165 22.88173321935185 0 0 0
1193 398 2 0.4238 24.768298089491072 23.432965072025784 21.854968270622226 0 0 0
1192 398 1 -0.8476 25.051607751513604 24.37623342203891 22.028116921451446 0 0 0
567 189 2 0.4238 28.05353000098637 25.568907209640606 26.453218488103023 0 0 -1
221 74 2 0.4238 27.02564821782586 21.68742746138303 24.290984741305333 0 0 0
509 170 2 0.4238 21.852281208021598 22.44451634984935 24.962067372715218 0 0 0
1226 409 2 0.4238 23.851627796277572 24.967412028980743 27.01793282427968 0 0 0
1601 534 2 0.4238 26.390914268449254 27.564246568787784 26.441388049954202 0 0 0
240 80 2 0.4238 25.66923711032315 26.215678230448088 27.587104271222476 0 0 -1
1602 534 2 0.4238 26.252386205414755 26.373949451659392 25.332050750533252 0 0 0
721 241 1 -0.8476 23.089639010708712 27.092903324946867 23.088863221375032 0 0 0
993 331 2 0.4238 26.86826329753139 27.022658833866995 23.189836244626008 0 0 0
991 331 1 -0.8476 25.984781765853082 26.65161397454116 23.47581892865579 0 0 0
723 241 2 0.4238 23.94725388877113 26.842509608362707 23.5380844448672 0 0 0
722 241 2 0.4238 23.064825798507552 26.69430076644129 22.172075184332733 0 0 0
1227 409 2 0.4238 23.28659916470645 24.02770464041514 25.807842263803305 0 0 0
1600 534 1 -0.8476 26.5843059689614 26.602524907231317 26.247246102189415 0 0 0
1400 467 2 0.4238 21.622018718306744 27.25212207460399 23.84370954901908 0 0 0
814 272 1 -0.8476 23.661585779337567 23.107743242191752 24.431737146045702 0 0 0

Velocities

940 0.005454487191110251 -0.0010226878957861234 -0.011149925953776913
941 0.024546468719100913 -0.0026529245028755833 0.0018015173328820267
942 0.008009959810284926 -0.001585935049133018 0.008787614901429801
838 -0.0032965502945793597 0.00023072817066097329 -0.003740479034068476
1335 0.005509451107196471 -0.014893022104443503 0.0025311603385589844
343 -0.002216138075219783 0.005194960894746783 -0.0010204194797712148
792 0.01745012459355041 -0.0022158929553460064 -0.013295232273723845
790 0.005137065009656044 0.0024764766232571005 -0.003861544455052105
791 -9.858993881709248e-05 -0.009343003300740475 0.005799327656089818
996 -0.009323932653728275 -0.006407115143532592 0.0024189806597788607
1334 -0.008574442996267926 -0.010685575893555949 0.003384130851324922
433 -0.001645293296541726 0.00023750386038508598 -0.0008717465394604896
1626 0.012219673817230523 0.00032020603137496016 -0.0016337142289944153
1624 0.0005306197847410857 0.005529111264898848 0.006200692877111197
434 0.005401647391967603 -0.008253960056827641 -0.0046684941411262205
1333 -0.004949284700891529 -0.004826240225882295 -0.003370064336497909
995 0.004486905622221189 0.010338454135301047 0.0011640212433761722
994 -0.0035480317148513366 -0.006105481158041412 0.0032253001373580476
344 -0.000516791661181889 0.004973479518039503 0.009729063015318788
513 -0.026533780087782805 0.009432152169639815 0.01115797776303523
840 0.025435451979356663 -0.0014712555933009924 -0.027067807291439046
839 -0.008534117331718695 0.007739258465616025 0.00030771399912834916
903 -0.0007591760364066721 -0.006547762798356123 0.0023433865705503056
690 -0.014443108286148188 -0.01801151558534653 -0.01889666982728965
345 -0.006501986929398031 0.0056176454491189695 -0.005012747919362376
511 -0.0032543787214377477 -0.0034496053905404365 -0.00010415543064363407
1008 -0.006859428482261269 0.006947363519291214 -0.0022971219366527146
282 0.015005026690481376 0.009457328996922565 -0.0023527352070626052
330 0.026392197111506376 -0.017108296056515333 0.00762731225134699
435 -0.0019221695288769924 0.008363994920614837 -0.010428649564394772
512 0.018550782955077727 0.009785316055341279 0.0025966051173264603
1195 0.006020854799550708 0.000498952920318653 0.008136259667079825
500 -0.001745039113783634 -0.004324166076100145 -0.0038909309114411603
644 -0.020290293649212553 0.0014854177231906369 -0.011492073392638668
645 -0.0018384439989334493 0.02525484708540413 -0.006022423142354617
643 -0.002880568386802987 0.005477464038080316 0.0020192001471398815
183 -0.014863588712039218 -0.00580201549841432 -0.0017359689723456847
1369 0.0019478711819806377 7.646934872078084e-05 -0.0036496226491681124
886 0.002974490550277712 0.0047088768105121295 -0.0012851408576780544
1371 0.01759783917082751 0.006468586591842189 -0.01225249634552687
1062 0.0012805429959795087 -0.004056690733162268 -0.003989088037059815
1060 0.0044323970768607585 0.0013813790840101156 -0.0010345734791062798
1197 -0.006420861168329542 0.0069538345367787975 0.00012951613716736404
768 0.0017581317614557875 -0.00496431352831065 -0.0014047482933157941
1307 -0.006982711892734344 -0.009714203062474934 -0.024747300048767084
1714 -0.00794463358585764 0.003162336512870933 -0.0033536770169450393
1061 0.00817235218390013 0.002843524912944386 0.0031694306857744017
766 -0.004291892446316691 0.0012393210132328294 0.003430106319329391
1133 -0.01982090745428245 0.01316504504550499 -0.01156797550739755
116 -0.005063506608370245 0.010312353739630709 -0.0018300822030655759
1306 0.005188010565293065 0.0050580054497800404 -0.002275605255150765
1308 -0.005186852554738384 0.015076302977443824 0.01094329297496044
1007 -0.009301481872325353 -0.00826326061872258 -0.011797565876308232
887 -0.00971512271704282 0.005772639113988243 0.014749545731188436
1788 0.004971982956450074 -0.0019712852045902594 0.0030694607724371307
135 -0.007742826149234686 0.0018553180413110335 -0.0025123219833982574
1370 0.009407610060977083 0.0029716736700663 -0.013880222096697785
1716 -0.0018725616340805034 -0.011892051391160317 -0.015289153482067868
499 -0.0017233346579265995 -0.0019716604355839097 -0.0038028085888571527
1196 0.0006974015117743597 0.0005682704675537788 -0.007025415089377625
665 -0.006397689990492988 0.0027910541649579794 -0.0007598309110356594
1364 -0.009270236495898974 -0.0001612166454092098 0.010419884805976982
884 -0.002937798727987786 0.009824881561878206 0.006991641956128357
1363 0.00515086511910608 -0.0056494346194014425 0.005159339699059647
1009 -0.006508717122702491 0.0030659131891940007 0.002220786828713251
885 0.007024281840031689 0.01533728279819111 -0.012048202881003865
1781 0.007549336574214696 -0.004295359326669167 0.0019606883049141425
1782 -0.013342194333300816 0.008107857320316767 -0.008368919579031788
883 0.001093034556657953 0.004633485570946075 -0.006145565057135211
1365 0.003072610396173572 0.007700990358204269 0.0009065542783798998
1780 -0.007001779945852612 0.0020247817269808087 -0.0012503482378850668
1011 -0.002972860549750793 -0.006220171469795669 0.008958081524112574
1463 -0.030264627813026173 0.01202231116825092 0.005049771033714744
1464 0.010271994723927869 0.025711026163589598 -0.02073707261103105
1462 0.0006261882530072102 0.0022096658054546986 -0.0017519947264030807
54 -0.014180053509874703 0.02091378151426967 0.0018211364216215188
52 0.0007909434986812764 0.00035070626452128145 -0.007103747559903939
407 0.007415608466475056 0.0016479824045851454 -0.005451956330079688
664 -0.003860721974276565 0.0014244028158732088 -0.0016099387369967466
1046 -0.0015729828788840195 -0.006031032599207231 0.007704035405152304
1010 -0.03563960370279354 0.012668934062845926 -0.017610920112714527
53 0.002195002612789108 0.005787235284187179 0.01847950259461241
95 -0.006861540773394356 -0.013584694368410257 0.00655798810397743
1047 -0.004113221487994618 0.007884856908470907 -0.0025693928496759544
666 0.0011688105453879203 -0.0011297459263887452 -0.002891910491301677
900 -0.0010421183620225659 -0.00917291939814732 0.01567630732925631
1045 -0.006287192835830735 0.0029550127765312234 0.0016899457241257726
269 -0.02233616437441534 0.010211722317818788 0.014837262242309137
899 -0.014997867421821425 0.010386552137424652 0.04016657309513045
1498 -0.008488543843517929 0.00488789471231604 0.004298762141730768
689 -0.010623676698903963 0.004987772180413805 0.004101691421980293
1027 0.002435131958105384 0.0006632199233491183 -0.003877819860613034
1222 0.005912252269680722 -0.006298873626585796 -0.0013489118218797534
94 -0.006238720257501037 0.0014261317642301759 0.00027335415504479944
1501 -0.0008577621202017677 0.005166937748780721 0.0005988304758292772
1502 -0.0019201555754164467 -0.006566296354275223 -0.012111196398388022
96 0.0077107856985195984 0.0027904351103352626 0.0027252415776800056
336 0.007991701131263474 0.013465473278756584 0.0019006129211399678
334 -0.0009160395465212601 0.004249277059155984 0.0007732042001823934
335 -0.0029226652184597174 -0.0004260189632711586 -0.00425035998020371
1029 -0.0022663638128262607 0.0450266831891927 0.03228554906367843
268 -0.007541031596808805 -0.003284612739028928 0.003678064103035411
1028 0.01171355324202719 0.012056918320223405 -0.0031514272498496974
898 -1.707590739626934e-05 0.0031059023927052136 -0.002444197578767389
1150 -0.000988524365227604 0.0004327090768755563 -0.006114206989689298
1151 -0.0073939858085159205 0.006102383552273033 -0.006470549091247237
1152 -0.014115383193005943 0.017162290715655525 0.0008799639025753763
732 -0.003512248602663107 0.006163916544299627 -0.011602749536897116
1223 0.005624250260777002 0.008403936376180822 0.005878461457254227
730 0.0038924123645500217 0.001013386551233819 0.0019315141239235074
731 -0.0021376127145270357 0.004285137340610084 -0.00436817226118559
688 -0.0004371191786885181 -0.002083289264800094 0.0013662593394119613
1257 -0.01255715000257589 -0.004440134084866866 0.006738584183596623
1500 -0.011063977011974636 0.016723502187354997 -0.009405605384752066
329 -0.0034777283980740935 0.021641741312313625 0.027128140392946015
1499 -0.01204204355142942 0.0145020425125905 -0.002080712005912442
216 0.010585820273245623 0.0185595287957027 -0.01767464984950995
214 -0.00238705920549599 -0.0009655713264579663 -0.0038318284887882375
215 -0.010259861465468081 0.032910180198534734 0.003837936262009769
876 0.0051444166022067755 0.0009412905935138046 -0.007077170725716435
568 -0.003920344784761803 0.0037156047403245685 0.0034584337534099645
569 0.009109236445128845 0.007573292277456904 0.010544750333630597
570 -0.009389703555467635 0.00039055505106751096 -0.004904211158212227
488 0.001510317019731223 -0.014959038534114536 -0.013246913924002804
875 -0.0005670888033646763 -0.0022677279549299448 0.004115356274461347
874 0.006285012948839575 -0.0025972566573064042 0.0002315739154175946
892 -0.0038660795112388014 0.0020957714186964262 0.0021870280270823244
1388 -0.04763005210102462 -0.002379882626525481 -0.0009177811082304098
1387 -0.0013082234230835353 -0.0029280036841276454 0.0004165206864890929
1389 0.02145398179122571 0.010750483322134139 -0.0008022650767467692
893 -0.02480081714170975 -0.0019682439560110418 -0.0134256731547084
487 -0.005641337410864032 0.004641908396449271 0.003364131279321319
1058 0.0027053245127192354 -0.0035553410929479545 0.0010363487836374443
387 0.008867980658561606 -0.012248633944552596 -0.0068418073667623905
760 0.0035043698874998707 0.005429357634972013 -0.007985619623962614
894 -0.022769921204171675 0.009601470991055384 -0.014525694190391607
1585 0.0011332707996025114 -0.006693219036159228 0.0033652066203249996
1587 0.008380364752603701 -0.0015434233661600237 0.011038488358733264
1006 0.0017129405182329182 -0.004241122755264154 0.0012974754201946254
997 -0.0019146585345175223 -0.0044961760379878995 -0.005028808933992819
551 -0.00403080563905471 0.0030603950788915244 0.01125177545185173
552 0.006828415096022194 -0.002769861380831034 -0.010372901834485982
550 -0.00670403897813708 0.004277536997978654 -0.0007000779599756169
160 -0.0008811347699247098 -0.0024191633394278797 0.0005948903674411815
1636 -0.002370677647052512 -0.007355737441184735 0.0016339313567881946
1638 -0.009287152674531542 -0.0033335416008258177 0.0012203336412566906
1637 -0.018528044221925503 0.006097783317227483 -0.001580427454350679
767 0.003022985060242781 -0.0040456631509482935 -0.003867869412063115
616 -0.00511487539132129 -0.004267070053505085 -0.004727773746664094
162 -0.01825149749798919 -0.024883166352496842 0.013013298229020311
617 -0.02687247504481605 0.0059792013714342306 0.004324107238209684
618 0.004250471462132438 0.0006312917927228769 0.019516119589277976
1797 0.020224642951565536 -0.022428037607578926 -0.020366596471595968
205 0.00044606117558567424 -0.002150081251933645 -0.0003684931873107884
206 0.0008865398958793811 -0.0019050111947567384 -0.01671682696008685
207 0.012397644880054503 -0.010688973641148737 0.0069974828516027945
1795 -0.0004609293064723218 0.0005096366201006736 0.00253720400657069
1796 -0.0011255485615345316 -0.0020903820959144196 0.007788442788288448
877 0.0036336788953972095 -0.002062153837525407 0.00372449191577045
878 0.004967517481247672 -0.009783528153589535 -0.014264277046130522
879 0.00871424835168452 0.0025006115641420684 0.004837374291164928
619 -0.006813882444370079 -0.002902912906310285 -0.004532038456100775
621 -0.012471599258410815 -0.012191853544362556 -0.0005140833657804319
998 -0.021318759777377305 -0.00592356811060078 0.014528583296617843
793 -0.0021840863236839594 -0.0019247598925876432 -0.00309846408831303
795 0.008152328304523344 0.0042903321426476715 -0.006697602931814856
1786 0.0026234956320538767 -0.0022085148627235115 0.0019580975441647
1410 -0.003292359716325437 -0.008118803369113022 0.0029099464727240236
130 -0.0021186542532913594 -0.0047964291057366005 0.0016831704444054125
620 -0.007670110161814253 -0.006953609256115953 -0.0015437643875359517
131 -0.026002639273937176 0.006745617800689283 0.005800637552050381
822 -0.01005615686873487 0.0053274079430449105 0.012808765268407688
161 0.0009092678593896113 0.01330923818639743 0.015992128904660403
132 0.01623913626470405 0.016207020355175232 0.00455092332431141
1571 -0.009518683858206207 0.003055927577897911 0.00331987759532058
1568 -0.00014964205265888367 -0.002360289271438224 1.4896901081180824e-05
1559 0.027723567132977023 0.0441494594342602 0.004870575566573886
1560 0.0011055823940962434 0.007104341981542379 0.0010976418733679267
1787 -0.027524016923754162 -0.009954294623086274 -0.0268298741756872
1486 0.007404517871588152 0.0021863234363692125 -0.004882531272318007
1297 0.003423856451968915 -0.0013403579688904357 -0.00024778251468419283
1298 -0.00848717984980903 0.0058766615420223975 0.0012353535860544743
1299 -0.009401237308195589 -0.0027010450924600314 -0.01884132667771109
1437 0.0036501072336226534 0.0149261921342288 0.001073483588346826
1435 0.0002979738897961161 0.005428275779555388 -0.0030356003742984376
1436 0.004054010393194303 0.014490322690256697 -0.009655753678112543
1137 0.016782302290551727 0.007294243483489099 0.01544734594314204
1409 -0.023039659522035055 -0.02624521846319044 0.015544220897204258
1452 -0.013394352865262261 -0.0005321909217152838 -0.0078095922188386535
1450 -0.003586194997995592 0.0010802325848429306 0.0003671511872242967
1451 0.0007049534707739447 -0.004288998695507546 -0.005605162280620833
1487 0.010716940414665782 0.005637971397101158 -0.006908330355325568
1572 -0.015528337930870785 -0.02514356533866528 0.018419096247393366
1508 0.00401092471707304 -0.007178695790848167 -0.0005048983281907678
794 0.0094567126967076 -0.010284847345018777 0.013433043101335154
1570 0.002313316098351492 -0.0020434403821016694 -0.003877073032269735
651 0.003640509310361669 0.011585117954488982 -0.006969046246126379
649 0.006563548134368013 -0.0030229779367213425 0.003227853824665448
717 0.013824193580308734 0.008839465156950752 0.019186650546231858
1136 -0.030499618941591828 -0.028740594981036295 0.006843757087654079
1135 -0.00015828607518942887 -0.0021297185051627684 -0.0017431375749860736
1488 0.022605057663404853 0.0032256547348642325 -0.0007176276691100915
1558 0.0021516770779237324 -0.00036901798116592663 0.003477698716741675
650 -0.021873931574819292 -0.012494659158520662 0.019552886664926113
1746 -0.025145198266867206 0.015610850759249508 -0.0066357520285179016
118 0.0011357671270783454 -0.004177203493303292 -0.0008091900698700007
695 -0.00648227492955765 -0.0005900554290037158 0.008898377039882855
1503 -0.0011070404972564002 0.007624472241035536 0.007359827536681094
694 0.009491014886514043 -0.002176080252230243 0.0006740467539579701
1355 -0.003496690203120643 0.013532383269219418 0.002901233283823075
715 0.0014616556721984205 -0.004639060512941927 -0.0027853798249365376
1362 0.004056993563999907 -0.007372489620691535 0.0029743947505362313
696 -0.0039080266801123625 -0.0009455020545219144 0.00803497681545482
1507 2.936514987986698e-05 0.0003971665126232947 0.004908801563792073
910 -0.0027627485494945104 -0.0014252433209057367 -0.00272049172662707
911 -0.012212178443808726 -0.004262899447956723 -0.011099734706474202
912 -0.005488148156390192 -0.007501603608896766 -0.001510839745566053
956 -0.007042478612851691 0.011204186430893487 0.01946649718353591
955 -0.006247920108795647 0.006473080713623758 0.005270688626702429
1360 -0.0014209532765347718 0.0016104172310703636 -0.002561549509992993
1361 -0.012661692823876412 -0.0014052917320128654 -0.004626827730954744
957 -0.013393994693011243 0.0007893979563716098 0.0032003647164301203
1575 0.00910650033634729 -0.004860409308488521 0.008737026556122428
1573 -0.003627610683204472 -0.003060454656705499 0.000969915368969014
1745 -0.0008047057541446188 -0.000829395131016152 0.007537729369472734
1509 0.002267606156414702 -0.015759138128835146 0.005224451678639123
1356 0.004395520071677675 -0.005320624738387213 -0.004271458388319074
1354 0.0015387022396662268 0.0021744921459311115 -0.0016355742283240388
119 -0.0004184287021947897 -0.010397286573006165 -0.008122913903260578
461 -0.010070201616307953 0.008352485426936675 0.004301835965232471
460 -0.00667088855665417 -0.00205835145271663 0.002417073617873003
1077 0.014845130792457119 0.0018599658250210633 0.0019215326082892288
902 0.013224970084534816 0.0072802630261858525 0.009385261677097103
725 0.001304127699305375 -0.0027767262761571993 -0.022507320266033408
575 0.0038988361418089337 -0.01042233871348341 -0.0033741355119810694
158 -0.037496248222788436 -0.031660444177097916 -0.025824296037951
237 0.011865654505028836 -0.005817214585361891 -0.0011857805334334484
901 0.0017174402400140544 0.000824000026416382 0.005402530589072164
68 -0.006667324700330249 0.004383603782854708 0.01972483127987747
69 -0.002665335979466183 0.0026812337389290684 0.03082168922278089
99 -0.01014219229110704 0.02114326916062727 -0.013984930789865886
67 0.002878299793406467 -0.005305829864941304 0.0035569855231690033
97 -0.0013592514721605402 -0.0017564221281588484 -0.00023439700066860635
98 0.002315804612682708 0.0015143792928625735 0.003867394645998123
1261 -0.004832882686624712 -0.005233142162472565 -0.0007477135595602287
1262 -0.006517280847742648 -0.001121378904721019 -0.0020534633174925294
1263 -0.0007718423439479027 -0.009778649542716747 0.00825460631498556
1214 0.006471383756049541 0.005818591742430344 0.004678312099133874
1213 -0.0020446350652224 -0.00020043792734652935 0.006905222045448461
1772 0.011705697678972482 -0.003248822853128886 -0.0011488220913535444
1215 -0.001847954783837886 0.003045021916264009 0.01158119408827872
1427 0.010265620016926309 -0.0032210261627258654 0.003719794902745193
724 -0.0011062530589101866 0.002328980528536853 0.006385020424979199
235 0.004864116738490019 0.00027223225433069194 0.005646599480600172
1592 0.02223141983164625 0.004320953921212368 0.007809029626399792
1426 -0.0033088284513089566 0.0024872600772826814 0.001073565393861981
1428 -0.015713832269678513 -0.025594818131655348 -0.021552474812970315
78 0.00017846090894665763 0.006435525388227548 -0.0011793773405707846
236 -0.005942913295918194 -0.004856316584945063 -0.000738479638992679
576 -0.0017338646239211618 0.007153483235955187 -0.004284395681721286
574 -0.0015559226549176942 -0.0034197042470023964 -0.0013363649497555282
1430 -0.016690506673432557 -0.0012975357223201115 -0.0076921185569109206
181 0.0015119345316383344 -0.004926052203440358 -0.001968107661399728
454 0.0006593300563150765 -0.0018043777342571312 -0.0012537767182571509
672 0.012027618003260415 0.006126087539651273 -0.006234285847559277
534 -0.005366731986550937 0.0048167283785160745 -0.0006808376423143236
145 0.0009706270147117819 -0.00019525126462758963 0.0018928426792047955
146 -0.01652873906477808 -0.02111471318263654 0.018847365994773765
1593 -0.014780120666228585 0.0017507409726073453 -0.006214914531811731
182 -0.007638726811561563 -0.016087915359635854 -0.009013200518579319
533 0.01129826853169966 -0.020315648455698256 -0.0052466868284343
1398 -0.001945988147522986 0.0037620181439492785 -0.0027342483231425295
652 0.002354729818603043 0.004584299335324422 -0.0006775580051576978
654 -0.008724897543192908 0.01341057890812792 0.005321751427106015
671 0.004737621259697839 0.006695634388574159 0.021322080226327544
653 -0.002640351458439648 0.011031152169412023 0.01109463929201877
670 0.002732936591739509 -0.003780998463682895 0.00590481967004103
1397 -0.017491820933494683 -0.02960399950223019 -0.006587250483540528
1396 -0.0005272885091761288 0.00027645476827599955 0.0045609727928385335
147 0.018268433923868423 -0.010937410804391643 -0.017509931710418675
532 0.0036416768074722145 -0.0018476754469314188 -0.0034316163401540145
134 0.002649764888936995 -0.01055319589262114 0.0016613739304176896
456 -0.010397007583794011 0.011256319462004484 0.006963224543104098
1591 0.000756705493883548 0.002271953611627694 0.0012882598406907546
704 0.027312682037097667 -0.020735456051678383 -0.012476569057089593
165 -0.01881867181908808 -0.0015048277483413358 -0.03644696953483664
322 -0.0013414366390875857 -0.0013333220414576891 0.001685348663122281
324 -0.007494869288635133 -0.0011549533200473985 0.010462180894692976
163 0.0019626092464373602 -0.0003523035753018191 0.007995293463786014
495 0.0028474474290159143 0.008290005556796843 0.0029451865146029503
151 0.0028582934309419315 0.0014814385094792418 0.00909055854394216
200 -0.006455958459102472 -0.0029542640541622904 -0.017463243851936396
1567 -0.0004924165567906879 -0.002206089787059433 0.00035634543539783345
1484 -0.026734166748114168 0.002659019819890435 0.012771123671927754
1693 0.006502772210063915 2.0983053908807464e-05 0.0014325021371350767
185 -0.008365767550193973 -0.004929296139194328 -0.0025926255922205416
184 -0.0015178781389912272 0.003599086095766377 0.001964914849827158
1695 0.002166914519340902 -0.002707847286390585 0.003178662406341157
705 0.01575874275548692 0.006842052850464205 -0.00777962794527693
186 0.006932055144406222 -0.0023211992337924007 0.012641374802600325
659 -0.0018191897898762828 -0.00469131494583882 0.004379517403533017
703 -0.009585564071010891 0.0053696009634019975 0.0022084315775024108
1485 3.0533050143945034e-05 -0.011701572596293801 0.0048728746576165854
272 -0.006443399985348572 -0.0033992385439768763 -0.0055620966280257745
325 0.0018776938129451927 -0.0008287774321056236 -0.007976664464787833
326 -0.0020101847494395668 0.02722470525265331 0.003555317412434221
327 0.016395407440042267 0.000973378317323594 -0.013037920940655182
1204 0.006405435772716162 0.0017271594341621227 0.009196674328760215
1205 0.01789664541278719 -0.02082362338626842 -0.006255206243988933
1206 0.0034127186192858677 -0.0006610460000374135 -0.006247406904999955
658 -0.002342281528573008 0.0023265205870114884 0.005516164148176887
271 0.004633750684204593 0.0022830431653550723 0.0011362580026539942
273 -0.0013312112181358732 -0.0007674432308699639 -0.00014700499852039623
626 0.0064231976723046515 0.021030068685221476 -0.012570632094166631
984 0.01123448831427432 0.01083718953300498 0.005118849283427451
983 0.011372351681185557 0.009096229935990961 -0.00800339316558303
982 0.0009702900757955035 0.0046859628477812455 0.003916305343677745
1483 -0.001748217534078599 -0.0020647414095277816 0.003459035336607481
199 -0.005218736943772401 0.004063566588727154 -0.0009736421465806788
105 -0.016145663988208363 0.006671766277870834 0.0052729823491008635
1552 0.003328081754518376 0.005411888002768981 -0.0017627147250753542
1673 -1.8976549718845296e-05 -0.007455370775565866 -0.015887183711195477
270 -0.016000891691429115 0.008796114060127957 0.011699344944279436
1562 0.003146076278438121 0.020347176384153808 0.0007297668883183662
1554 0.0026343401541442015 0.014600541037945195 -0.007085913785890647
228 0.0028143349103194153 0.00793236550141356 -0.01676115858607601
226 0.0007195006985452383 0.0018214742898303553 0.002718616611712346
296 0.00374701470293413 0.017510267728271554 0.0362759282518956
625 -0.002626389405800175 0.0017615682292732992 -0.0010154446561106247
627 0.005373450513766902 -0.016741293403774234 -0.011212128763546858
295 -0.0014447916804055 -0.001758658543895639 0.00210032968704972
379 -0.003458387209771739 -0.007623895952438433 0.0002597873863929632
380 -0.01718953987789819 0.004924590650530997 -0.007173363567286944
372 0.01443385991884517 -0.0055413923353104366 -0.0026830794944806033
1561 -0.00969556273231562 0.003127257609214236 0.0013992664035797529
1584 -0.008802387857048868 -0.016294638393565444 0.013116380241482069
1563 -0.021687788399138243 -0.01012630119521716 0.0006940323686267428
1404 0.00541995480270886 0.018801919028662142 -0.013854953595842745
76 0.005493894114591213 -0.0027119191639919864 -0.00030682508214942896
1583 0.014882535942396984 0.003130480461362106 -0.014160640721626754
1582 -0.00043858203902539015 0.0026483392474696017 -0.0026790849749619735
77 0.012765183891965837 -0.0008946449342437746 0.00019194914626171082
1402 -0.00032782906098920075 0.0030141132437777633 -0.0013359864909542932
1403 0.0019466580480212905 -0.023864417926114344 -0.013515007934472708
227 -0.0052752437933041765 -0.005657800602267103 0.023938464088554497
297 -0.009178449917800213 -0.01285621213277207 -0.01728867133296014
1478 -0.0027076668489921063 0.013346703491922225 -0.00026964589107941755
1477 0.006111217236675154 -0.0032298040491170452 0.004436674548667991
1479 0.0029485205322156193 -0.016130839634641833 0.0067119105373470555
234 -0.003073863585975628 -0.003624134242548395 -0.0038076005379850952
1438 -0.00023833949233018672 -0.0022799045016189306 0.005501741365502127
1773 0.005003279293519855 0.008551279386484657 -0.016814493940516415
288 -0.020172685687453257 -0.0031612537131845597 -0.008277863106447998
1771 0.005466435961561468 0.0005248990696157566 0.006712422922047383
232 -0.00027772592424452796 -0.002352071757188794 -0.005168674617215746
1250 0.005054737731463082 0.00990960445933173 -0.0004633472848074947
490 -0.0054122236687917805 -0.0007521842308894591 -0.009259742188591534
489 -0.009014350276085926 0.007044934306130899 0.003492881135520043
286 -0.005281518202014713 0.0003960773020476407 -0.00028099153780193777
287 0.0070062918721104 0.007644993568564234 -0.01162026977876532
1586 -0.0023992466160279464 -0.0065011001780375 0.000904736973248434
933 0.007481935298591305 0.017116310298500442 -0.016928980342079607
932 0.015111962792854308 -0.019335065163819564 0.0013491419680521286
300 0.015024545741590652 -0.008026965619235604 0.01054261052401017
931 -0.00399473891263143 -0.0031911717432236294 -0.005361043998575757
1564 -0.003359011100075378 -3.2756995835414425e-05 0.0020566340646751926
1128 -0.000565407017009509 0.01000511622834022 0.0113395654125157
1565 0.0049789074697329985 0.010354096760923416 0.0035195118386839104
1566 -0.006170291907936271 0.005097608249670633 0.014786874241604615
1126 -0.0007472625605062365 -0.006373528315784935 -0.0002319710543910137
1127 0.011645608673486223 -0.0018957400357481075 -0.017214996915009443
298 0.0034393691454579715 0.002124604897061028 0.0013551043108950315
299 0.01922891259536187 0.005781031799298302 0.0005150789362768659
1037 0.010245534562856318 0.0232653315071002 0.01442315454275842
1440 -0.002260332412716539 -0.008686907627112104 -0.003239453223554011
491 -0.008300436449876299 0.0010215530660796447 -0.012689071786678026
1073 -0.004063615337486494 0.013835351153924584 0.024167257261280568
1090 -0.005871595724570688 -0.005331088268113717 0.0025610937950131794
1091 -0.003559488946980573 -0.011573815042875961 0.003987861960951756
323 0.0014029353458507206 -0.020829937264557376 -0.0010748385059540645
804 7.900290472187778e-05 -0.008118475756322765 0.009229031862243347
831 0.007195682563539437 -0.006516403217734486 0.016125951317834383
1748 0.001087019624577088 -0.00013211211851441495 0.004196998680355949
1749 -0.0031751140115617825 0.007309172001830922 0.004709385326234302
830 0.006539080570743012 -0.0016555706503979697 0.011359592403768961
802 -0.0045897341245774 -0.0024015658511992353 0.005607591787161399
164 -0.006902790972955961 0.00029065135511156033 -0.02099997613508122
1038 -0.015521329206034641 0.007714403027922889 -0.011543723679566853
1036 0.0017391853187753335 0.0016465622111826474 0.003858786393232774
859 0.004992924793809251 -0.0036549715766510584 -0.006439783656591565
860 -0.02097940018976862 -0.013397012052571326 0.007030561384058992
1155 0.004938686433207749 -0.001395791764476781 0.012461738395220549
803 -0.008513827220235465 0.0011472694163302416 0.006773553895941691
1747 -0.003108061004930561 0.0015817977643869882 0.00398963802351117
829 0.004170166940678561 0.0026695763979610685 0.0046987201309963995
414 0.003260907845318661 -0.004842687654313755 -0.0004030847153147139
1153 -0.0004033275894537227 0.0011296672292689127 0.0030416044428432532
861 0.021298260275559623 0.030831493529904257 -0.010875691384961628
895 0.001967085374993494 -0.002874509475371305 0.0016458585297808906
1569 0.0003508474609083849 -0.0025209707146076473 -0.0004392323257903216
1074 0.004766837112931429 -0.006364548231195611 -0.015713485053683043
1072 0.002696225276489786 0.0004762001677402684 0.008325191081442153
1408 -0.0010806491100765626 -0.002098033218502177 0.00451037038421701
140 -0.006969233480670196 -0.005553325111956745 0.0035801889311027684
139 0.0008242607300202938 0.004027622496569091 0.004759508105420693
141 -0.015795010396308262 0.0038879072387296753 0.016530632806972662
660 -0.005537870303007304 0.009268608257039514 -0.005277234102139162
958 -0.0001596736704219242 -0.008111077359245175 0.005605035396361992
1154 0.016213569264082565 -0.01586036698691473 -0.012476658588805803
1414 -0.004235517103084187 0.0050206783990595005 -0.0004568278521412079
1415 -0.004008745098057529 0.021616121977176363 -0.003979365089722437
801 -0.0030303884426001906 0.003822763768217021 0.004532454101978894
799 0.0040546738919014285 0.001884312393921127 0.00026830046334210743
800 0.00635493792631825 0.005477182231194159 -0.0019730287831825886
1416 -0.0055289295257852185 -1.784386859250237e-05 0.002617194021748248
1453 0.0036795802169223156 0.003474976887727625 -0.0013024490284768292
1454 -0.0064137360069577935 -0.014122859413933642 -0.01324584120931491
1455 0.017564489701086327 -0.017711799615107365 -0.01823399987086586
960 0.005138773661695018 -0.016827689868002475 0.013515014664773376
530 0.0006224949367025288 0.02271612399858788 -0.022462490251258967
959 0.009089488235779866 -0.015528327580011398 0.010001096868231339
1280 -0.005023944823734631 -0.0012642855774423736 -0.008763536963308357
896 -0.011627487049695939 -0.010375708357098133 -0.010886569024674136
1043 0.013538024901153236 -0.0013059993082163881 -0.015221756858249369
517 0.0009642942571465735 0.002907703544624617 -0.0007451189730419391
492 -0.005169255916394038 -0.0020516280091111565 -0.008668700724635547
1071 -0.009872861524812109 -0.005871676924037803 0.0029511810490028397
693 -0.003444336305152825 0.004994848883981101 -0.004822833258954971
529 -0.0039012082878889837 0.0019391556613074451 -0.0028949242805947025
1256 0.002410340643860263 -0.00495656844648393 -0.015840953055552047
1070 0.006660413032655287 -0.00648279590173679 0.002359656125953176
332 0.011114226987756125 0.01665068757870874 0.019459250249108224
1161 0.004906007095882104 -0.017211794297133706 0.0011500969740403158
462 0.0006413107145691293 0.009899595950067201 -0.004571120603309988
1255 -0.004807680209889652 0.002286966799001756 -0.0009452689360314934
630 -0.0012760843857879082 -0.004133436852299351 -0.0007583702649277273
1069 0.005487582576810228 -0.0023940405439790992 0.0014635884250718025
1050 0.0048087674373767314 0.008466370853777595 -0.004428421469912134
333 0.004559261116008912 3.7359023892220334e-05 0.005721572578878351
1159 -0.002555324865445902 -0.003389626598320619 0.0037233257390347305
1249 0.0008923012786529832 -0.004587458496001251 -0.00014483460074062008
1251 0.0063061887900218985 -0.012426634083518264 0.006409905209156112
331 0.0027340315778844656 -0.005003579233610445 0.0014730798962181426
691 0.0014592903377327376 -0.003254814650888431 -0.005716999954369814
36 0.00579734148082389 -0.004951104703659358 0.01553235720288177
35 0.0029273473218044354 0.012541943860087472 -0.0034690387305731786
747 0.02125167571730755 0.012984602052366507 0.011092220327636543
628 0.0005604072427079825 -0.0008535051173202422 0.0001733917188623749
629 0.02033145326724486 0.012435698274943731 -0.008770654127725437
518 0.0044792455763141845 0.006060691491330356 -0.023857553201705226
289 -0.003525054357535718 0.002434004423303292 -0.0028897060862071674
1049 0.00870918578821821 -3.250594677571463e-05 0.007399881364310261
290 -0.012667331967806344 -0.0005926639292389302 0.018082553702136045
1048 0.0054174262084201 0.00192215891957575 0.000413771981656374
1160 0.02449385490284216 -0.006083414915775758 0.02329979441686733
291 -0.002132176187898543 0.008371738106299279 0.0103850212296968
531 -0.029283189417573248 0.008776318990808505 0.011309658083954087
34 0.0033710010641020685 -0.008976131244454726 0.004361925356870521
363 -0.023352276329724354 0.017491724256477697 -0.004061138780579655
438 0.0021922915436412694 -0.0012082459894007676 0.005780295834291873
437 0.0031397046424893418 0.002047618654237245 -0.008968505912054956
436 -0.005235196773585383 -0.003933963522392314 0.0040364738975859175
1264 -0.005893764663716668 -0.0005679394179361835 0.000842748347558477
1266 0.007659324794586962 -0.033074976321883644 -0.009350574638112319
1623 0.021474744946448764 0.0103421258046991 -0.002189372835177581
1265 -0.004240433107805648 -0.009279197018140208 0.008907278238785076
361 -0.006485188274502736 -0.006826224196866525 -0.004032821190737417
450 0.01503667849573919 -0.001874469994332984 0.005808966170608681
448 0.0017453432450900263 -0.0028470606375494167 0.004697586971515028
362 0.006157300531853359 0.020429576464612846 0.02416588958636817
1327 0.0029625079911636556 -0.0010972354573466582 0.0064750456079887995
1329 -0.0003646786285080415 0.00033212820840979637 0.004020599308368657
1621 0.005943300308989939 -0.001848160279016385 0.0016215006266187295
449 0.0348442649293942 0.00024716630897806183 0.006790855828786872
1328 0.0031341702280630558 -2.064143879534855e-05 0.004311278581671441
787 -0.0036170765727877754 0.006787415517243864 -0.0007313866876408055
83 -0.002978113970255697 0.0019413627709711943 0.006642598673008207
84 0.006341260081262871 -0.015868177690236705 0.0011345617890262249
82 0.012143128778206448 -0.0001856075944207722 -0.001252729234925177
399 0.00043638251960889006 -0.014223065335225807 0.003856949194356926
397 0.000940495878342578 -0.001466443956079253 0.00526827851234015
398 0.00692812905998426 0.007284515854576031 0.004889998890645706
1669 -0.00300723879129401 0.008045490363128155 0.0030337417204418576
788 0.0010180984881172704 0.004346277514687197 0.006223774868360982
726 -0.004337966349072578 0.01109092263695602 0.016806481048341614
520 -0.0024142196500653436 -0.00544514854988743 -0.0019545995068463527
521 -0.0064272034487696085 -0.005926933033074106 -0.0013601060136328223
522 0.001335254611231564 -0.0034272581498954193 -0.002929156459627561
1209 -0.0038272827701037 0.010080439782735238 -0.017080673988093223
1208 -0.0062434818601519474 -0.015224634317377706 -0.0088342062933628
648 0.01000937487099307 0.023468334122805055 -0.009057745427036298
1207 -0.006288488902187645 -0.0015239990478902567 -0.0006876303993461187
783 -0.009751895587048406 -0.016014393096712615 0.032937899900340094
781 -0.005277266959092442 0.003351436047404473 0.0010066239461353835
493 -0.0036549947253807337 -0.009597268045875589 0.004101245453818203
253 -0.0012412749994917282 0.010014705244253626 -0.001831727387066539
254 0.0024997238634888136 -0.012043031291407777 0.008549701025635185
494 -0.005504343907297785 -0.027959598914632542 -0.008536421365977206
646 0.005737853983272304 0.004783193905269477 0.00197442986220726
1670 0.0023353636402484775 0.005572162230439131 0.015389620729802454
647 0.004241153076354431 -0.005881070035623287 0.003864668150726815
219 -0.002454949436873697 -0.003686269190772349 0.009321934686150193
212 0.015195608694620553 0.010580876869684102 -0.014961426887896525
255 0.008677038301636056 0.014945746876794884 -0.004753329256532117
455 0.008409901725059581 -0.011338066252585698 -0.023052666165594468
789 0.002937922520392254 -0.010284898635239898 0.01199096313669814
1791 -0.014949894614817136 0.027941132287793855 -0.004554492897480926
1671 -0.020255206280076377 0.011752389328670976 0.011640016182995344
1632 -0.009241737767342294 0.00018366960529031645 0.009055223231878164
213 0.0031804894330778955 -0.0010396163421476368 -0.0012303978872491884
211 -0.0022302940269365358 -0.004148964013405891 0.0012690962147437184
1318 0.001352303337697446 0.0027109350102109825 -0.0022632730920334743
1504 0.004555347574019018 0.0037693916070635843 0.0005181429657507351
1505 -0.0003975315179583836 0.00045474896673428213 -0.004135549802600385
1506 -0.008338038641032523 0.01667681971271552 -0.003316809069881269
1515 -0.000509029750755111 0.001972825751586805 0.003736496896533862
217 0.002472589339831951 0.0028008543456943687 -0.002567140767986717
218 0.015250498375849643 0.007431819334639332 -0.003956887190458132
1320 -0.0004878051405970131 0.003042315111264202 -0.004034662604375035
1578 0.0033717723061104164 0.0082088126862055 -0.003911472996836831
1576 -0.00782801211660716 -0.0018920828476225117 -0.0015707923989529064
1577 -0.015564067176911946 -0.000382623989275441 -0.014357379042310717
1513 0.005951035327231945 0.004822318810264122 -0.0002728855490352781
953 -0.005394189320476042 -0.014345716582609358 0.006667507855801927
952 0.0019521642021568713 0.004012566100438008 -0.0029216212703603067
954 0.0028597341232180474 0.018721924990256725 0.012469290473268122
1140 -0.007366632249271045 0.011600590702623684 0.011228444924189045
64 -0.004601788713297709 0.0020558559435027196 -0.00030007085513345807
1319 0.0018306337243915716 0.007508361103729467 0.007419423495057617
65 0.0009781534217045435 0.01380218772935715 -0.00867906248222656
103 0.008162426967060576 -0.0009088615099006234 0.00045658047083311257
104 0.007314232731307268 -0.005843050296739522 -0.0152693977998774
610 -8.115517220802052e-06 0.0003572781174314882 -0.00210784600827465
612 -5.0702372161864304e-05 -0.004371410820796505 -0.013287453539614646
611 -0.010400671349421051 -0.0007975178196353977 -0.007792081034134566
573 0.004866677799348368 -0.0074103517233060036 -0.0017150511421297745
1138 0.0018122593769927002 0.009652322098633424 0.0004190146255903073
1514 -0.014676276968648904 0.003520966669010938 0.007740458541185741
719 0.009350398542821752 0.0017329720813803122 0.01456509793822033
201 -0.002698453646538993 0.025242974790633217 0.002050505998259024
593 -0.003134999431749538 0.028019708175917545 0.01784320937615655
753 -0.006695237667542005 0.004502190552742445 -0.016298160823233123
752 -0.027918719669847263 -0.007031818392504115 -0.01578468019011796
751 0.005368720553437344 0.002060513154706481 -0.0049219762024039606
580 -0.0008830601844990361 0.000827770724199659 -0.00023587348274763434
497 0.014441970896180191 -0.0021703477194453084 0.004847739114864054
496 -0.0003049545290789031 -0.000720037244722583 0.0021808598993532263
498 -0.0010768447641485023 -0.008620342954558095 0.0025535443154003656
470 -0.018890157838179607 0.01232896268710913 0.008981058970134768
1553 0.014035202004982966 0.014897150274551088 -0.006924990002438546
635 0.002904711228933115 0.011992453427964764 -0.004647025333010029
636 -0.004777983867954348 0.0020228838749605086 -0.00836307599301141
594 -0.022915108976855267 -0.018837552805929726 -0.002662190455150232
592 0.004177496871099368 -0.0006945051925876872 0.0013520665688155908
729 0.0006367443432560645 -0.005758655719898155 -0.016056785743705955
198 -0.015706796047435793 0.011541943659137724 0.013349947303231637
197 -0.010097349484490025 0.012967196822501924 0.003719382541661115
727 0.0038414188800803685 0.002123302269250105 -0.0006546476858841475
728 0.004863270680215134 0.005745700961041785 0.0065830789104013
965 -0.0014656124198026014 0.009654595514244635 0.033112883041370944
1358 0.03607317832455999 0.006996648889793637 0.004501204313325436
1359 0.00582529610846182 0.004390223644110618 -0.009533685368789424
196 -0.0005015784923595457 -0.006158908154442779 0.000468388238989108
1556 0.01953462701621419 -0.010678097475185232 -0.006426609149697048
1357 0.0004859252284724021 0.0020609651784918785 0.000719242409879319
634 0.002015773629464936 -0.0005566986984335568 0.001591456175817166
1555 -0.0009664237039026805 -0.0025294521224093593 0.0005688821117537045
1031 -0.019774781191037687 -0.0030804291155074656 -0.01681311783183374
581 -0.016831856489144138 0.005943691023766994 -0.009792716290535098
582 0.018879023675360554 -0.0116291602031627 0.012049954284653643
1030 0.005758935248827666 -0.000245336195996564 -0.003770781837545809
381 -0.02841940554931365 0.013495858271847131 -0.014264348857354931
1665 0.004430005639300514 -0.000835479716482833 -0.0033383816938965414
939 0.00924846626793311 -0.007540576163276236 -0.024890097320401833
602 -0.002418144002347852 0.018584971115983572 0.00879753737709004
603 -0.005311317534553997 0.012636946435417188 0.007240071917072789
938 0.003294902263551104 -0.0036114154636539353 -0.00882506798078157
1439 0.009297878723746034 -0.009935725007387108 0.004828440647599867
937 -0.001679091132760772 -0.002423176859514375 2.5719350025075194e-05
601 -0.002576337506717368 -0.0006490373376710829 0.00709493435625758
1663 -0.005927743020995746 0.0012151584651934116 -0.004690773371506065
981 -0.004417172999984433 -0.0024053742765441986 2.736479903663367e-05
979 -0.0026972172437645554 -0.004294634174375445 0.005695031028066769
823 0.00047410920502021707 -0.002167360853287595 -0.004237550363823007
824 0.0248832033272786 -0.00048289822027891354 -0.010969866619574447
825 -0.014262370957301054 0.006143559097221819 0.003983069949103903
772 0.0024610432202102706 0.0032231906890242664 -0.004473260613870274
773 0.020389877309545137 -0.013471998648783599 -0.006607455267343331
774 -0.013700999282042714 -0.006600213245392219 -0.02013143172489149
1395 -0.009125014519700138 0.0012173890536859003 -0.0028154683338639003
1131 0.005239921708821253 0.008535847544494456 -0.007653454587844015
1685 -0.015970937474116875 -0.02344444485507545 0.002727372113854355
1684 0.004106510107074264 -9.035042782157206e-05 -0.0003038365485753411
1172 0.003906702454701987 0.025592507425720775 -0.004084642837374334
1664 -0.00887693053926049 0.0005052829485332633 -0.003733296907297413
504 -0.020636766416717637 -0.0035485381247876715 -0.0010995469024492148
980 -0.0020130084364537114 -0.00444731225603229 -0.006310698975431634
1229 0.0012322652557697066 0.014942749443861786 -0.0017071299641045572
1130 -0.01861857153161326 -0.001581310419030517 0.0026678158734276263
607 -0.004921888617865837 0.0020593001799459843 0.004804112721347713
1376 0.024273177759691164 -0.005730036660014083 0.007122204987111526
1129 0.0002082673872454848 0.008074364590967902 0.000548966805123419
1604 0.014069535079456824 0.008896394059894027 0.010253374844813748
1603 -0.001363670362856219 -0.005652933918612198 0.0003272616876173361
1605 -0.0037089734316366565 0.025043503727530295 0.007109321284175039
586 -0.00019749026271374782 -0.004683876820647361 0.001811527196960323
587 -0.0064202535861324055 0.003912701874801231 0.0032920974776273885
588 -0.01739042737322079 0.019202904143236558 0.011438263761854786
258 0.0017464319061772382 -0.013113533149772878 -0.01122524063721584
256 -0.0024054422573223755 0.00040307873056172897 0.0012842929673014475
257 0.003773529450482227 -0.0081376234936117 -0.0056340710356195985
1634 0.00445232568705765 -0.0009929179237817272 -0.0002624086394635138
608 -0.004333127881909961 0.010184957655727528 0.0033785825382945524
1375 -0.002222124114771686 -0.0013604160694272937 0.008176339863293362
1635 -0.006797827583375495 8.586469485808871e-05 0.009294068606015749
1186 0.004742349847021841 0.0050791882086910186 0.0033683220451756926
1187 0.024942308695065526 0.0183231181860893 0.01158895704498632
1188 -0.014472521397291282 0.005171002881837344 0.022130378023756773
1633 0.004040303432402392 0.0012168267932201708 0.0017566303396196466
1377 -0.006397399785933655 0.020405162831041816 0.0013873039638905803
1228 0.0012723672285373364 0.003158243427609619 -0.001297747238439993
812 0.0036887957440000464 0.006953318001527889 0.011186016369665232
609 -0.008644358558801205 -0.043422981234868666 0.011407346160249132
1092 -0.01707906094083002 -0.019821009860595467 0.0064042557896104
1230 0.0016784913508155908 -0.005160115535972865 -0.0010204824707103152
1580 0.012296066501237286 -0.0038663179408540767 -0.03497894863167536
897 0.015706603618526684 -0.009744270198746975 -0.004619009301394023
1466 0.017012220218612442 -0.02306003383331097 0.0010252802089309673
1620 0.001820532424664926 0.0030474652300565685 -0.0010526193838894492
1618 0.0007887837266578703 0.00346410112348063 -0.002929589673487744
1650 -0.001591438860842467 0.018942895008148223 9.055033512841946e-05
720 -0.0053388361585781285 -0.013136527915507729 -0.012536697475850017
718 -0.0048414728226565335 -0.000297448257462944 0.0013108262822138592
1648 -0.003726340562276526 0.0033841444964821943 0.003547525906075466
1649 -0.00712703683099165 0.0046032653692216225 0.008520088261741093
58 0.0042113491653001925 0.003076200763827563 0.0074251918072943505
59 -0.03370080559228167 0.015238805094292976 0.0005763800258525702
60 -0.016822585341565652 -0.023889382080071225 0.012461983576321105
555 0.0037184186021924815 -0.009528820396360256 -0.012918854781027077
1579 0.0049237470310423 -0.0038667550891782446 -0.002898821202299055
1082 -0.007561396247186289 0.0006745070164141801 -0.0025366881562184735
624 -0.012371936162207666 0.0018285423130065391 -2.6079808946638302e-05
623 -0.01321761316940078 0.00556906708893803 0.0032103993020984843
622 -0.005310013026870159 -0.0037801689646492467 0.0022470125956206596
1581 0.008947277608717627 -0.020839065600317026 0.015042858477489403
405 -1.4714333642604442e-05 -0.003451364762678649 0.005280486346513023
403 0.0017858275471153166 -0.0033667030378175555 0.002338437053053254
1353 0.0055344971500121 -0.005012324183387212 -0.00267895610509109
1619 -0.003113006162681023 0.008249005946781993 -0.0062119700245378455
244 -0.001968757772771283 -0.00013366358541242712 -0.0024731746558491062
1352 0.0038294717216526817 -0.009525443911109092 -0.005588247947168237
1465 -0.0003813151235002057 0.0003490641870338243 0.005724776608555005
1351 0.008785519232630174 0.000823819832024005 0.0018466451748522443
1042 0.005671059722971438 -0.0008183718989043064 -0.0039031156886424373
246 -0.011021116599268509 -0.022295001849469347 -0.009666604440591663
1799 0.010482979429145205 -0.014906437863503368 0.011794194738411526
472 0.0016697777529260387 0.0007974630279714713 0.0026624573294731666
337 -0.006000783467360088 -0.0016212333124287523 -0.007528785253258928
339 -0.004746386899596171 0.003943566755402927 0.03638086981758137
338 -0.006068897301530857 -0.0003657239152810724 0.014036631232017439
469 0.001654481843489649 0.006541271084331931 0.002294728002060868
471 0.01633611495265392 0.022534818090925553 -0.0006518520729901621
692 -0.011667678946608667 -0.004443294081287164 0.00853300217573727
108 -0.019022874557516934 -0.01201358532985534 0.014649783054170556
473 0.002549757962685074 0.004018279345032863 -0.001121732863466137
1628 0.008651652746136001 -0.0020330302757101144 -0.0009318863981068044
107 -0.022324336839232604 0.020930104520151364 -0.007346589877423266
474 0.021149720963340123 -0.008230469903691202 0.024897456159424704
72 -0.0005591548592676776 0.0013483458838883231 -0.004429880196739417
70 -0.0005212761962433355 0.003425490427674395 0.0015641877760986002
71 0.0027355465844193716 0.00039973301999971124 0.011850608665840983
1686 -0.009347307459634966 -0.010171239101922512 -0.005094679522659064
1730 -0.012622404585525696 0.0447407272383663 0.007419967203157082
1627 0.010390849377743344 -0.0024521563276412132 -0.0012678532936287743
1629 0.01114786100967676 -0.001016140279617242 -0.002163680308454921
1729 -0.002514640765995402 0.00028446429705857897 0.00013541553373728018
1731 -0.0017848657962694838 0.005634112628101789 -0.005764289521107395
174 -0.00333492500762132 0.0029195583339564463 0.0004264561600355442
106 -0.006420464330863827 0.003504047949269436 -0.0006210303464939083
746 -0.03037656399673752 0.0028182769199662752 -0.0004467942486949762
172 -7.017379240374288e-05 -0.00032075563675441893 -0.0004211368005968295
1044 0.00827745183964559 -0.004473253418058681 0.007542620211873571
745 0.005178084482727251 0.004138197089486651 -0.004943787033907229
708 0.0010241125136914123 -8.99537314455526e-05 -0.001031382209320328
57 -0.001535310467070945 -0.007581822533992021 0.0028810895846259625
858 -0.0138072975396092 0.008923284304070064 -0.003447165959700404
280 0.008518450211881417 0.002137994351255057 0.004954857658888917
309 -0.0058320658619602185 -0.010753002479919732 -0.0016368002929479848
706 -0.00041612911137191007 -0.006339094091260703 -0.006445653481646615
707 0.0019103499419302734 -0.0014413892258506207 -0.00638362131579856
1134 0.01981366452715992 0.009172540513910275 -0.019004746522611467
1201 0.0014254979848640956 0.00943150108805531 -0.0014277054229328897
1203 -0.002403251980927483 0.018817909705530083 -0.007084514329980676
764 0.025144835225784 0.009098202355447569 -0.018670110095737446
765 0.003725865949672215 -0.004013692592733742 -0.00246484112537809
763 0.0017851696849580912 -0.004792223628291143 0.00037569873367552663
1202 0.0017967730423082335 0.0149702519807832 0.0045002810896907
307 -0.007037808567960112 0.004304508824865441 -0.004016907422291581
278 0.004450707255096504 0.003419838098814213 0.01227026078546706
1622 -9.664013884898043e-05 -0.005893280352075542 0.010002657011772043
281 0.0019222571314252723 0.019604686288185263 0.0008049464155563543
308 0.0009036657732438705 0.00880286765561914 0.010263566853686932
856 -0.005532343650762511 0.0007075665168591077 -0.005238153849386344
1759 -7.502887296350406e-05 -0.0007406682026814842 -0.007573116020629015
1761 -0.030161192641188925 0.0044149332928760535 0.017112800825118787
857 -0.008289227194243274 -0.008386590772804941 0.0159223041669866
784 -0.0015736393803504633 -0.0032083109971935576 -0.0023125917848506165
748 -0.0017407005678865175 -0.0028860258477046616 -0.0007386323441020838
749 -0.0003418563113552739 0.015674198776119176 -0.008370454994588076
750 -0.016075611040665957 -0.004153318308592923 0.011745368301163663
1442 -0.014604210841458323 0.013246830545116665 0.004123379285213793
55 -0.0004440345832955626 0.0036093972663669223 0.002763195596643151
1391 -0.012457380068645933 0.009111358084782304 0.012673007945825761
1132 -0.0016482873911875104 0.0006512943936702733 0.0042101117134957285
1715 0.003419434123078718 0.0099091455292635 -0.012666486746725132
389 0.009367514518953093 0.010374198300800637 -0.017866372026590065
1750 -0.006224082311835797 -0.001629914694942471 -0.0028974731266186585
1751 0.005908693923234579 0.005179157359094085 0.011585661623161192
1752 -0.015581051910802423 -0.01139143141386161 0.005394910315665482
1789 0.0009038684527873168 -0.0006049662848524996 0.004792216413585526
1790 0.015076425191357117 -0.021016919244460662 -0.014089518478297904
458 0.007379821391709762 0.00036546606234786526 0.011734326930064811
1443 0.01010703995947361 0.01037236984645565 -0.008544800328149513
459 -0.0036105349818071437 -0.004649934506737702 -0.0004030463265048696
457 0.0073031495227898575 -0.0076489190786829435 0.0009621786664988763
8 0.016094892406701998 0.03761469614120429 -0.03094440720317319
1392 0.012274114492100894 -0.010676770344921215 -0.020494934265967005
117 -0.00570541233790692 -0.007718697974218363 -0.0012499756074678264
1770 0.012848046494745682 -0.0004949345337432815 -0.016818064148859852
1768 0.001633638483429286 -0.0019176583192617848 0.0008479681373013033
1390 -0.005453330765060537 0.004155162343535668 0.0006943610188419745
945 0.003007996543288724 0.012705636802709485 0.012953307319727865
1034 0.010370464755826342 0.007725959037915613 -0.006878754480698352
1102 0.0039712775425164715 0.005058770568739557 0.010426178172650239
977 0.00520916713100089 0.005832564141922687 0.015901377667542897
210 -0.007094051638326101 0.01291191885462666 0.006324882454920427
9 0.031014239545177083 -0.02063215322363413 0.00631298155573968
1441 -0.0013174153478538323 -0.0017075123025833082 -0.00306370913526785
208 -0.0011917628478294044 0.004491871816368448 -0.0004341252421097968
833 -0.009653009114071381 0.007399144945629774 -0.01372933687932747
832 -0.0030153777872770075 0.00532857230039443 0.0016750890682247514
1104 0.0048223065323018625 -0.007381873823986494 0.016247083782068027
1551 -0.012445340929344018 0.0071592476937758585 -0.015105703483359609
209 0.004302910212253215 -0.0012828379469513058 0.006049993414157984
834 -0.007359663548164495 0.009574427838283918 0.00912237158609625
1033 -0.0025885573108944534 0.0010948505377136762 -0.003104909998674655
1035 0.004591534289316553 0.0074916095777393665 0.014182351360120263
1699 -0.003549244470930444 -0.0019025429549169557 0.0019191024500707719
1701 -0.022542152242308506 -0.004307328664354954 0.0023426410755833208
1550 -0.009632680158883314 0.022824370237248353 0.0015072922716474698
7 0.0011761303057904204 -0.0023330460118561494 8.895261835357436e-05
1324 0.0017830056666226692 0.003176936017994232 -0.004061999793488838
826 0.0002966341895040498 0.0017667988496280341 0.0001764382015365211
827 0.001257286035246954 -0.0018575500331914068 0.009279984269188482
828 -0.00881413979676257 -0.0006276109746574305 -0.0032137567838201684
1700 0.005396845079703191 0.0025997870946809468 -0.0011423350348064615
1549 -0.004176911168913724 -0.003742139819220696 0.0001693390242723647
348 0.00044165555769672913 0.0009962745517328733 0.005626926533280952
347 0.005782386458550615 -0.010585886024685773 -0.006007604603614927
346 0.0029556250820487622 -0.0044316634536658295 0.00014397556715611178
978 -0.006481727611072763 0.0047928733874331225 -0.009758717422241997
976 0.0009963375818041087 -0.0024737817920516304 0.003749330739662491
1687 -0.001198023578024808 -5.565065181389205e-05 -0.002783977704579163
1689 0.002385957373391275 0.0008222300732443155 0.017623513154058364
1688 -0.0009589607150929298 -0.006624504388491748 -0.006949297848900919
1760 -0.009975940035391347 0.004895788039377677 -0.0109067884190048
1544 0.005670293918467632 0.003357883927573401 -0.0006305197817571721
716 -0.027386307645313218 -0.0011840791997691834 -0.006401302389602634
1093 0.00538556464951459 0.0038480106223998194 0.002217499490617162
870 0.021569565686085125 0.008563404708206646 -0.004669337299872784
1094 -0.0003424354462476175 0.0018542114492245978 0.0026265521788842745
1543 0.0028962460723647968 0.003527907304782737 -0.0030006735750790826
1545 0.004874121530036418 0.0028362953579127155 -0.0005291171182302765
1095 0.003517890874127335 0.007103112868101914 -0.003985392544576929
543 0.0049454349096160165 0.0023288128024641 -0.004780470334066124
974 0.018008891372674647 -0.017340691512919018 -0.001424852378318287
1032 0.008792220025112936 0.013973481242205361 -0.00039163845341636287
973 0.004837036961485522 -0.0036933413314049765 -0.014170902148684284
975 -0.00690314413772525 -0.005469494735255916 -0.021525945070555712
541 -0.00019350094641654706 0.00012866552304045394 0.0022149089358033903
1018 -0.001839628625770228 -0.001560063421042144 0.0053230920340919426
1019 0.0048738371888668785 0.005393344052739816 0.010609546017738992
1020 0.005967599525694578 -0.023955415231402478 0.009479008141917513
868 -0.004386662154570978 -0.0005724916998684198 -0.005175558943496191
542 -0.010826382531630797 -0.0003180480308256106 0.006650015605661406
869 0.014837825814509297 -0.0237681771577374 0.004911085295627711
1224 0.006850093141560253 0.004583097544352346 0.003239382667174535
385 0.004729714710355078 0.00041525001292053594 0.00045531260817783164
935 -0.0056905481048188135 -0.000601500954644474 0.011641378600044874
1424 0.0005343759988375612 -0.005593582289494793 0.00927022256568561
1423 -0.001753495907054727 -0.0007851204528578906 0.0001904564329041972
1458 -0.00931161814728721 0.0030354291668856035 0.021082036965913837
279 -0.00048033449341181565 -0.019230717282100376 -0.009274179605786494
277 -0.0081755784501306 -0.002460471074526047 -0.0033743073900768515
1425 -0.013988195404528317 0.0045307081069896425 -0.035079765068341116
738 -0.02099124963004504 0.0016177703267340022 -0.007865497454106415
1456 0.002369399270558365 0.0017992982405960229 -0.003687685813655351
736 -0.00044902604252856356 0.005525696084307217 0.001513554851134977
638 0.0014473561894501404 0.0033051350417509034 -0.0020628483811847794
386 -0.015003524821985297 0.003633713363395327 -0.010761215658691913
313 0.001632333674901985 0.0009680290943486876 0.0010208163323748472
314 -0.0031329068530052597 0.00718856690459348 0.005928528994247066
315 -0.0013177546756316808 0.018228288676284732 0.002003292168054061
1118 -0.006249865681994243 -0.0035273535834489927 -0.0004280208493579934
1117 0.0014758900132052677 0.0026558810680494963 7.055370249831577e-05
481 -0.0044085510883310735 -0.002907856568439315 -0.0017228607143833505
482 -0.008164334612628029 0.016503188234582324 -0.01039779729487271
483 -0.0019068660723858958 -0.008217275782001371 -0.003945657798328411
1119 -0.003951922354919765 -0.009867627976152605 -0.010999226786116081
639 0.017859731024208323 0.013845475750154296 0.00942846543428315
934 0.005595399964993329 -0.001870751379866023 0.005748233010164658
637 0.003926139684352039 0.004175579273674674 -0.00016916667763462677
39 -0.004116946083713954 0.008332254044592407 0.006459744333534851
38 -0.0015407698475588326 -0.004534644935070195 -0.008108616173907695
37 -0.003108557203451257 0.002790743952857218 -0.0014617193335656883
123 0.0030075750734762925 -0.005235928026526023 -0.016235297107934685
936 0.00640858369796381 0.0031401417238614677 0.009915859942639365
1394 -0.012053197218532891 -0.008012907681297527 -0.001296828349790261
891 0.0018519881221090626 5.693831927571326e-05 0.0030178664716858424
1380 -0.012857741403770627 -0.0060210485219337135 0.0014541836744519266
1378 -0.0010321282986352682 -0.002672766014749085 -0.0004960109358142301
1379 0.0016631621532689769 -0.01611235214025596 0.008718846401417452
1457 0.004870281373026746 -0.012028991850303159 0.01572465530148324
16 -0.0025545988508266122 0.0016969563670088113 -0.0086874785606314
1769 -0.005498289010323414 0.0026183018435987243 -0.007234336748634268
811 0.001419206392509086 0.00011347154606949369 -0.005925647614235729
813 -0.01132430092125396 0.004672658365400913 0.008335077879075002
713 0.013150567803317732 0.011278859670692249 0.00244081304857761
712 0.001075074555394871 -0.0009552055337165048 -0.0017597804338655863
714 -0.004753952915973229 -0.00503283262775869 -0.006457824284519414
890 -0.01824319063723166 0.0012221370845377775 0.0013636610257208987
889 -0.004002247176412273 -0.0005452319412654833 0.002126944810590086
428 0.004642691647413618 0.0007106568814421713 -0.0016610975205405222
427 0.0052792585083273275 0.0008552077997399625 0.0001748557197625078
62 0.01861059385200317 -0.00021683022389705728 -0.0018457600010999928
63 -0.006165780286871594 -0.02027588322215148 0.0003037227983598936
61 -0.0005951465228345409 -1.954166052731808e-06 0.00029158158292849867
17 -0.004158365272770604 0.008231856248851812 -0.009249483708392648
429 0.007848591535624212 0.003949896710467027 0.0013995166972189668
115 -0.004031205983299438 0.0006935138775895781 -0.003989776097797131
18 -0.003803531708779186 -0.002850061628323141 -0.005410441411622462
267 -0.004591823849950501 -0.0013775222147049905 -0.03034562571508154
1325 0.02390105874016475 -0.006471769224632211 0.02243203043629571
1326 0.01841852815920826 0.02559278593469543 0.0019506912228263841
1533 0.017047149215687347 -0.00670560058133158 -0.0014774343542670893
404 -0.0001451593454816318 -0.018175704499090208 0.005348693877543192
175 -0.001287931923537898 0.005127086599082014 0.008308245591686463
553 -0.00106673163118469 -0.0013871720858152769 0.0015949371012184028
554 -0.00844091504706328 -5.014873002794351e-05 -3.05120515564659e-06
1081 7.905515306105665e-05 0.0002511859960832192 -0.0021924102235506976
1276 -0.002008440632769103 -0.0030454086984641276 -0.0003229657209264568
1253 -0.013401073811313719 0.00046946390508431683 -0.0013492347587535987
923 0.006979597152505483 0.009282873478953407 0.002974612479341437
922 0.003362105803364856 -0.0022065788816485097 0.0007474349893051401
924 -0.00539173661496955 0.014606888470466678 -0.00876303791101692
1277 0.0175563421269666 -0.01033954181259825 0.014610695486526059
1278 -0.021413885606525223 0.000513831128627389 -0.005449063325899132
1532 0.0003238822552146754 0.0037270039298025475 0.011391251805978202
1106 0.007936741184092733 -0.0006081063810122866 0.03492473374960579
1272 0.00600197912749201 0.007367324618340629 0.0032400217449388676
1531 -0.006015086629947183 0.004006777786055266 -0.0011164818266364341
1198 -0.002003979499085587 0.0038457393144213582 -0.000492564413297032
1270 -0.00011917020959284513 0.0009293480193679355 0.0022267433610346755
1199 0.007889424837160309 -0.010873916032523806 0.020421938287006277
1271 0.009511820139462394 0.006973675503286818 -0.010652057637756715
1200 -0.015096862616528985 0.009877675064685738 -0.005445935577380082
1574 -0.0011448502216512102 -0.008852802466651065 0.006724041520453694
5 -0.0023208886727582173 0.009622122328810833 -0.010201985895750054
1510 0.00629044858705611 -0.000244361722625076 -0.003551681710953338
990 0.008893759764389693 0.0007730840472196887 0.008537517118687731
988 -0.003055575228607571 -0.0006586427755001133 0.005273192233316573
1512 0.005882041029744505 -0.0030028944610262765 -0.0011158002683794137
4 0.003304417348976643 0.002188599300346647 0.0036957833070809278
1475 0.0007112699365410167 0.010634181983235853 3.582598151328756e-05
1474 -0.0032522938587487057 0.0028481940404893173 -0.0010970927861082736
680 0.0005343232489205221 -0.010026146696721798 0.007008670239200581
6 -0.007851369571691838 -0.0015150704505193667 0.006830640909181237
1173 0.008231430287511854 -0.008071533107880854 -0.006684297305454445
1171 0.0006217969527522603 0.002576002979463623 0.0010300790356766363
120 0.009519060935204214 0.0017016989062378029 -0.0024512801148107843
1252 -0.0032882763975429024 0.00033477858134641793 -0.0055725090416023455
681 -0.022269935458556354 -0.030863341203004314 0.0033994383927864035
173 -0.01287140123353169 0.002442431003033992 0.00199222465907955
1511 0.003411050134505076 7.510689550184817e-05 -0.0052971764590546725
1476 0.005675144609209622 0.009645656815219023 4.5628905114845335e-05
1221 -0.009481670080949117 0.01574407887571434 -0.010473874113171983
1254 -0.0024432063359633776 0.0048017111519238365 -0.014006944503616366
1219 0.006360195948188151 -0.0025954629200685268 -0.002721347650259137
679 0.00038645713051511834 -0.008057991651151755 0.004576836104793909
1220 -0.006930394538467512 -0.02282461412701431 -0.006011019739275473
1744 -0.0045769305505881435 0.002667092115309017 0.004195740010318054
989 0.009850290785928967 -0.0078014628098520625 0.0059673966253822805
1083 0.0014383779038335237 -0.017436577424616732 -0.015873908628381794
873 -0.012128460181076306 0.011470552939097744 0.0009751602901808375
742 -0.00659429749296154 -0.0010502776572689607 0.005738997367931278
743 -0.010482244547749004 0.004040550222814708 0.003441897050979305
744 0.016770213103289966 -0.010936639396714222 0.007653234398313865
304 -0.0013703263242430368 0.001520853617217728 -0.00043644764632222135
305 0.008311985433149358 -0.006346512745158523 0.017259271948960406
306 -0.01178245344944092 0.02468110919850051 -0.009198453658458844
1012 0.0006936766251260496 0.005167518980956498 -0.006135111600185332
796 0.005372799143414053 0.0018347171297963063 -0.0033364117053319526
1013 0.004396463217197962 -0.004026565111874523 -0.021086337533448643
798 -0.006436871254357447 0.011829434385202044 -0.015118524865885953
1269 -0.00955893416923823 -0.0205885030430003 -0.004374203840141296
416 -0.016408814179062363 -0.010396769300327714 -0.009838923458489782
410 -0.0018702513440782352 -0.0016228997584677072 -0.023269196139689932
409 -0.0027216911078800786 -0.005113846091563506 -0.004499621476488877
411 0.01313884771481714 -0.0040642101872274145 0.003256909182929863
248 -0.002426372008246541 0.003938439128073726 0.0025510606826580342
247 -0.0008143676212060574 -0.0005223269045407271 0.0011173222596636203
1057 0.0035905029765379358 -0.0027169248347423806 0.007030759541394168
797 0.012872728090673205 -0.008016258680859987 -0.0006276167008892728
1322 -0.004862314265599783 0.004316318793022026 -0.01715466393459069
559 -0.0018205344098146847 -0.006118092632234371 0.0022265106999888678
762 -0.013172156369402152 -0.002785670508245538 -0.015745585177976633
415 0.009085088695478163 -0.00024274682814022 -0.0006498878452447134
761 0.006661880782726674 0.007820546391614943 0.0027695939926794537
249 -0.005484332328739756 0.00765505476762231 -0.012567074635677635
417 -0.010483261669182117 0.013112810032288546 0.0023606769733459454
1267 0.00023410291613117502 -0.004702390222902392 -0.005752406196729494
1059 0.0027219356144568803 -0.0036008864370625114 -0.0013399311885052808
1316 -0.0007909123185478765 0.0018471981323274261 -0.011466983783236724
377 0.003713268733959661 0.006625656784855875 -0.008906095402429422
376 0.0061374653990374775 0.003661881940236879 -0.00855750981105337
1168 0.0021098380506868668 0.004296157642523345 -0.002870055645689722
1170 0.003405096792379735 0.005582046035574241 0.008652386970283624
1762 0.001970039489736134 0.0020336604749913523 0.0035780785056296503
1763 0.0069816043332897116 -0.018241520743996025 -0.00319383007435902
1764 -0.01724201326793889 0.000808733276671335 -0.004707049093478823
1323 0.0053264731916 -0.009147546365899088 0.004980632291230722
1384 -0.008888363022177515 0.0031464009176061744 0.004580330526237671
1169 -0.002515601570666202 -0.0064453702892832195 -0.0052364402050207185
1321 -0.0022651287563800583 -0.004397030224071662 -0.0017652110629731797
1116 0.00868170521990555 0.006436710326805948 0.01719527387641702
1114 0.0011561271758182528 0.003882470207946484 0.0060010116620318
1063 0.0005517952857651019 -0.0011789618650909885 0.006443699733153625
1339 -0.00018516987458959327 -0.0019107492663949708 0.0033926886470072764
1340 -0.007174060890293941 0.009590671920362193 -0.0028452242807900457
194 0.013309796374068298 -0.0211280198123306 -0.006604940266771534
195 -0.010660963627639046 0.003040236321645801 -0.016112846797147355
1065 -0.005503275972440839 -0.006698257722087806 0.004021077600143449
1064 0.011033163494347058 0.008456323045664581 0.012091920280573003
193 0.003432501179807052 -0.007236611375103688 -0.005814026829319217
1115 -0.012519092685318027 -0.000681487841424745 -0.009885201164947392
1341 0.009374995849107672 -0.005242263724461842 -0.005881865493366798
987 0.0016017095910090021 0.008991631949949687 0.013314674515427618
378 0.008171625967247732 0.0007631366571017883 -0.008296152151271961
820 0.00047583293870624526 -0.00233421306779012 0.0005369740270973091
1315 -0.0024702165482728736 -0.0013463542391549872 -0.0038753923023523524
1385 -0.0004942014639159175 0.011006331511666075 0.0015225935266373362
999 0.015094365079687542 0.011979003776535675 0.0038962848920699477
1608 0.015510587056859149 0.0054047737015966504 0.005083341669464902
821 -0.005520194931701174 0.002464776099944369 0.012222170701645876
1052 0.0007548400651318201 0.0016635761966801645 -0.0017337573305565392
657 -0.01086660647746841 0.009143663649063563 0.0005484343595921773
656 -0.010417007326839657 -0.0060600628027519836 0.018129296046577998
275 0.005333508056893191 0.007846652461640635 -0.0014717500887534295
927 0.009453479360942395 -0.005120851539531534 -0.016383655528993735
1595 -0.013523811248108347 0.006447349781074014 0.004169444620250272
967 -0.005382210602508143 0.0022523657272658713 0.0022607603539416296
274 -0.0008465954055341784 0.0002267133858217722 -0.0017481483827605372
276 -0.0035555445179513002 -0.010485557661344586 -0.0012514712650681195
1185 0.00039788355127683855 0.011929817204521766 0.01213707116157864
1517 0.0034412876861840366 1.0757389318504058e-05 0.0022120825966592144
1518 -0.007519440101846595 -0.002240678564011383 -0.0062483217426065425
1596 -0.0030590775205680738 -0.0002027207784125048 -0.004471480074403074
1594 8.666187678522502e-05 0.006346407206058321 -0.0021382119236509757
1516 -0.0032863235513913842 -0.0003138690336073641 -0.0014832915059527667
1051 0.0010532394484689238 0.0012008904205592981 0.0003175493054421521
1053 0.002161292476713199 -0.0005794728902007128 0.00035804612114296637
674 -0.004897443691206417 0.01482168836092829 -0.018694095603177016
655 -0.006500855710695541 0.0017159444970799836 -0.00027177487397940937
925 0.0042016326633694005 0.0026255541613889218 0.0013501430309592211
969 0.003875879771508674 -0.006642703935973657 -0.006161809673082078
926 -0.007477354248030837 -0.002153693543451647 -0.008270497918034107
85 0.004596528991648424 0.00954960497939156 -0.005617827393209695
1347 0.009012196871511327 0.023671436067221982 0.008674666167538378
1547 0.008885040679247691 -0.005891823045295603 -0.004312493175050198
418 0.00046556040426901145 0.00036973285520453425 -0.0007478917119247171
837 0.006482990922198289 -0.009902635785374167 0.012880225367058469
1546 0.002157985228963297 -0.003048926088925338 0.007100174436680564
1548 -0.003922527916377646 -0.0006895346588044322 0.018739028737507216
835 -0.003139436055782285 0.0024497197571102572 0.0004530663093054658
1659 0.0013162622017773963 -0.007779648125842839 0.013652547581034836
1120 -0.00032631263434644315 -0.002475963784626948 0.0036469406119162165
1121 0.008605926148723105 -0.016029566879497834 -0.0005579452985668305
1122 -0.00212095103135927 -0.008664952623998756 0.006502706169163808
1657 0.0005601567878875465 -0.002214793633033243 0.008208487769426249
1658 -0.0075437019171339294 -0.0002739037332374033 0.010442342124727529
113 0.005471016210107142 0.0039193218819642585 0.004339514987566221
1644 -0.0014676968054525127 0.009799762793212636 -0.00859348506477208
114 0.007268876103950792 0.004043729320118054 0.006101565760941577
112 0.004597325368284722 0.004087642663728941 0.0032091601893464135
420 0.030593604561939144 0.004858065368044899 -0.010683569933049994
1643 -0.007480894567935181 0.019156348052622226 -0.013308380410902857
1076 0.002133755333797646 -0.006217038190326345 0.005743041472975204
1184 -0.026108189237596065 -0.014361372710226547 0.00043172936245984886
836 -0.01326663954105428 0.006728034395077043 0.012111364610900963
373 0.0027509906792297693 -0.0027557498601502224 -0.0030993660740610204
1642 0.003820725264026135 0.0033318297390766845 -0.0026984205780696386
771 0.0034209609610621537 0.0002793495220361825 0.0028916920734489227
968 -0.006645002405909954 0.016317435609737356 -0.003914746933735184
1075 0.009829977212533333 0.00415804048255941 -0.0015751882200325496
419 -0.01666028008456095 0.014041566175563323 -0.019068369046163186
1142 0.0004017136237225844 -0.005243264853704467 0.0056961233717176
579 0.029431230115561476 -0.014651738555742023 -0.005336069944565423
1433 -0.013436155758173434 -0.01791448672755139 0.01484430954199873
577 3.14714972483901e-05 -0.006665629565607299 0.0004926514646138525
1434 -0.017779701805114716 -0.00917030292480588 0.0005226366319942102
986 -0.008645101968030125 0.030696723561502083 -0.0095256097632898
985 -0.007262489989000761 -0.004139436262926406 -0.0007285148785591981
109 0.0024642171636694624 0.00022533681349140903 -0.0021981616401804144
111 0.007116801576923154 -0.009996947259226417 -0.004454078010215158
110 -0.0031056098453234107 0.02014970764531903 0.0207325929816725
1040 -0.0030096576489375857 -0.0028052985202431453 0.003118673277861272
1039 -0.001836465991314264 -0.001342253102325067 0.0013348661106682505
1041 0.005622344444757126 -0.0012992464974789723 0.0004619094958773382
769 0.0026486951908257735 0.0013350598153545558 0.0003036546386722448
1432 0.001379684964733028 0.0035404689767724734 0.001664342592031519
770 0.0003947575370888924 0.00564793513357892 0.0116166652255439
485 -0.02059062833126772 0.00992850508169065 -0.0027520103519330613
484 -0.0005986855353387788 -0.006402152490691452 -0.007852114554035047
1651 0.0005804421369370391 -9.462255557265634e-05 -0.0015376748620863274
1652 0.028551502730192888 -0.01696003146263601 -0.005441996022049127
756 -0.021231696200142938 0.016063414842521793 0.010222253951819861
1625 -0.014574972844330125 0.009005771108021808 0.009775049963113477
676 -0.005105158569785018 -0.0008527977829410429 0.0039255127367142
677 -0.004712387489401054 -0.004214926108683255 0.028629902597593865
1538 -0.0020705883627616037 -0.013708712717711706 0.0032409779463941583
328 -0.0008558892369937675 0.00013509240027408058 0.004540120480945501
972 -0.0009037332179060937 -0.01006948602220281 0.010763908691727251
1767 0.00878825020667989 0.01669329230628802 0.0016349791358788667
1239 -0.004330905477997642 0.008021123872399713 -0.0031117535620445677
1411 0.0009288674235610069 -0.0025522840732628525 7.196011613737937e-05
486 0.008215740226012663 -0.013184968625256826 -0.010710775988970021
1640 0.015939511729501882 0.00858941728466813 -0.0033680067334049615
1176 -0.0208626493219367 -0.008108161264946062 0.020771331710256732
1174 0.006365027093271102 0.004091545937660041 -0.0025345595106883965
1413 -0.004173866907367144 0.005307541441489353 0.00330018498367182
682 -0.0025107054880336957 0.0038088778678468218 -0.001629059346186618
755 -0.005579368206989518 0.011876257867222597 -0.001109109700508593
1175 0.009101109862653896 0.005292678954771871 -0.004837028862814035
683 0.010127180622683078 -0.006610048013783917 0.008464576390488242
684 0.002398284383827308 0.008893161020260481 -0.014383107291501633
1639 0.0010782366998800385 -0.001183298937882855 -0.0013339561381977005
1653 -0.003684163418541214 0.015099008588583521 0.0019032822503821907
501 0.005375917456151684 -0.011710802472275458 -0.007982418074666407
302 -0.024646203729181176 -0.021077649211611368 0.005646071083319217
888 0.016304902911954775 0.0014115980159809638 0.012108706239097355
1661 -0.01851866521107234 -0.004617389452697271 0.00024064787521143593
1662 0.0008702590006998016 0.01350893760398754 0.0022930441190926808
1660 -0.00468777381709283 0.004715904025568274 -0.005813800437275931
754 0.0013218295232013126 0.0029863337185583186 0.003894940743017861
1641 0.00245414848544048 -0.00014894016157433407 -0.0015516052696828416
406 -0.0004309233386723191 -0.003886887083270394 -0.0024594443172537457
320 -0.00843560209760119 -0.017406741645378376 0.013280822806610049
1765 0.007387213247299898 -0.0011028778833243064 0.006122946098213529
686 0.015455148694709936 -0.01662326602624614 -0.0008370632084056617
685 0.008856165432772343 -0.006662439105646368 -0.005265399861630875
1766 0.006291150145569063 0.014121301851759338 0.006461508779501244
687 0.014646205656972732 0.012694561676941439 -0.0026760671101191346
11 4.0041483399739194e-05 -6.8328270798653065e-06 -0.006942944797850826
408 -0.006069416065614854 -0.010846964008600395 0.0095844382140295
1727 -0.010674578461763659 0.0013320375088927082 -0.004858039017388935
464 0.011310597171636013 -0.012149098717514675 -0.0159032251943067
124 0.00808021592165161 -0.00025417833983917577 -0.0016362552729035432
126 0.0012732185591416748 -0.0007040252241471198 -0.0038116706134002447
319 0.005340371757951744 -0.004312461883094644 0.004925131317146394
463 -0.002729341847391067 0.00231552962918925 -0.0008046723109415275
465 -0.0077109675250874 -0.012406818465555825 0.02071663496533588
178 -0.002106101200461883 -0.0021305648184682577 -0.00035081122480228445
179 0.014476551515136004 -0.0041829407120015484 0.002133314583964501
180 -0.016341779583521225 0.022520394815938975 -0.0006389864163537623
125 0.006939786891091367 0.0037809192729645565 0.0016188546362026868
1726 0.0017575074873212916 -0.0016971109743475097 0.0017251961268386184
1728 0.01188303546594102 0.011218724464263113 0.0085428780717313
1232 0.028868332539333356 -0.010713631764575062 -0.002253155746617611
351 0.007372998714814864 0.001020462321866337 -0.02504136264722053
1419 -0.0005282695416556964 0.005759909165196196 0.0015009126730456805
10 0.005813099309609645 0.0006365398423391438 -0.003625266660615478
238 0.0036433199906818394 0.0029545824160928523 -0.005254969922953343
239 -0.004457996430658751 -0.0037059688239034455 -0.0012961601162676047
1527 0.012016257120724683 0.012611720681838204 -0.0062863704699332775
2 -0.011366601580474377 0.006904365427048762 -0.002504593023093294
1 -0.001897676358428514 0.007683009475056387 -0.0009613438529581292
3 -0.008743406621869594 -0.005971701777153406 0.0013457386588379633
1678 -0.0036108527866409537 0.00141186048691996 0.006429452767588304
22 -0.005211361871049505 0.004315557631672268 0.004788105004283076
1525 0.0023031389192880243 0.0005804630980420081 -0.004688630936247201
23 -0.011164140514715306 -0.0037485611193937875 0.008479326681648152
354 0.004997286148113817 -0.0008719227890232874 -0.0016057927804639497
349 -0.004872466266199904 0.005297818476508648 -0.004939295366351833
350 0.013323524285662004 0.002264142183424632 0.007611755745924365
1526 0.018206883701099637 -0.0036707493456200864 -0.020648421184085573
1418 -0.00018605120998588316 -0.008860487030958363 -0.021136851439525785
1448 -0.00626191401275692 -0.014701316540708349 0.007428149822893375
1449 0.027723061573589454 0.013406072146398357 -0.0006752658341348072
1447 0.0013455399164193445 0.005196521413867116 -0.002828840550703449
1183 -0.008205598223470351 -0.003410705069751286 -0.004449983903372569
1417 -0.0018397221674393374 -0.00505115123769881 0.0006594878879753423
1698 -0.017947102553947148 -0.0026487491610386526 0.017724067122788213
1696 -0.008854927159405926 -0.0016210585927841745 -0.0018773334436127643
1697 -0.019763130572356426 0.018542570883553756 0.00404126617893871
353 0.009554469654171751 0.011992805775580326 -0.0025378797268535255
352 -0.0022932563680934004 -0.0031970186778963274 0.0002265302115340423
12 0.01846036962979573 0.011496656733698901 0.010577394449821462
24 -0.0162164655387601 0.028745246574646534 -0.007368516969047842
1679 -0.007204145171638655 0.005481162522725791 -0.005001987641417161
1284 -0.0047932666352466236 -0.0028559031016995315 -0.0051699459956709255
1283 0.004340949328417425 -0.005326842630958245 0.008067071967915054
1282 -0.0011051280176619055 -0.0038431326186285277 -3.3659774609496064e-05
1680 -0.004884591330971672 0.014727774899753564 -0.012885411819323893
1014 -0.004189916264777549 0.020522514276485257 0.013276504454346659
1301 0.0017432752221530632 0.003999366132148162 0.007027991692857311
1300 0.0034431762726778305 0.0014104040366350486 -0.0032433244176697617
851 0.0072963366314057225 -0.013670499185761851 -0.0075136763720352545
100 -0.0033271743755275587 -0.0008178501997976863 -0.001880188901325569
294 0.012628347509557245 -0.0005473311011465896 -0.01930823063920172
1268 0.001224574523343734 -0.013198566905388145 -0.007485703885514264
292 0.002625060848823383 0.00046296249929414133 -0.0040620527637746035
850 0.001346482860960487 -0.002602302695875511 -0.000801901808985054
293 0.002782901539159565 -0.0034001594980757888 0.01443608769383757
1084 0.006090416682187318 0.001387102045796302 -0.0027474217278268772
1085 0.013336424017261869 -0.007005728407760285 0.0008298396431819463
1086 0.0014457166717341317 0.0063893752326642335 -0.0033925773412708405
596 0.0012359154872347688 0.0009268342484414207 7.494712302125003e-05
595 -0.002076234276489746 -0.0013045978543452864 -0.0025829267716630804
597 -0.0031892326947177995 0.0003934841918511229 -0.008356365502747286
1026 -0.0010816727676977108 -0.011573595727544395 0.008692409632599114
863 0.0012158979238162495 -0.0007686330249395517 -0.001478184425753947
1756 -0.003589949888189571 0.00087620164121689 7.826249058715332e-05
1758 0.013127352325608601 0.03558307044065754 0.001562083484669798
864 0.004560187881392734 -0.014393438556981946 0.007863544219324718
1645 6.570404759581046e-05 -0.0011957825771712646 -0.007121143088718527
605 0.0033199116771434342 0.012152888295364738 -0.002523383528180771
317 0.0008762174364231089 -0.006400396172802938 0.004583270691302376
852 -0.0023961252045381007 0.01719407508108591 0.029013324218029216
233 0.0013492186245209446 -0.008730898410647883 0.008258020762023017
478 0.0003217760951255364 -0.0076323308072736165 0.004224637944245628
101 -0.004959851472015062 -0.001963990329063351 0.001455914176523005
1520 -0.019461560271873513 -0.0024270010898504173 -0.00609540791179577
1757 -0.030751909189612958 -0.023139699540610813 0.019824688628472507
479 0.010022658129281149 -0.009857913747735774 -0.0005765290430534245
1646 0.016401203838055434 -0.0011266281885330854 -0.005951408881847211
1534 0.0011935154167574144 -0.004806404927695862 0.004442717345080097
26 -0.0009094129427624048 -0.005050639879095216 -0.00023851362148655215
1535 -0.005791844285420959 -0.008873908857030604 -0.005006235241773807
862 -0.0030155654004947333 0.004228578228757243 -0.0018799100773254627
1495 -0.0007320792085727766 0.0017207974039139477 -0.0035835078256053073
1496 -0.023070239462664396 -0.005037925077966107 -0.01258560753515157
1497 0.014590530989198412 0.00959784339339006 -0.0030751986293506076
263 0.00047313730991929714 -0.010865835236535778 0.006084417583549807
341 -0.005949137328854727 0.010822514160182074 -0.010303058318069793
1406 0.0031667926974488984 0.0065026346311702725 0.0032739077442039653
1606 0.000579190878204309 0.003949138985348577 -0.0037217933484026446
1607 -0.009537040087380962 -0.00705544436906674 -0.0028924346474029374
1296 0.0034451677352419683 -0.01956233853965369 -0.003659956191228665
412 0.00016022217813637475 -0.0008639325875880238 -0.0040598232841028235
413 -0.006564934274771788 0.0038492372792824255 -0.013645500503208834
1294 -0.0024944775805624646 -0.0016107266197985526 -0.003346655294655908
1295 -0.010500266987625228 -0.0011321772058755322 -0.0023302687215635116
1422 -0.005345678120180452 0.0035782641012521363 -0.0035735389539239787
1420 0.0011742212752186398 0.006337864145703219 0.0011881307605813777
1421 0.009731234651080403 0.010923807951510081 0.0019769785720570015
604 -0.001202665237107862 0.0020989054439451457 0.007799873179661921
262 0.005013808491545879 -0.008440936866179492 0.0012501706778113501
264 -0.0136708585040101 0.02008919839373267 0.014666314916392633
29 -0.007619971699219188 -0.020037178068431666 -0.0019987917292867766
606 -0.0009128007010935944 -0.0004465070217893866 0.004291455839481587
1405 -0.003916486369393608 -0.005652641242439438 -0.0028713381117348308
1245 -0.004270267178095692 0.0013305145294451777 -0.010034783930854923
190 -0.002937526912567911 -0.0021584590831015393 0.0022285300463460414
673 -0.002535495088093287 0.0008038485111510737 -0.000351001878889452
87 0.01317024885168482 -0.0006457860029565011 0.0009995319368357415
633 0.019742529850962497 -0.009567828276433068 -0.0057307983131640915
1738 0.0005742545598432568 0.0050758147667278805 0.006279704111438325
28 0.0007280465383610944 -0.0036610925681193553 -0.000353076030470286
30 -0.006367820323751596 0.006690654622275866 0.014776747186847801
369 0.01719184678542623 -0.004357998653154108 0.006320313519317981
675 0.0014625698727035684 -0.030775289829981137 -0.01619602561166736
1004 0.0140086678741008 0.012096725415085413 -0.0023206222628298864
1003 2.880030439846438e-05 -0.00017597831197952322 0.002493698705487033
1667 -0.01040776287847997 0.000952297554951938 -0.0017405013497808258
1281 0.016549914686601486 0.008581488585277757 0.013792037157543065
1016 0.009247550879187912 0.002319971902018485 -0.005299412785803293
1015 0.0014523124137893041 -0.000348249810427761 -0.006584191563039948
1017 -0.005518593485945659 0.00481622949794969 -0.0005615734350613908
1717 -0.0046825358600337645 0.0026084918045685564 0.00021590680314661522
1718 -0.006503469029085204 0.0031029103089838424 0.0006864927205182743
137 0.0016275668465010654 0.0028329615621506725 0.004222249990657924
1109 -0.0035094857612782246 0.014238837573984002 -0.008198845878674636
136 0.0030512337772863603 -0.0025349316482711002 -0.0016509176840684829
366 0.00013301051173652005 0.010406689508965292 0.012202735719895186
367 0.0017727266901989404 0.000640374849875747 -0.004754934033450325
191 0.0073193822495202935 -0.017558445790456522 -0.002800930384696641
364 -0.00367691734047342 0.0032261897090342874 -0.0013119143038934093
365 -0.006703217060964397 -0.0016336108631273137 -0.0033810525406806047
1739 0.013238255763569955 0.007924515260027956 -0.0038597721608904195
1337 0.026777465439599427 0.0034392461586618454 0.002163951696105482
1336 -0.0009039086188127773 -0.0011700858042123894 -0.0022225351369339528
368 0.02259154667848009 0.00860073390890306 -0.024318205028599396
1005 0.014183799785975263 0.016575531172114823 0.0016679186160231925
1279 0.0012423375622316645 -0.0020606724983441354 -0.0016640280144155628
86 0.0033079564204508785 0.017563954839248438 -0.006101872390347357
1080 -0.0011704746029150984 -0.008100968164691804 -0.015355912626400608
1732 -0.002228619910676563 -0.0010151006762028367 -0.0032612913943126215
375 0.0070408140619550455 -0.013455254318241327 -0.011479385361427211
1734 -0.009825753522594608 -0.0050997030505503145 0.012577597670197706
1692 -0.0011429159837396915 -0.0005367254407088098 0.005274654135793064
1647 -0.0003159679411860857 -0.004905385351064178 0.005346248570926433
1110 0.014929787055028534 0.010465296918021214 -0.003064854980827748
1024 -0.0018581267928057493 -6.420883274314556e-05 0.0039061116382301322
1690 0.0007554361999504117 0.0012163947448650746 0.0023622376779959924
1000 -0.002926851819308482 0.006441138357633794 0.003775863365652835
1001 -0.008433227269174375 0.020580636883889013 0.026163938879867437
1108 0.0001434395041915698 -0.003778896051818534 0.0010616268650798033
1338 -0.011986372187586506 0.008968439551344874 -0.025827114878035955
1025 -0.00035773795909266597 -0.009812947132649881 0.007000033896985151
1235 0.00969892442966062 -0.00437618625699481 -0.007666244277467604
1234 -5.8253934996705296e-05 -0.007027911649295465 -0.004736254874288615
374 -0.003087307329120253 -0.03180548251301845 0.00650443813480113
1079 0.011913952851148345 -0.005734548542406592 0.010821930717569074
250 -0.0014545568267986145 -0.003312026673422305 0.0018648243347302832
540 -0.002321072563632391 0.0027335166312779454 0.0027272319473051945
1733 0.017101661767407104 -0.0013861563011394592 -0.0017905172249787524
539 0.009391008935816177 -0.006696942337623445 0.028732031932091073
251 0.022001512491673522 0.0032146148541024313 -0.0011977173737523078
538 0.0017955312061356367 0.0015166439880566456 0.008877448468702327
1236 -0.009128846735739063 -0.02427210896284218 0.001861375632251131
1078 0.0011368273380473002 -0.003297673756623646 -0.0038100966785981415
252 -0.014911429019272912 0.00635575592436755 0.011473473118384892
519 0.004714131080540327 0.0016217120221875753 5.8618555760776335e-05
138 0.0033535211788053598 -0.009873275160136807 0.010835284309780705
1691 0.01432436616582639 0.011298050397435635 -0.017828116781908668
917 0.007947388949377394 0.0010878111719961002 -0.008778933346078644
480 -0.015341477536725108 -0.015575807482911156 0.0022301721433315323
916 0.0007685284282645936 0.0037916386333290138 0.0030992954383123354
157 0.0012982244220535845 0.004231111019826437 0.008145556326901993
1429 -0.0007387711119419798 0.0018736719456237552 -0.0017530860263194686
1519 -0.0010347304762499847 0.0020031095744676023 -0.00815977309334251
426 0.01924064658856167 0.00879743706245332 -0.01481139174781389
1431 0.027742422145836537 0.012059315258041162 0.01235498275081627
316 -0.0010222406194029582 -0.00043862044323648427 -0.0007015959043396372
1539 0.028428311027511626 -0.003526005434571563 -0.0062810064310527955
424 0.007820381594063343 -0.010745323754515852 0.00442791738184521
525 0.004256201800624925 -0.0034418139764728923 0.0029219460225894944
678 -0.010885374250232983 -0.003483287737388017 -0.028869923404017204
584 0.013462600412419614 -0.024674939738803536 -0.005658181107635866
585 -0.016519046382302033 -0.014040617936624636 -0.0009185277877356616
583 0.0019323477993736862 -0.00787904925252982 -0.004397248248671938
1537 -0.0010359237378980157 -0.010424137473503483 0.0013932092182748108
1125 -0.007311666263737503 -0.00399215613544673 -0.001170680691861564
1461 -0.0058566167177314605 -0.005947648870685177 -0.016301627234747214
425 0.014487995976260172 -0.01793432234745472 -0.004700083736638659
1521 -0.010103777407679832 -0.001480996684922784 -0.0013308958696549025
1794 -0.0014688383352961256 -0.005060353941389462 0.0017061196643168137
1792 0.0017753401611500619 -0.001407036075674256 -0.004924755338008561
159 0.009664714606912199 -0.0006969536492142147 0.005044702545505315
1737 0.005024291757187554 0.006578867909876662 0.0074744528009449696
153 0.007566040640510025 0.005640893237666148 0.008415117641850697
25 0.007325517676224016 0.0015550829922768709 -0.00275547907385607
1311 -0.009442248237366802 -0.007479665693269565 -2.0197019854659705e-05
1309 -0.0014717914027612157 0.002218621654632778 0.0018643806002156657
1735 0.005064245371275564 0.004807005703210868 0.004735748118796766
27 0.0008412015697952132 -0.002536100642106346 0.005896855952065806
342 -0.006030417597528719 0.011807798481723942 -0.01161246444216916
340 -0.0018160450947508904 0.010935397933149757 -0.006088036555584579
1407 -0.005836962342113294 -0.008912725058804326 -0.0017708120927207344
1736 0.011931621091837784 0.004988857817137121 0.019901704050166714
143 0.005877174031864609 0.009098254944781496 0.00816130237381284
1703 -0.01483081906635999 -0.003974773784879145 0.008458536516534273
144 -0.01055980564732222 0.0017508953043911517 0.003580112306863838
142 0.004729436921699821 0.009785387829789188 -0.005644187487260719
152 0.032147721649177174 -0.013757109075045225 0.002489685455272854
1793 -0.004730041493689751 -0.008568079496056426 -0.0025179079084578265
1702 -0.0007829718237266075 -0.008608128924042637 0.0012917529861846135
169 -0.002445243251163523 -0.0052499936401750845 -0.0015607748883332752
171 -0.007871396798691026 -0.016409427102484452 -0.018096188142032635
170 -0.00617516393559171 -0.011336637477775581 -0.01088153572307824
1210 -0.000983553279352829 -0.0032815446744010484 0.0016798292560754654
1211 -0.00971332094784044 0.004571398198275113 -0.007868985973804431
1613 0.0026682181722605847 -1.5850123451184356e-05 -0.01698970194964132
1212 0.006973938081957633 0.014800891862122094 -0.005732530576083864
1612 0.0030857007447224892 0.002303075954054449 0.0005082649975744071
1343 -0.005716494965892561 0.018918149026056204 0.007926690961969412
1310 -0.018268601606298243 -0.00873652233532797 -0.017636131515227773
301 -0.004358782228806761 0.0018130463256792588 0.002113498199062137
918 0.013815211560570266 0.007318562485196222 -0.02319120311879861
133 -0.0015896962387942795 -0.005489946831750395 -0.00011389305211879381
516 0.009652675358659817 -0.00946180700493865 0.011947688079751682
758 -0.010091829833168831 -0.015329741831637536 0.00010747989368087048
1719 0.00016295286555613253 -0.002632362678886552 0.018404462174543834
1342 0.0006047226198837235 0.0060924470633429316 0.0051582743614602584
1666 -0.004824302930943815 0.0017997404351666202 -0.0014112586817400334
1668 -0.01706741698023347 0.009285384242758555 0.019370462034818944
1089 -0.003979148077370727 0.012134327880927775 0.010791799656711974
1087 0.0011228551613321348 0.0029505052856634967 0.0024086026740944948
303 0.0025754349146345818 0.00037608409405935606 -0.0213620421943872
1233 0.00977788385692255 -0.008333554548544623 0.005236911889006602
1231 0.004592724846246994 -0.0012556101855666143 -0.003641687335273602
1614 0.004491883481147587 0.007910650276258546 0.004247299714251654
1088 -0.006440963877944895 0.007601656691514589 0.007712357036173179
1694 0.006401527910112967 -0.00048127132243379025 0.0023636826226393886
515 -0.0011339625763108975 0.009235608253822015 -0.014962562467186444
392 -0.011332064302367334 -0.008509571239519058 0.007558632455527737
757 -0.0014672621192469283 -0.0036824750751637517 0.00048188570534620634
356 -0.004440168768008942 -0.0042082082441084615 -4.3552600125105926e-05
1471 -0.0023339229141709906 -0.0016202415888041477 -0.0035338343317008808
391 -0.002782367067408118 0.001161906191482556 0.004044597012071808
759 4.021728200491282e-05 -0.0060693131845781295 -0.0016996977778438076
1291 0.002879569070679807 0.0029375369025460827 -0.004089827041356955
514 0.0003106641989984876 0.002977145341191349 -0.008466721690254671
1472 0.029175406934744966 0.006883642987543745 -0.02593504292935567
1344 -0.001126470080805613 0.008235529117695695 0.01568117881987173
1293 -0.006928325779763876 0.016203504887846693 0.015322194515753921
1672 0.011341665184424518 -0.0029427346409126275 0.0054086195183973415
962 -0.012900724129423951 0.003928941417358188 -0.008284015802184469
662 -0.014160596386301582 -0.005497577489832832 0.035262501492146166
1709 0.013467375617595756 -0.01040924681021522 0.0007509203221637057
370 0.006148457870364385 -0.0023902671064388982 -0.0010162095293135894
906 -0.015667817524102116 0.006272273339802415 -0.0017699822691048454
847 -0.0028373630011105716 -0.003625256946417789 -0.003592414903514514
524 -0.005678926758738872 0.0021408313297853676 -0.005731135389694965
963 -0.02798203234119816 0.005018200192783164 -0.0028557785432404173
523 -0.006802944136500748 0.00044429443264761497 0.0004769156395501564
848 0.012371696963145464 0.011027316708801806 0.007184514942974849
393 -0.005906082929867578 0.012364013762863895 0.01355213717178094
849 0.012336916576184354 0.005866030752528258 0.018054625503392388
961 0.0003174158125450547 -0.0008415866775484729 0.0009732711066985795
371 -0.004060267595579152 -0.00772815846057543 -0.01740869492026496
318 0.006091420712581966 0.01197528871674074 -0.013673111207676213
1123 -0.004298922042337975 0.003121766578024545 0.008672704816448336
1460 -0.019058256609126138 0.0027807382004166894 0.004580897673800606
1459 0.00043542556879412776 -6.0180523372379035e-05 0.0015531106280740592
1124 -0.0006559351356456376 0.013062657070981731 0.021732183721099755
1708 0.00747301273984427 0.003306912920479789 -0.0018928807288541754
661 -0.001270640814918255 -0.00045674358538623375 0.0065001313484417305
904 0.00013621744695284445 -0.0032242907273819735 0.010281558818873552
1710 0.001222418424689632 0.017394812971420814 -0.010075365441886324
357 -0.004680043064513775 -0.01098057779692477 0.0035332831494750017
905 0.026656258181154812 -0.012632957612740251 0.017336283514440283
355 0.0020172716836422576 0.0007700110439589443 0.003617477775488211
1292 -0.0054831550870122455 -0.0011929357117996544 0.002412781343198697
1674 -0.013122186247131948 -0.02761450925998936 -0.005210642341959073
663 0.0004790858399620039 0.0008697025573528213 0.011074761726802232
527 -0.010881676242957654 -0.006525666063186395 0.007304985203497572
502 -0.005406671441065688 -0.004736173414163334 -0.002583987242297245
503 -0.029327521135713158 -0.0032593200235232675 0.0123368469646719
526 0.00305121622239106 0.0042513804813802784 0.0004407284711396147
528 0.017025915658276467 0.014966127704453899 -0.006002499650838111
1720 -0.006660194857567095 -0.0028655201059959627 -0.007034766228301114
1721 0.005555764722412353 -0.00018130444794307708 -0.014942812685338973
43 -0.0009804527898199477 -0.00310766877679493 0.0028696982135944906
1112 -0.005181873355118636 0.014373553428832685 0.0014956996394623356
44 -0.0008289585517561089 0.003248704199391687 -0.0024658819822648984
853 0.0057553863419238386 0.004593895537185665 0.0012921379814919475
854 0.015842749284478326 0.00790300789137893 0.011500765664616398
1374 0.00277832394122207 0.01001649120447973 0.009775545520939786
855 -0.002083109258445129 0.00558812321552233 -0.002153291149409296
1111 0.004671638691108343 0.0066969635167450576 0.00452979292736157
1113 -0.0024546096405270975 -0.010616795318170712 -0.003114210488997512
1610 0.0021587655776642333 -0.017472486806352647 -0.005873862827558885
1611 0.0030303913585814136 -0.0037103526896130707 0.00033150281533761075
1609 -0.00041262978339981466 -0.006516743329817131 -0.005323474807150461
1302 0.006443924688779888 -0.0005686863677035791 0.010651447550562515
1373 0.04015291630140865 0.01343905837256279 -0.0024232072261508963
1722 -0.004758183267155917 -0.012290792982009288 -0.02751177881799038
1470 -0.004562953640022482 0.004339713442787586 -0.0049774690203974094
1468 -0.003155544902849838 -0.002559053363517186 0.0010489976121192072
669 0.006778940799096474 0.03233846959013916 0.005348791157615841
1101 0.0037789730682977513 -0.004459246826757065 -0.01759480135435659
1372 0.005065346119293628 0.00828003353629106 0.0029631044701254453
1469 0.005409486445868203 -0.0017718855395894926 0.004596678610884192
667 0.003786560129609797 -0.0005175407872150216 -0.005236538024800808
1393 -0.0028938172351381337 0.0016060830143789172 -0.0006391741449393359
468 0.0020523335759249587 -0.007913623803228383 0.005596760255689478
1774 0.0014655804570712643 0.0003093680119108999 -0.0017695857131990373
1776 -0.0033594583229579612 0.011700198689553314 -0.002597653663325385
1775 0.006789455212290161 -0.0006739661377203065 -0.003236246715281574
102 0.008861579878957233 0.0032277156952632406 -0.01309415597365495
1742 -0.0016043548946881856 0.024055688177198636 -6.203656675004635e-06
1243 0.0017848292957713685 -0.003428733994872631 -0.0027958129379550335
1522 -0.002418165956438421 -0.0006445507693991916 0.005335259560490565
1523 -0.008469476349792863 -0.011877915301987169 -0.013951684430119916
1723 0.0024360087354031814 -0.004411250550514568 -0.00020394956876394751
1724 0.005912303966384016 -0.009787966736509765 -0.01270948490785689
1725 0.0008556993576507838 0.009807175729296977 0.007590292914527167
1524 0.01140969054119215 0.017526875366824034 0.004051073660765141
1741 0.004274174484179203 0.0012438786390582335 -0.011072845341877776
1743 -0.0006806073841192409 -0.0051609812819707395 -0.01879252365020837
1260 -0.014362268749647732 -0.004194306700136416 -0.01555810713748729
1258 -0.0027924000635154334 0.004364722983644018 -0.0006726623431571511
1536 0.009837645947250116 -0.013731003813109294 0.007130880886781894
1259 -0.006317436589033103 0.022456301450360993 0.00020234490549419492
558 0.005059915957537073 -0.00815093578173812 -0.013369709611768333
1244 -0.005277757427836433 -0.004838307124549131 -0.01198627513335576
809 -0.0033733158744638984 -0.0018887782389924496 -0.0063462866433568405
1675 -0.004612736721741254 0.0015337542315613224 -0.0028702422317234224
1216 0.00014999088211014786 -0.007868650961991493 0.000708511419139739
557 -0.008458281424091533 -0.0038922756338275167 -0.0053760010749657585
556 0.001004221514365807 -0.005983106840499997 -0.005361209869146847
1288 -0.002555929860562475 0.0011907799056138605 0.0007493354123346779
1289 -0.016295655578988863 0.008412200015740473 0.0015149460299128863
1784 -0.019166507781509846 -0.006922232496836187 0.002581903740138752
1785 -0.0037112659024724566 -0.010686409591756766 -0.019206839209061348
1783 -0.00440959616178264 -0.0054110989002564966 -0.003846068037934616
808 0.0022828295350650115 -0.0012191332292690975 -0.004196138224994276
1331 0.014746831368448515 0.0008848493066636912 0.011933854871941157
1330 -0.00013188386391358453 0.004539735770943153 -0.0007780052160290807
589 -0.0038827018103164555 0.0012853285906353903 0.005512554109994404
590 -0.009479588763072968 -0.013367551437722872 -0.00802332856498239
591 -0.0013439357246589087 -0.004157341610171214 -0.004562495045299519
1332 0.0018700842230546671 0.003742987760074801 -0.0035999220140723325
1467 -0.023503082622556844 -0.008356372707167641 0.009806082740439587
1156 -0.001899187730156249 0.0018472493342199768 -0.0019411313203303374
1157 0.0004697345792308998 -0.0016771169298580556 -0.007894997329370443
1158 0.002571343457049509 -0.002106322807955177 -0.0005642412700374389
192 -0.007198969479578915 0.011425580745373531 0.010930610059572557
1656 -0.013480435372403102 -0.001290955628677637 0.012468439898179225
13 0.002162971711153162 -0.0003540204232690478 -0.0005926462045580036
1654 0.0033983797981621297 0.002461853245141041 0.006734786623336145
1274 -0.013739002671035401 -0.015137242771539714 0.01295478511256555
631 -0.0007986410034618367 0.00015669537203314836 -0.001513473348968298
81 0.006104810030875044 -0.0022539469241939277 -0.0139228243691006
1273 0.00014772644377259166 0.0015980352400017115 0.0030031034842345843
79 0.0030175807249038476 0.0030759307190597824 0.0028800743512801025
1275 -0.0080073166640472 0.004690365986626231 -0.01531203954758401
1655 0.016820542453546944 -0.02733131225077866 0.0038289783721916497
1740 -0.006654059905252497 -0.008711687801458982 0.0022303398847474992
245 0.01751019648655974 -0.0013463452390863537 -0.02033706268446765
865 -0.0009181338133050194 -0.0035188188850296914 -0.003365450077247361
544 0.002756590916181248 0.001842277526236499 0.0030605308241757052
467 -0.02346446207393211 0.027622230754104016 -0.0004984639143407305
843 0.014859004016569375 0.008243393397027211 0.012868081170196246
14 -0.004251399893864241 0.03582239770114409 0.019320824680421986
91 -0.004059397793417407 0.0064455781133666845 0.004889535891801519
93 0.006722551536614321 0.015375098697560425 -0.0010723812286251963
15 -0.009544999736459718 0.012286860107418343 -0.0010494522063585236
32 -0.00910951458759035 -0.032592431429943815 0.004518924720409683
31 -0.004777732162657274 -0.0030111694032551083 -0.002376652261036565
33 -0.0003097227086204279 0.01646028035758185 0.022298485741532034
1144 0.0038947677371782403 -0.005472724789391844 0.0016556369462657201
1146 -0.008862678795935098 0.005765784545168644 -0.03162841315674916
1145 0.001978528770215896 -0.02447770276885013 0.00854128101669969
360 -0.007205190286019742 -0.004045971227482139 -0.022721760211255233
841 0.009266399376539733 0.004872423640484631 0.001477410657139791
842 0.012622336408961841 -0.0029443624855040695 0.003853893754533164
545 -0.011495658121608576 0.0019879401531440032 -0.0012154235281413837
1002 -0.0036606003122695106 -0.011186071901790455 0.0014909741242992074
1348 0.005316945381017834 -0.002256069340596366 -0.0006641882645591218
867 0.014847083561128762 -0.0009613255268208471 0.0005603930607509578
1350 0.005393581559344953 0.005120031027465258 2.0361928714186616e-05
466 5.323169194504282e-05 0.005294220752708346 -0.0029294488762732175
1349 0.010248382123494252 -0.014413516256550296 0.0029813162413339224
546 0.0187854593731774 0.010257242506338398 -0.00387246601448303
45 -0.003075390463194618 -0.036132101667614346 0.03047180041272194
1383 -0.016031755466612937 0.0004010631042802405 0.0007401136142100845
447 -0.008265882395173167 0.010461986406778446 -0.009469711530658727
89 -0.0015415146014663658 -0.008461246134486292 -0.0018176351823691276
395 0.017692039567297382 0.0028005850065429116 -0.012492265174408237
225 -0.005479850324206033 0.011650285010110572 0.0195279038983208
701 -0.01911201788937893 -0.012565295432354453 -0.005733420885219236
223 -0.003147511636836449 0.0035826138115763123 -0.0028065219276185954
224 -0.004011844098431837 -0.007766368135468572 0.008771808510423041
394 -0.005596688277581246 -0.0006736885540500405 0.0012569919874075254
1446 0.010561462839802483 -0.004125738686287857 -0.010450622506125608
1382 -0.0033917624020381523 0.0069891130926833635 0.003530497042794269
700 -0.0069999852658940995 0.0050446528410807105 0.0006337874330066382
702 0.013691449081732879 0.020260731520144105 0.0018786229292251167
1381 -0.0025169672717541367 0.002106911704695145 -0.0016214850899249284
445 -6.160236460629523e-05 0.008361277083104694 0.00391160669862499
446 0.0011282433526152876 0.008996294793775868 0.0057684880250436135
1100 -0.010782441649789707 -0.020806276677273066 0.002756631122811661
1099 0.004745295274546767 -0.008202656991726747 -0.003896706285025911
1312 0.004500715334217309 6.825803117682059e-05 -0.0011592124516052037
396 0.001656772117660451 -0.01303931989070013 0.021522381871688572
1313 0.0010524437159145777 -0.001896262136372467 -0.005490146393884421
48 0.011595173031940124 0.013186385531813748 0.005970801171753378
46 0.007220897254130615 0.0019402535344298121 -0.001949015647011301
47 0.017616328659408386 -0.008111738930169955 -0.01808942217352918
1490 -0.003570391620416461 -0.03240930452301508 -0.02370562373368639
866 0.010008636823161268 -0.009819821577303505 -0.016670734116561906
782 0.024029813221893813 0.01755025692430674 0.004890028068425331
149 0.002902364338343782 -0.0029137671204706663 -0.01602691315194166
188 0.005830115426940071 -0.027050279636608842 -0.022367358071370053
1704 0.01897349347218494 -0.01153695018297804 0.007123363063974608
477 0.005226663804056797 0.005931058045722772 0.0018520688784891895
921 -0.009387115832134347 0.03207560141933713 0.02061865659300057
919 0.0025320020845238296 0.0028464783846080866 0.0030459617304320237
1677 -0.004733700620983577 0.0021184799795748027 -0.006028576624745299
475 0.006312068048592109 0.003887491625435508 0.003780251228675332
1217 -0.0031119428821971464 -0.0028773431355612776 0.0035353030382791564
452 -0.004031177945009085 0.007426482227789085 -0.00036312614103476326
1218 0.011356556879228432 0.0037588076180227713 0.00320721581790238
453 0.0069950842638335335 0.0018193391644589043 -0.0027553019959234907
168 -0.011424060704256478 -0.016193284662682564 0.008180044113291724
167 0.02321825173398102 0.015837929516986846 -0.002353001533950526
451 0.000392182608480717 0.00035701817575067916 -0.004751410065032073
166 0.0008433758639663611 -0.0008346296500302326 -0.0003952982571236995
920 0.012975755231746907 0.0009014890751256881 -0.005098750087422809
476 0.005831204648701026 0.010777519989877598 0.006233988762151291
187 -0.004239393701126745 -0.0010717983580675145 -0.0017417723472887055
400 -0.002591569785561748 -0.005677523684867442 -0.004986667728288079
1631 -0.014878269689660582 0.0028459974850004836 0.006766043463460028
189 -0.003974848820429628 -0.013086780677497791 0.027921919802036208
148 0.0043699690953225324 0.000506524914466319 -0.0017014726032670952
402 0.003213277147269394 -0.0031465376584681568 0.004444659572169851
1630 -0.004128362849864685 -0.002611461889943019 0.00986773776989478
536 -0.010933114470221073 -0.020188676460214567 0.006418863620014316
535 0.00031427155751725087 -0.0006977384811768042 -0.003943191053586312
537 0.0065524784292434555 -0.004896896156368783 -0.020279834653863398
150 0.006248701545052283 0.00932552773413159 0.00459400609945159
401 -0.005307816414317781 0.03778415742954947 0.018950025595835855
1139 0.01784618162998517 -0.0066443496884463285 -0.0160810515297802
66 0.0006741766030163932 0.003080287889480371 0.01391860612589734
600 -0.004294875830650894 -0.014781556511540905 -0.009424886116044504
1597 0.0034641342485073256 0.001146979422614173 -0.0014990468352352767
1676 -0.004054539568465146 0.00025824926932244786 -0.002452148716356756
710 0.02772709087640534 0.002462182210593804 0.0004169560927743417
632 -0.005404535567494311 0.0022370538832126984 -0.000788256247484247
880 -0.005604384402696275 -0.001407162571895694 -0.0023181765117750762
881 -0.0038324209979658836 0.0027570619004219856 0.0038837973177467825
882 -0.0018538511744036362 -0.0032739378135742993 -0.005336652301663094
950 0.024490524600621733 -0.009996520070406292 -0.000662843679015939
949 -0.0036875869438179744 -0.0018819181621675708 0.0018801500406324645
1166 -0.009499034679178458 0.008026075547049333 0.008285631651445653
1165 -0.007362957401096079 0.002870598353081142 -0.001466283135467078
778 -0.0036643004855277284 -0.0004635641389272966 0.0009144020461587808
779 -0.0050750951743303565 -0.0208502795016554 -0.012713209451090337
1167 0.001608491212403864 0.002936844627755376 0.008797845616186958
1097 0.012136828889444022 -0.006669514597566277 0.00947897014060529
1098 -0.01207451595922772 0.008973620167012046 -1.7716848410431926e-05
1096 0.00265376434144166 -0.002411342017330775 -0.004866499080061153
285 -0.0037945743709256875 -0.005689157172241568 -0.00021914476421456674
598 0.0008529575549422342 -0.002657147954178245 -0.0024916874634514146
951 -0.003291752904124043 -0.0245176209611044 0.006032035365057758
1777 -0.0002807074339635898 0.0027418605599537566 -0.003997857569524592
711 0.0010128774328155051 -0.005112086851901934 -0.005221843096102782
599 0.008212988457065532 -0.015488943855322686 0.0006830748131449486
283 -0.002718954967009694 -0.0044448760364176046 -0.001534896061008165
1598 0.013937542164527443 -0.00808472063899845 0.003009823680903272
571 -0.004652925886414811 -0.0011457425113702135 -0.0011606516664196393
780 0.008414082519792304 -0.010619786336526271 0.008806269132583432
1473 -0.00939781432285597 -0.012272020769701093 0.008649535245840115
1182 0.00696172748411268 0.000650827931956159 -0.00034460182555907335
1180 0.002599534914900725 0.0034108160851024786 -0.001490318725594004
1181 -0.0025130712560704786 0.006190707970013488 -0.0030833886716399106
439 -0.007379374258698164 0.005153860489807501 0.0066783708762034695
441 -0.009966107968917233 0.003121022128494921 0.012460741662098335
88 0.0013790315163827083 -0.002575144846438749 -0.0026951953915934817
1444 -0.002483588432084934 -0.0011104340232351506 -0.005953049816479695
1445 0.0004230608670084432 -0.001110019242191269 -0.007593852288461003
440 -0.004242237801506885 0.0018016103205954043 0.00025846672366031147
156 0.004449993221006951 0.0010525830334923243 -0.002384033126384589
154 0.0007697333491921959 0.0034368656009683652 0.00046855218615991936
359 -0.00759112235757185 0.020372572968106215 0.0066499557888302545
90 -0.015739787906518747 0.0015393757875389559 -0.03527961442912587
844 -0.0034024788699504975 0.0007122889568611788 0.00037654777626465675
548 -0.010261808482108599 -0.016513428111274153 -0.005379725059076479
21 -0.0021282683967443878 0.009457194670882267 0.009377709054918354
358 -0.0009587986195543535 -0.0038116554867011414 0.0010928630317673352
19 0.00019601078809649091 -0.00041600916040669553 6.791937714767935e-06
1779 -0.006052542331196543 -0.003585480917963294 -0.029728651273451333
1194 -0.002318632757079315 -0.002434181262952485 -0.009332335045938852
547 -0.00042686309758833946 -0.0015888973589184747 5.367549283966881e-05
549 -0.010736608701888526 0.011791542166416312 0.00017778993107796535
846 -0.026968943305169833 -0.005042182918170027 -0.0069206568718448965
20 0.010824809300345345 -0.017758154015012167 -0.004159375787047392
845 -0.012296066461285532 -0.001803051775470821 -0.002205873839963255
909 0.000524121162388431 0.0070060215442396 0.0017381605444550894
966 0.008537711138876376 -0.007457090184794684 -0.006595729610344433
1557 0.01781528657793909 -0.010440105735384479 -0.0032613178907646184
155 -0.005897269576026549 0.006835421236441951 -0.0038165366766574733
964 0.007273700161841675 -0.0019495104952501272 -0.001641378541918139
1056 -0.008157156799554921 0.007148800042187416 0.015308883782412862
737 0.020005795505271283 0.013130600063550725 0.011240374931462469
817 -0.006415322674257679 0.0035248751899648067 -0.0054213479526071745
819 -0.011486985180294644 -0.0011445239135178338 -0.0028768240765904346
818 0.010275662302942723 0.004891341857095597 -0.014644093273190372
560 -0.002760996462020573 0.0007639333049254206 0.02492714462717975
563 -0.01767161853157718 0.007431597147711274 -0.009948850070539127
734 -0.0011986300168052892 0.007673362711161228 -0.010716538378379386
122 0.002761665068980766 -0.00397256731095679 -0.008241096611255574
121 0.00013774575382597011 0.0006865681831972275 0.0029454983293298975
1482 -0.0016676722655771475 -0.0002722653112356402 0.005336639073887817
1247 0.004662476464493468 0.009516263087373926 -0.009331909417311317
1682 -0.004995974386056476 -0.001306689092032657 -0.009808641541110275
1480 -0.002617335081728886 0.004136447187447659 0.0058738553682952995
1248 -0.01677483903630412 -0.0033724199638404304 -0.014785175851501584
733 0.002485371876800673 -0.003168093602120349 -0.0002618721043918867
1481 -0.0037302056496720656 0.005594905190118101 0.0012377791482773577
735 0.01438301388785391 -0.016114628385705435 -0.0229974110334085
1681 0.002507947413095775 0.00338130294897568 -0.0028488948813309347
562 0.0026840793342123807 -0.0024468977177696262 -0.00038387332559276555
1683 0.010118715541774901 0.009214328038623584 0.005063069678389525
203 0.00191068659401284 -0.0014875653018264665 -0.007928305274683753
564 -0.019383778075582437 0.013207969699418886 -0.005109684606545656
668 0.0009145613983117567 0.008668573445116052 -0.0020022044926354832
230 0.0032294416907582267 -0.007170977332783747 0.014086586664224382
1386 -0.011835950320361744 0.004842982634961774 0.004307539365817857
739 0.001803636003277074 -0.0016733505380410643 0.0031648405996793816
1163 -0.007917424283977638 -0.0016273961502647786 0.0022250291286437097
777 0.016834852083698344 0.03481222921063693 0.00976829412650318
775 0.0005677027985003043 0.00357030479252601 -0.004243815648073621
741 -0.010934312587215491 -0.004481873030702656 0.008895267066178757
1190 0.013306520656199217 0.00865344840347718 -0.005989397000198023
776 -0.0044632136180166706 -0.00433320111143797 0.020272566031419994
1055 -0.0002963724287705005 -0.0022698102564164217 -0.005833716487409152
1054 -0.0007978876170989169 0.003396314447315835 0.005184217760637902
204 0.0008571726475708584 0.034752405443571444 0.0055469999736215735
202 0.001838731712390686 0.00047207730807331556 0.002391878265874693
1191 0.0003916669142005 0.007218148255138681 0.001528533292970528
1287 -0.0178431780952795 -0.01601955843216303 0.007326534230889876
1290 0.0125923255483921 0.0020116656584357974 -0.009322952107442063
1285 -0.0019268963731602457 -0.006859796044717021 -0.004205287947287468
1286 -0.005995633588679419 -0.013942145425214934 -0.01833294789033259
642 0.001291321388077073 0.002597106010766081 -0.011618637683347336
1189 -0.004408543502079081 -0.006635167093998542 -0.0011025482987387532
1162 0.0034011002589240825 -0.0012844534892400684 -0.002159324816742738
641 0.0036018928070386145 0.005328599756368848 -0.00957810937910215
1368 0.0023646081526456503 0.010580468219513962 0.0007543775523256806
740 0.012263616268130667 -0.004559940899978853 0.026171688547718085
810 -0.006790543612708732 0.0020174579707706343 -0.009147382261327257
1366 0.006053141868095256 -0.0005317779605007201 -0.0020488779780502195
1367 0.01676252515448211 0.0010334320713896714 -0.0059178470001107
561 0.0029508465978876435 0.009315486274884583 0.01610267397917661
640 0.004900675369592756 0.003502923950733063 -0.00793044654026894
265 -0.0014469015659797355 -0.00021206094566085266 0.0002120157953664443
1164 -0.016426452657030487 -0.0004142698794113761 0.020052893807493068
1317 0.002846708043386094 -0.00142183836894102 -0.004653250756576226
176 -0.01724211461996006 -0.0167908177055548 0.014973729085029655
80 -0.016182071400717972 0.007143148031127937 0.009844781830550393
1494 -0.007204200686743515 0.001159598991485695 0.005676681980941995
1346 -0.014843720201443254 0.002453053467727471 0.026355330438270735
1345 -0.0001989640542634019 -0.003676952671999527 0.004028077889580394
1107 -0.008138608227440147 0.010542167915148849 0.0032239157591851175
1240 -0.0009571291832483213 -0.006167567286752614 -0.0030739295850466717
177 -0.002043226988414659 0.009143814321203862 0.034951001192129426
1589 0.009001307262019052 0.0006939656298254223 0.010114704103645946
1588 -0.006388805591816508 -0.0031742027709140423 -0.002123276682053754
266 0.0036794352075425864 -0.001682855552376941 -0.03220468087168137
1242 -0.0028234650899224543 -0.00560780998457865 0.01310218288087401
1590 0.0007944091088923169 -0.007858027120857024 0.0034845372393078403
422 0.0013207297696192055 -0.02101725972198892 0.023948948954089985
1304 0.022829983925874167 -0.0009436000169380435 0.0037135814598130493
1303 -0.01205158384573454 -0.006487481768279305 0.006142260110727185
1305 -0.010043824804007404 -0.0035601978381958653 -7.750645996565632e-05
421 0.006205007581976976 -0.00425756145032068 0.0049242543800744505
423 0.002293490741491453 -0.02228330643688447 -0.007027114811675133
805 0.0031309733473358775 -0.002273814609899253 -0.00016971146380287665
806 0.0035949600379969948 -0.007730626811232249 -0.01707328883104196
807 -0.013838825542739023 -0.0006962210076201578 0.002686436112100281
384 -0.0015819335182762065 -0.0004725791877447985 0.0033260526962743337
1241 0.008632079746318296 -0.01612572814753129 -0.023556698345613945
1493 0.001900583197992731 0.0059842465262364124 -0.010682752585510536
1712 0.003412371348732516 0.0022773392284131094 -0.0067885296100174235
1492 -0.00413582324967891 0.004362934413250397 -0.0028591229362156106
1105 0.0026073626721927223 -0.0019886342996760717 0.0005468469974023774
220 0.0054291125163587525 0.0010282543154441885 0.003514544341304187
92 0.004749472865279103 -0.0028112094008631225 0.012148237209252346
1617 0.026004357736322026 0.012880181422372971 0.01978750630504239
1141 0.003416773938969539 -0.0005955599049869635 -0.003487571340788819
1143 0.019129405985877226 0.015389692963400044 -0.0022050888680938334
1540 -0.00609913953740313 -0.004906333603152562 -0.0033914459466038017
1615 0.0029482901213856525 0.0007607966450398996 -0.0018529230350741775
1541 0.006421936644565193 -0.003118177111862867 -0.006157213522852961
1066 0.0023127875939122733 -0.0065595696837313314 0.0030334553964478568
1068 0.006085513927178591 0.023283458362144557 -0.004724237668381093
1542 0.01890575177729425 -0.006483770290282498 0.007106563520577981
1067 -0.028199536068517495 -0.005801325224453796 -0.014115887700565004
699 0.008009568362720073 0.0047082650529630616 -0.0070331971049685015
697 -0.0025901656626027185 0.00026513888145467547 0.0021135383070394692
41 0.017507083891895217 0.007753306245936485 0.0101805725460919
698 -0.0366837081470132 -0.028685415146112194 0.023287193254628444
1798 0.0010192961769213444 0.0027150054330562657 -0.0003862235897479986
1800 0.019194997115846383 -0.008908839726406144 0.014000956479043014
229 0.003647100081820735 -0.0008110918366593476 0.0013310132599770692
231 0.004182021936280596 -0.009711117859721369 0.003533500521894231
42 -0.008768588695424453 0.014636869339611853 0.0025023029834789793
1022 0.0024588820500780705 0.003512316942475409 0.0069209337088420005
40 0.003360944535900253 0.004952282946407954 0.003636010047573689
1616 0.0240645788109308 -0.016595443326952973 0.013723716022795098
1023 -0.005079509327618879 -0.006359072152397879 -0.012839359296370149
1021 0.0003246858635289647 -0.002123115212517847 0.0001410955609764057
222 -0.007451904073871187 -0.013616295708192325 -0.015898967082993494
871 -0.0019286048984625073 -0.0032550277607362984 -0.003786594882251844
872 0.00012970628635167126 -0.01231307973651449 0.013466322209899585
908 -0.023247501801552266 -0.010762499428387211 0.004423098243632775
312 0.00907264731248507 -0.004033745626817393 0.024353043735809148
1246 -0.004219277958486056 0.003104432039458296 -0.004854756646923378
310 -0.0049618588273828606 0.0008061379362711816 0.0008495245198588957
1314 0.004512505084807534 0.004778806094054521 -0.002261547167700818
578 -0.020141789095969 0.0022070926506733194 0.005580115768819319
565 -0.0022805039740148004 -0.00259252976154412 0.0018413047476861222
1754 0.0018242280856320353 -0.007067734668815669 -0.0044192997802430245
907 -0.0031064329506476714 0.002103154420355054 0.0017688576408519206
1753 -5.788876112025492e-05 0.0016390753770926365 -0.0013997041064113657
311 0.010474391061883808 -0.01036045793415429 0.011203146023570544
74 -0.00236775108424783 0.012050098570223444 -0.011885522284265612
613 -0.0071467707889590094 0.0012950367663683532 0.0024597803707090333
614 0.0015417717380012037 -0.0033802280319497023 -0.005246812778338073
615 0.0026396862291018348 -0.009395668996208596 -0.004711789936649813
971 0.003172860840857352 0.006847157223777048 -0.0074060466594825115
1179 0.01060395539284018 -0.03274485059449115 -0.038117683030302725
73 -0.005379375864465908 0.010207954445605785 -0.006122858212660984
970 0.001470049315289742 -0.0008237223585377034 0.0011965198893310403
75 -0.02815313651165559 -0.009091620116424276 0.0036109508883721037
1177 0.007953223758377936 -0.002608767256307991 -0.0008840436106493293
566 -0.006641347839148222 -0.007866282580401174 -0.003857550899887867
785 0.008972287909105928 0.012034554563324671 0.006418800448590731
1755 0.002452488285594332 0.0014941839030288354 0.00086863200681287
1491 -0.009593689929511134 0.024174135811348963 -0.00568522105411718
1178 0.01704533220921252 -0.013738381795858071 -0.005638966553772213
786 -0.0010053970051442525 -0.014274207205841756 0.019139482361080488
1412 0.0013798121090355284 -0.0019840701593268647 -0.000316989471196301
1706 -0.016723181423809855 -0.005112020630542877 -0.004604470652235154
1238 0.00539251987014347 0.005880674578708522 0.00514848291186251
572 -0.009442045828370141 0.01012682388648287 -0.004028303258280436
928 -0.005503196017027701 0.0041834328283651455 0.007150251289801105
388 0.0027777675664629417 -0.006662434606943113 -0.00012569471416376966
1489 -0.005923443593255577 -0.005674668372236565 -0.001507449005167112
127 0.007226211742431023 -0.000732029753210641 -0.0018758843985893117
128 0.013244092836971293 -0.0022032531959634756 0.00903394400287177
129 0.012069396272884845 -0.0022052426301383413 0.013134959405505613
241 0.00499622830750617 0.0022707095524547335 -0.005271273360436108
1148 0.004127632974863135 -0.01633688800921911 0.004117658184694781
1147 0.002536690180661612 -0.0014133481272085896 0.005488068918209457
1149 0.01149494797906983 0.011362157319943873 -0.017939642525083146
431 0.004699021265171788 -0.003446174338444313 0.019344368080419453
242 0.0244307172655241 -0.015122019160457682 -0.005142296885070666
430 0.0029895714757180807 0.0016557985764711859 -0.00020220445411909765
432 0.0036740183348468853 -0.0021200301903900997 0.004727722421119515
243 -0.007343342449117975 0.013826267431521494 -0.00605711845167075
390 -0.010948778409617239 0.003122783560924458 0.006941792793701709
1705 -0.0015358128097724359 -0.005655069386861286 0.00176127733463533
1707 0.0066515365467335955 -0.0012999984225016362 0.013550681218153011
56 0.016323793724171934 -0.0011646556435755714 -0.009607362351159736
1237 -7.544288744028279e-05 0.005204391004054199 0.0032828783093232666
929 -0.0023872273054091468 0.0051627640794169516 -0.015242012235012594
930 0.01430595397269134 0.00398455563560961 0.012969853948382534
261 -0.011877355903787832 -0.01740817608947537 -0.023916378879873055
946 -0.001100619667151201 0.0010807890929038209 -0.003906816668503692
260 0.02686710410064545 -0.0013702761924598162 0.008253797451559434
1530 -4.658279774928798e-05 -0.009538698795625413 0.014427596211255287
1399 0.0005082438768899741 -0.0025946538984419937 0.004705764960539907
1103 0.008116307683146973 0.0072779259769281115 -0.0060917433455117635
1778 -0.0007148708783497789 -0.01327271286261327 -0.018338525085176798
284 -0.0031563998728552406 0.00032328745893739943 0.010103576712007654
259 0.0018253824623108163 -0.0006185652547572144 -0.0013238582425333884
947 -0.0025773331548356176 -0.003650102070763349 -0.005719536622794839
510 0.01460192186702199 -0.02240432528478869 -0.0002273261457460551
508 0.0013143214949167391 0.0032843614787621657 -0.0011099373338570673
948 0.008681302032388436 0.016237826545709898 -0.0019002368754910224
382 0.004289134150172146 0.0004315519823815277 0.002387998472015632
1599 0.008632451419268387 -0.026874596784081887 -0.00012119278476762012
443 -0.02058420675964828 -2.474797990124516e-05 -0.010183570937538574
321 0.001958786205595617 -0.0007025857253556983 0.002579181458583861
943 -0.00325706915843899 0.0018869491943773558 -0.0012827330335411218
915 0.008747694344520114 -0.0037352609940196216 -0.0020488079418049037
914 -0.003585663760505956 -0.00037737835033579015 0.01195833175889359
913 -4.351718438054282e-05 0.0006827062816529698 0.004292019327269454
51 0.016320750668698498 0.014305790898772822 -0.01892289036889306
944 -0.004473857130189002 0.01049609698407975 0.025490277777304296
49 0.0006167202079543281 -0.0040650261673423884 -0.003877798230447462
444 0.0010792010466876894 -0.001823924054334102 -0.003961533647610056
50 -0.02027010013846544 -0.025059392792523633 0.007713743025263442
507 0.006185776646441229 0.003193630288423228 0.004255673139701264
505 -0.0004694374009052233 -0.0026453272963717343 -0.001315142575451884
506 -0.0042667350344382775 -0.007625617978411428 0.004865261047359859
709 0.0037373683793531193 -0.0008199195343103335 0.0008194400091666846
1711 0.006858425121949146 -0.0022418735226876502 -0.0022924218080917964
1713 0.0067447873959281274 -0.0013270136150931454 -0.022071454979435638
1529 0.01032029515523107 0.002238299241075461 0.017530928947438938
1528 0.002436817240619381 0.0021638733749461594 -0.0005049828398017442
383 0.0025534292136076523 -0.002062931505885778 0.00585082550263772
1401 0.0207743288689269 -0.00837636147322691 0.0024634084262798186
442 -0.001746819576871252 -0.007799177560192504 -0.0072980840562442365
1225 -0.003199454113933295 -0.0031209383599588216 -0.00653220694617626
815 -0.006949524032867312 -0.008871671159405781 -0.003963017746036544
816 0.003915530362483615 -0.000503247248199365 -0.002224709710603862
992 -0.006261264363148489 0.015351922264287646 -0.01688319631363804
1193 -0.012803219911790372 0.00528102612935094 -0.00986795899667798
1192 0.004021927057931691 -0.0010655301754580807 -0.0029208782118868705
567 -0.003858723059130959 0.017649198558554343 0.023629494293245276
221 0.010052362118260107 -0.02661321576329998 0.003163511578610469
509 -0.007992187588339559 0.014894943826972514 0.0008141306423157114
1226 -0.003954744100591313 0.008487989361257216 -0.014758797140280073
1601 0.01703359245227951 0.0025822963226526164 0.014946031705328185
240 0.01085600742512693 0.010642521656347884 0.007270409793902738
1602 -0.013469645813107643 0.024152855797595425 -0.004366976277762213
721 -0.0005980191484182418 0.001234638127367647 -0.004565474621312695
993 -0.0006406321468839995 0.002820046173401565 0.00884584581436941
991 0.0008576372275924134 -0.003819999147854489 0.004873371898806454
723 -1.971006264161191e-05 0.004519710236538543 -0.003827801148948379
722 0.007468516258638733 0.012066517135364043 -0.009502179004388038
1227 -0.0023188663018227232 -0.011858670866003994 0.00026491776990161743
1600 0.0039212276879660975 0.004122892095742859 -0.005676248519708145
1400 -0.025041848871945147 0.023933704749722177 -0.024399812636690978
814 -0.0012225748364360401 0.000132970427563343 -0.0019445159595584962

Bonds

1 1 940 941
2 1 940 942
3 1 838 839
4 1 838 840
5 1 343 344
6 1 343 345
7 1 790 791
8 1 790 792
9 1 433 434
10 1 433 435
11 1 1624 1625
12 1 1624 1626
13 1 1333 1334
14 1 1333 1335
15 1 994 995
16 1 994 996
17 1 511 512
18 1 511 513
19 1 1195 1196
20 1 1195 1197
21 1 643 644
22 1 643 645
23 1 1369 1370
24 1 1369 1371
25 1 886 887
26 1 886 888
27 1 1060 1061
28 1 1060 1062
29 1 1714 1715
30 1 1714 1716
31 1 766 767
32 1 766 768
33 1 1306 1307
34 1 1306 1308
35 1 499 500
36 1 499 501
37 1 1363 1364
38 1 1363 1365
39 1 1009 1010
40 1 1009 1011
41 1 883 884
42 1 883 885
43 1 1780 1781
44 1 1780 1782
45 1 1462 1463
46 1 1462 1464
47 1 52 53
48 1 52 54
49 1 664 665
50 1 664 666
51 1 1045 1046
52 1 1045 1047
53 1 1498 1499
54 1 1498 1500
55 1 1027 1028
56 1 1027 1029
57 1 1222 1223
58 1 1222 1224
59 1 94 95
60 1 94 96
61 1 1501 1502
62 1 1501 1503
63 1 334 335
64 1 334 336
65 1 268 269
66 1 268 270
67 1 898 899
68 1 898 900
69 1 1150 1151
70 1 1150 1152
71 1 730 731
72 1 730 732
73 1 688 689
74 1 688 690
75 1 214 215
76 1 214 216
77 1 568 569
78 1 568 570
79 1 874 875
80 1 874 876
81 1 892 893
82 1 892 894
83 1 1387 1388
84 1 1387 1389
85 1 487 488
86 1 487 489
87 1 760 761
88 1 760 762
89 1 1585 1586
90 1 1585 1587
91 1 1006 1007
92 1 1006 1008
93 1 997 998
94 1 997 999
95 1 550 551
96 1 550 552
97 1 160 161
98 1 160 162
99 1 1636 1637
100 1 1636 1638
101 1 616 617
102 1 616 618
103 1 205 206
104 1 205 207
105 1 1795 1796
106 1 1795 1797
107 1 877 878
108 1 877 879
109 1 619 620
110 1 619 621
111 1 793 794
112 1 793 795
113 1 1786 1787
114 1 1786 1788
115 1 130 131
116 1 130 132
117 1 1486 1487
118 1 1486 1488
119 1 1297 1298
120 1 1297 1299
121 1 1435 1436
122 1 1435 1437
123 1 1450 1451
124 1 1450 1452
125 1 1570 1571
126 1 1570 1572
127 1 649 650
128 1 649 651
129 1 1135 1136
130 1 1135 1137
131 1 1558 1559
132 1 1558 1560
133 1 118 119
134 1 118 120
135 1 694 695
136 1 694 696
137 1 715 716
138 1 715 717
139 1 1507 1508
140 1 1507 1509
141 1 910 911
142 1 910 912
143 1 955 956
144 1 955 957
145 1 1360 1361
146 1 1360 1362
147 1 1573 1574
148 1 1573 1575
149 1 1354 1355
150 1 1354 1356
151 1 460 461
152 1 460 462
153 1 901 902
154 1 901 903
155 1 67 68
156 1 67 69
157 1 97 98
158 1 97 99
159 1 1261 1262
160 1 1261 1263
161 1 1213 1214
162 1 1213 1215
163 1 724 725
164 1 724 726
165 1 235 236
166 1 235 237
167 1 1426 1427
168 1 1426 1428
169 1 574 575
170 1 574 576
171 1 181 182
172 1 181 183
173 1 454 455
174 1 454 456
175 1 145 146
176 1 145 147
177 1 652 653
178 1 652 654
179 1 670 671
180 1 670 672
181 1 1396 1397
182 1 1396 1398
183 1 532 533
184 1 532 534
185 1 1591 1592
186 1 1591 1593
187 1 322 323
188 1 322 324
189 1 163 164
190 1 163 165
191 1 151 152
192 1 151 153
193 1 1567 1568
194 1 1567 1569
195 1 1693 1694
196 1 1693 1695
197 1 184 185
198 1 184 186
199 1 703 704
200 1 703 705
201 1 325 326
202 1 325 327
203 1 1204 1205
204 1 1204 1206
205 1 658 659
206 1 658 660
207 1 271 272
208 1 271 273
209 1 982 983
210 1 982 984
211 1 1483 1484
212 1 1483 1485
213 1 199 200
214 1 199 201
215 1 1552 1553
216 1 1552 1554
217 1 226 227
218 1 226 228
219 1 625 626
220 1 625 627
221 1 295 296
222 1 295 297
223 1 379 380
224 1 379 381
225 1 1561 1562
226 1 1561 1563
227 1 76 77
228 1 76 78
229 1 1582 1583
230 1 1582 1584
231 1 1402 1403
232 1 1402 1404
233 1 1477 1478
234 1 1477 1479
235 1 1438 1439
236 1 1438 1440
237 1 1771 1772
238 1 1771 1773
239 1 232 233
240 1 232 234
241 1 490 491
242 1 490 492
243 1 286 287
244 1 286 288
245 1 931 932
246 1 931 933
247 1 1564 1565
248 1 1564 1566
249 1 1126 1127
250 1 1126 1128
251 1 298 299
252 1 298 300
253 1 1090 1091
254 1 1090 1092
255 1 802 803
256 1 802 804
257 1 1036 1037
258 1 1036 1038
259 1 859 860
260 1 859 861
261 1 1747 1748
262 1 1747 1749
263 1 829 830
264 1 829 831
265 1 1153 1154
266 1 1153 1155
267 1 895 896
268 1 895 897
269 1 1072 1073
270 1 1072 1074
271 1 1408 1409
272 1 1408 1410
273 1 139 140
274 1 139 141
275 1 958 959
276 1 958 960
277 1 1414 1415
278 1 1414 1416
279 1 799 800
280 1 799 801
281 1 1453 1454
282 1 1453 1455
283 1 517 518
284 1 517 519
285 1 529 530
286 1 529 531
287 1 1255 1256
288 1 1255 1257
289 1 1069 1070
290 1 1069 1071
291 1 1159 1160
292 1 1159 1161
293 1 1249 1250
294 1 1249 1251
295 1 331 332
296 1 331 333
297 1 691 692
298 1 691 693
299 1 628 629
300 1 628 630
301 1 289 290
302 1 289 291
303 1 1048 1049
304 1 1048 1050
305 1 34 35
306 1 34 36
307 1 436 437
308 1 436 438
309 1 1264 1265
310 1 1264 1266
311 1 361 362
312 1 361 363
313 1 448 449
314 1 448 450
315 1 1327 1328
316 1 1327 1329
317 1 1621 1622
318 1 1621 1623
319 1 787 788
320 1 787 789
321 1 82 83
322 1 82 84
323 1 397 398
324 1 397 399
325 1 1669 1670
326 1 1669 1671
327 1 520 521
328 1 520 522
329 1 1207 1208
330 1 1207 1209
331 1 781 782
332 1 781 783
333 1 493 494
334 1 493 495
335 1 253 254
336 1 253 255
337 1 646 647
338 1 646 648
339 1 211 212
340 1 211 213
341 1 1318 1319
342 1 1318 1320
343 1 1504 1505
344 1 1504 1506
345 1 217 218
346 1 217 219
347 1 1576 1577
348 1 1576 1578
349 1 1513 1514
350 1 1513 1515
351 1 952 953
352 1 952 954
353 1 64 65
354 1 64 66
355 1 103 104
356 1 103 105
357 1 610 611
358 1 610 612
359 1 1138 1139
360 1 1138 1140
361 1 751 752
362 1 751 753
363 1 580 581
364 1 580 582
365 1 496 497
366 1 496 498
367 1 592 593
368 1 592 594
369 1 727 728
370 1 727 729
371 1 196 197
372 1 196 198
373 1 1357 1358
374 1 1357 1359
375 1 634 635
376 1 634 636
377 1 1555 1556
378 1 1555 1557
379 1 1030 1031
380 1 1030 1032
381 1 937 938
382 1 937 939
383 1 601 602
384 1 601 603
385 1 1663 1664
386 1 1663 1665
387 1 979 980
388 1 979 981
389 1 823 824
390 1 823 825
391 1 772 773
392 1 772 774
393 1 1684 1685
394 1 1684 1686
395 1 607 608
396 1 607 609
397 1 1129 1130
398 1 1129 1131
399 1 1603 1604
400 1 1603 1605
401 1 586 587
402 1 586 588
403 1 256 257
404 1 256 258
405 1 1375 1376
406 1 1375 1377
407 1 1186 1187
408 1 1186 1188
409 1 1633 1634
410 1 1633 1635
411 1 1228 1229
412 1 1228 1230
413 1 1618 1619
414 1 1618 1620
415 1 718 719
416 1 718 720
417 1 1648 1649
418 1 1648 1650
419 1 58 59
420 1 58 60
421 1 1579 1580
422 1 1579 1581
423 1 622 623
424 1 622 624
425 1 403 404
426 1 403 405
427 1 244 245
428 1 244 246
429 1 1465 1466
430 1 1465 1467
431 1 1351 1352
432 1 1351 1353
433 1 1042 1043
434 1 1042 1044
435 1 472 473
436 1 472 474
437 1 337 338
438 1 337 339
439 1 469 470
440 1 469 471
441 1 70 71
442 1 70 72
443 1 1627 1628
444 1 1627 1629
445 1 1729 1730
446 1 1729 1731
447 1 106 107
448 1 106 108
449 1 172 173
450 1 172 174
451 1 745 746
452 1 745 747
453 1 280 281
454 1 280 282
455 1 706 707
456 1 706 708
457 1 1201 1202
458 1 1201 1203
459 1 763 764
460 1 763 765
461 1 307 308
462 1 307 309
463 1 856 857
464 1 856 858
465 1 1759 1760
466 1 1759 1761
467 1 784 785
468 1 784 786
469 1 748 749
470 1 748 750
471 1 55 56
472 1 55 57
473 1 1132 1133
474 1 1132 1134
475 1 1750 1751
476 1 1750 1752
477 1 1789 1790
478 1 1789 1791
479 1 457 458
480 1 457 459
481 1 1768 1769
482 1 1768 1770
483 1 1390 1391
484 1 1390 1392
485 1 1102 1103
486 1 1102 1104
487 1 1441 1442
488 1 1441 1443
489 1 208 209
490 1 208 210
491 1 832 833
492 1 832 834
493 1 1033 1034
494 1 1033 1035
495 1 1699 1700
496 1 1699 1701
497 1 7 8
498 1 7 9
499 1 1324 1325
500 1 1324 1326
501 1 826 827
502 1 826 828
503 1 1549 1550
504 1 1549 1551
505 1 346 347
506 1 346 348
507 1 976 977
508 1 976 978
509 1 1687 1688
510 1 1687 1689
511 1 1093 1094
512 1 1093 1095
513 1 1543 1544
514 1 1543 1545
515 1 973 974
516 1 973 975
517 1 541 542
518 1 541 543
519 1 1018 1019
520 1 1018 1020
521 1 868 869
522 1 868 870
523 1 385 386
524 1 385 387
525 1 1423 1424
526 1 1423 1425
527 1 277 278
528 1 277 279
529 1 1456 1457
530 1 1456 1458
531 1 736 737
532 1 736 738
533 1 313 314
534 1 313 315
535 1 1117 1118
536 1 1117 1119
537 1 481 482
538 1 481 483
539 1 934 935
540 1 934 936
541 1 637 638
542 1 637 639
543 1 37 38
544 1 37 39
545 1 1378 1379
546 1 1378 1380
547 1 16 17
548 1 16 18
549 1 811 812
550 1 811 813
551 1 712 713
552 1 712 714
553 1 889 890
554 1 889 891
555 1 427 428
556 1 427 429
557 1 61 62
558 1 61 63
559 1 115 116
560 1 115 117
561 1 175 176
562 1 175 177
563 1 553 554
564 1 553 555
565 1 1081 1082
566 1 1081 1083
567 1 1276 1277
568 1 1276 1278
569 1 922 923
570 1 922 924
571 1 1531 1532
572 1 1531 1533
573 1 1198 1199
574 1 1198 1200
575 1 1270 1271
576 1 1270 1272
577 1 1510 1511
578 1 1510 1512
579 1 988 989
580 1 988 990
581 1 4 5
582 1 4 6
583 1 1474 1475
584 1 1474 1476
585 1 1171 1172
586 1 1171 1173
587 1 1252 1253
588 1 1252 1254
589 1 1219 1220
590 1 1219 1221
591 1 679 680
592 1 679 681
593 1 1744 1745
594 1 1744 1746
595 1 742 743
596 1 742 744
597 1 304 305
598 1 304 306
599 1 1012 1013
600 1 1012 1014
601 1 796 797
602 1 796 798
603 1 409 410
604 1 409 411
605 1 247 248
606 1 247 249
607 1 1057 1058
608 1 1057 1059
609 1 559 560
610 1 559 561
611 1 415 416
612 1 415 417
613 1 1267 1268
614 1 1267 1269
615 1 376 377
616 1 376 378
617 1 1168 1169
618 1 1168 1170
619 1 1762 1763
620 1 1762 1764
621 1 1384 1385
622 1 1384 1386
623 1 1321 1322
624 1 1321 1323
625 1 1114 1115
626 1 1114 1116
627 1 1063 1064
628 1 1063 1065
629 1 1339 1340
630 1 1339 1341
631 1 193 194
632 1 193 195
633 1 820 821
634 1 820 822
635 1 1315 1316
636 1 1315 1317
637 1 967 968
638 1 967 969
639 1 274 275
640 1 274 276
641 1 1594 1595
642 1 1594 1596
643 1 1516 1517
644 1 1516 1518
645 1 1051 1052
646 1 1051 1053
647 1 655 656
648 1 655 657
649 1 925 926
650 1 925 927
651 1 85 86
652 1 85 87
653 1 418 419
654 1 418 420
655 1 1546 1547
656 1 1546 1548
657 1 835 836
658 1 835 837
659 1 1120 1121
660 1 1120 1122
661 1 1657 1658
662 1 1657 1659
663 1 112 113
664 1 112 114
665 1 373 374
666 1 373 375
667 1 1642 1643
668 1 1642 1644
669 1 1075 1076
670 1 1075 1077
671 1 577 578
672 1 577 579
673 1 985 986
674 1 985 987
675 1 109 110
676 1 109 111
677 1 1039 1040
678 1 1039 1041
679 1 769 770
680 1 769 771
681 1 1432 1433
682 1 1432 1434
683 1 484 485
684 1 484 486
685 1 1651 1652
686 1 1651 1653
687 1 676 677
688 1 676 678
689 1 328 329
690 1 328 330
691 1 1411 1412
692 1 1411 1413
693 1 1174 1175
694 1 1174 1176
695 1 682 683
696 1 682 684
697 1 1639 1640
698 1 1639 1641
699 1 1660 1661
700 1 1660 1662
701 1 754 755
702 1 754 756
703 1 406 407
704 1 406 408
705 1 1765 1766
706 1 1765 1767
707 1 685 686
708 1 685 687
709 1 124 125
710 1 124 126
711 1 319 320
712 1 319 321
713 1 463 464
714 1 463 465
715 1 178 179
716 1 178 180
717 1 1726 1727
718 1 1726 1728
719 1 10 11
720 1 10 12
721 1 238 239
722 1 238 240
723 1 1 2
724 1 1 3
725 1 1678 1679
726 1 1678 1680
727 1 22 23
728 1 22 24
729 1 1525 1526
730 1 1525 1527
731 1 349 350
732 1 349 351
733 1 1447 1448
734 1 1447 1449
735 1 1183 1184
736 1 1183 1185
737 1 1417 1418
738 1 1417 1419
739 1 1696 1697
740 1 1696 1698
741 1 352 353
742 1 352 354
743 1 1282 1283
744 1 1282 1284
745 1 1300 1301
746 1 1300 1302
747 1 100 101
748 1 100 102
749 1 292 293
750 1 292 294
751 1 850 851
752 1 850 852
753 1 1084 1085
754 1 1084 1086
755 1 595 596
756 1 595 597
757 1 1756 1757
758 1 1756 1758
759 1 1645 1646
760 1 1645 1647
761 1 478 479
762 1 478 480
763 1 1534 1535
764 1 1534 1536
765 1 862 863
766 1 862 864
767 1 1495 1496
768 1 1495 1497
769 1 1606 1607
770 1 1606 1608
771 1 412 413
772 1 412 414
773 1 1294 1295
774 1 1294 1296
775 1 1420 1421
776 1 1420 1422
777 1 604 605
778 1 604 606
779 1 262 263
780 1 262 264
781 1 1405 1406
782 1 1405 1407
783 1 190 191
784 1 190 192
785 1 673 674
786 1 673 675
787 1 1738 1739
788 1 1738 1740
789 1 28 29
790 1 28 30
791 1 1003 1004
792 1 1003 1005
793 1 1015 1016
794 1 1015 1017
795 1 1717 1718
796 1 1717 1719
797 1 136 137
798 1 136 138
799 1 367 368
800 1 367 369
801 1 364 365
802 1 364 366
803 1 1336 1337
804 1 1336 1338
805 1 1279 1280
806 1 1279 1281
807 1 1732 1733
808 1 1732 1734
809 1 1024 1025
810 1 1024 1026
811 1 1690 1691
812 1 1690 1692
813 1 1000 1001
814 1 1000 1002
815 1 1108 1109
816 1 1108 1110
817 1 1234 1235
818 1 1234 1236
819 1 250 251
820 1 250 252
821 1 538 539
822 1 538 540
823 1 1078 1079
824 1 1078 1080
825 1 916 917
826 1 916 918
827 1 157 158
828 1 157 159
829 1 1429 1430
830 1 1429 1431
831 1 1519 1520
832 1 1519 1521
833 1 316 317
834 1 316 318
835 1 424 425
836 1 424 426
837 1 583 584
838 1 583 585
839 1 1537 1538
840 1 1537 1539
841 1 1792 1793
842 1 1792 1794
843 1 25 26
844 1 25 27
845 1 1309 1310
846 1 1309 1311
847 1 1735 1736
848 1 1735 1737
849 1 340 341
850 1 340 342
851 1 142 143
852 1 142 144
853 1 1702 1703
854 1 1702 1704
855 1 169 170
856 1 169 171
857 1 1210 1211
858 1 1210 1212
859 1 1612 1613
860 1 1612 1614
861 1 301 302
862 1 301 303
863 1 133 134
864 1 133 135
865 1 1342 1343
866 1 1342 1344
867 1 1666 1667
868 1 1666 1668
869 1 1087 1088
870 1 1087 1089
871 1 1231 1232
872 1 1231 1233
873 1 757 758
874 1 757 759
875 1 1471 1472
876 1 1471 1473
877 1 391 392
878 1 391 393
879 1 1291 1292
880 1 1291 1293
881 1 514 515
882 1 514 516
883 1 1672 1673
884 1 1672 1674
885 1 370 371
886 1 370 372
887 1 847 848
888 1 847 849
889 1 523 524
890 1 523 525
891 1 961 962
892 1 961 963
893 1 1123 1124
894 1 1123 1125
895 1 1459 1460
896 1 1459 1461
897 1 1708 1709
898 1 1708 1710
899 1 661 662
900 1 661 663
901 1 904 905
902 1 904 906
903 1 355 356
904 1 355 357
905 1 502 503
906 1 502 504
907 1 526 527
908 1 526 528
909 1 1720 1721
910 1 1720 1722
911 1 43 44
912 1 43 45
913 1 853 854
914 1 853 855
915 1 1111 1112
916 1 1111 1113
917 1 1609 1610
918 1 1609 1611
919 1 1468 1469
920 1 1468 1470
921 1 1372 1373
922 1 1372 1374
923 1 667 668
924 1 667 669
925 1 1393 1394
926 1 1393 1395
927 1 1774 1775
928 1 1774 1776
929 1 1243 1244
930 1 1243 1245
931 1 1522 1523
932 1 1522 1524
933 1 1723 1724
934 1 1723 1725
935 1 1741 1742
936 1 1741 1743
937 1 1258 1259
938 1 1258 1260
939 1 1675 1676
940 1 1675 1677
941 1 1216 1217
942 1 1216 1218
943 1 556 557
944 1 556 558
945 1 1288 1289
946 1 1288 1290
947 1 1783 1784
948 1 1783 1785
949 1 808 809
950 1 808 810
951 1 1330 1331
952 1 1330 1332
953 1 589 590
954 1 589 591
955 1 1156 1157
956 1 1156 1158
957 1 13 14
958 1 13 15
959 1 1654 1655
960 1 1654 1656
961 1 631 632
962 1 631 633
963 1 1273 1274
964 1 1273 1275
965 1 79 80
966 1 79 81
967 1 865 866
968 1 865 867
969 1 544 545
970 1 544 546
971 1 91 92
972 1 91 93
973 1 31 32
974 1 31 33
975 1 1144 1145
976 1 1144 1146
977 1 841 842
978 1 841 843
979 1 1348 1349
980 1 1348 1350
981 1 466 467
982 1 466 468
983 1 223 224
984 1 223 225
985 1 394 395
986 1 394 396
987 1 700 701
988 1 700 702
989 1 1381 1382
990 1 1381 1383
991 1 445 446
992 1 445 447
993 1 1099 1100
994 1 1099 1101
995 1 1312 1313
996 1 1312 1314
997 1 46 47
998 1 46 48
999 1 919 920
1000 1 919 921
1001 1 475 476
1002 1 475 477
1003 1 451 452
1004 1 451 453
1005 1 166 167
1006 1 166 168
1007 1 187 188
1008 1 187 189
1009 1 400 401
1010 1 400 402
1011 1 148 149
1012 1 148 150
1013 1 1630 1631
1014 1 1630 1632
1015 1 535 536
1016 1 535 537
1017 1 1597 1598
1018 1 1597 1599
1019 1 880 881
1020 1 880 882
1021 1 949 950
1022 1 949 951
1023 1 1165 1166
1024 1 1165 1167
1025 1 778 779
1026 1 778 780
1027 1 1096 1097
1028 1 1096 1098
1029 1 598 599
1030 1 598 600
1031 1 1777 1778
1032 1 1777 1779
1033 1 283 284
1034 1 283 285
1035 1 571 572
1036 1 571 573
1037 1 1180 1181
1038 1 1180 1182
1039 1 439 440
1040 1 439 441
1041 1 88 89
1042 1 88 90
1043 1 1444 1445
1044 1 1444 1446
1045 1 154 155
1046 1 154 156
1047 1 844 845
1048 1 844 846
1049 1 358 359
1050 1 358 360
1051 1 19 20
1052 1 19 21
1053 1 547 548
1054 1 547 549
1055 1 964 965
1056 1 964 966
1057 1 817 818
1058 1 817 819
1059 1 121 122
1060 1 121 123
1061 1 1480 1481
1062 1 1480 1482
1063 1 733 734
1064 1 733 735
1065 1 1681 1682
1066 1 1681 1683
1067 1 562 563
1068 1 562 564
1069 1 739 740
1070 1 739 741
1071 1 775 776
1072 1 775 777
1073 1 1054 1055
1074 1 1054 1056
1075 1 202 203
1076 1 202 204
1077 1 1285 1286
1078 1 1285 1287
1079 1 1189 1190
1080 1 1189 1191
1081 1 1162 1163
1082 1 1162 1164
1083 1 1366 1367
1084 1 1366 1368
1085 1 640 641
1086 1 640 642
1087 1 265 266
1088 1 265 267
1089 1 1345 1346
1090 1 1345 1347
1091 1 1240 1241
1092 1 1240 1242
1093 1 1588 1589
1094 1 1588 1590
1095 1 1303 1304
1096 1 1303 1305
1097 1 421 422
1098 1 421 423
1099 1 805 806
1100 1 805 807
1101 1 1492 1493
1102 1 1492 1494
1103 1 1105 1106
1104 1 1105 1107
1105 1 220 221
1106 1 220 222
1107 1 1141 1142
1108 1 1141 1143
1109 1 1540 1541
1110 1 1540 1542
1111 1 1615 1616
1112 1 1615 1617
1113 1 1066 1067
1114 1 1066 1068
1115 1 697 698
1116 1 697 699
1117 1 1798 1799
1118 1 1798 1800
1119 1 229 230
1120 1 229 231
1121 1 40 41
1122 1 40 42
1123 1 1021 1022
1124 1 1021 1023
1125 1 871 872
1126 1 871 873
1127 1 1246 1247
1128 1 1246 1248
1129 1 310 311
1130 1 310 312
1131 1 565 566
1132 1 565 567
1133 1 907 908
1134 1 907 909
1135 1 1753 1754
1136 1 1753 1755
1137 1 613 614
1138 1 613 615
1139 1 73 74
1140 1 73 75
1141 1 970 971
1142 1 970 972
1143 1 1177 1178
1144 1 1177 1179
1145 1 928 929
1146 1 928 930
1147 1 388 389
1148 1 388 390
1149 1 1489 1490
1150 1 1489 1491
1151 1 127 128
1152 1 127 129
1153 1 241 242
1154 1 241 243
1155 1 1147 1148
1156 1 1147 1149
1157 1 430 431
1158 1 430 432
1159 1 1705 1706
1160 1 1705 1707
1161 1 1237 1238
1162 1 1237 1239
1163 1 946 947
1164 1 946 948
1165 1 1399 1400
1166 1 1399 1401
1167 1 259 260
1168 1 259 261
1169 1 508 509
1170 1 508 510
1171 1 382 383
1172 1 382 384
1173 1 943 944
1174 1 943 945
1175 1 913 914
1176 1 913 915
1177 1 49 50
1178 1 49 51
1179 1 505 506
1180 1 505 507
1181 1 709 710
1182 1 709 711
1183 1 1711 1712
1184 1 1711 1713
1185 1 1528 1529
1186 1 1528 1530
1187 1 442 443
1188 1 442 444
1189 1 1225 1226
1190 1 1225 1227
1191 1 1192 1193
1192 1 1192 1194
1193 1 721 722
1194 1 721 723
1195 1 991 992
1196 1 991 993
1197 1 1600 1601
1198 1 1600 1602
1199 1 814 815
1200 1 814 816

Angles

1 1 941 940 942
2 1 839 838 840
3 1 344 343 345
4 1 791 790 792
5 1 434 433 435
6 1 1625 1624 1626
7 1 1334 1333 1335
8 1 995 994 996
9 1 512 511 513
10 1 1196 1195 1197
11 1 644 643 645
12 1 1370 1369 1371
13 1 887 886 888
14 1 1061 1060 1062
15 1 1715 1714 1716
16 1 767 766 768
17 1 1307 1306 1308
18 1 500 499 501
19 1 1364 1363 1365
20 1 1010 1009 1011
21 1 884 883 885
22 1 1781 1780 1782
23 1 1463 1462 1464
24 1 53 52 54
25 1 665 664 666
26 1 1046 1045 1047
27 1 1499 1498 1500
28 1 1028 1027 1029
29 1 1223 1222 1224
30 1 95 94 96
31 1 1502 1501 1503
32 1 335 334 336
33 1 269 268 270
34 1 899 898 900
35 1 1151 1150 1152
36 1 731 730 732
37 1 689 688 690
38 1 215 214 216
39 1 569 568 570
40 1 875 874 876
41 1 893 892 894
42 1 1388 1387 1389
43 1 488 487 489
44 1 761 760 762
45 1 1586 1585 1587
46 1 1007 1006 1008
47 1 998 997 999
48 1 551 550 552
49 1 161 160 162
50 1 1637 1636 1638
51 1 617 616 618
52 1 206 205 207
53 1 1796 1795 1797
54 1 878 877 879
55 1 620 619 621
56 1 794 793 795
57 1 1787 1786 1788
58 1 131 130 132
59 1 1487 1486 1488
60 1 1298 1297 1299
61 1 1436 1435 1437
62 1 1451 1450 1452
63 1 1571 1570 1572
64 1 650 649 651
65 1 1136 1135 1137
66 1 1559 1558 1560
67 1 119 118 120
68 1 695 694 696
69 1 716 715 717
70 1 1508 1507 1509
71 1 911 910 912
72 1 956 955 957
73 1 1361 1360 1362
74 1 1574 1573 1575
75 1 1355 1354 1356
76 1 461 460 462
77 1 902 901 903
78 1 68 67 69
79 1 98 97 99
80 1 1262 1261 1263
81 1 1214 1213 1215
82 1 725 724 726
83 1 236 235 237
84 1 1427 1426 1428
85 1 575 574 576
86 1 182 181 183
87 1 455 454 456
88 1 146 145 147
89 1 653 652 654
90 1 671 670 672
91 1 1397 1396 1398
92 1 533 532 534
93 1 1592 1591 1593
94 1 323 322 324
95 1 164 163 165
96 1 152 151 153
97 1 1568 1567 1569
98 1 1694 1693 1695
99 1 185 184 186
100 1 704 703 705
101 1 326 325 327
102 1 1205 1204 1206
103 1 659 658 660
104 1 272 271 273
105 1 983 982 984
106 1 1484 1483 1485
107 1 200 199 201
108 1 1553 1552 1554
109 1 227 226 228
110 1 626 625 627
111 1 296 295 297
112 1 380 379 381
113 1 1562 1561 1563
114 1 77 76 78
115 1 1583 1582 1584
116 1 1403 1402 1404
117 1 1478 1477 1479
118 1 1439 1438 1440
119 1 1772 1771 1773
120 1 233 232 234
121 1 491 490 492
122 1 287 286 288
123 1 932 931 933
124 1 1565 1564 1566
125 1 1127 1126 1128
126 1 299 298 300
127 1 1091 1090 1092
128 1 803 802 804
129 1 1037 1036 1038
130 1 860 859 861
131 1 1748 1747 1749
132 1 830 829 831
133 1 1154 1153 1155
134 1 896 895 897
135 1 1073 1072 1074
136 1 1409 1408 1410
137 1 140 139 141
138 1 959 958 960
139 1 1415 1414 1416
140 1 800 799 801
141 1 1454 1453 1455
142 1 518 517 519
143 1 530 529 531
144 1 1256 1255 1257
145 1 1070 1069 1071
146 1 1160 1159 1161
147 1 1250 1249 1251
148 1 332 331 333
149 1 692 691 693
150 1 629 628 630
151 1 290 289 291
152 1 1049 1048 1050
153 1 35 34 36
154 1 437 436 438
155 1 1265 1264 1266
156 1 362 361 363
157 1 449 448 450
158 1 1328 1327 1329
159 1 1622 1621 1623
160 1 788 787 789
161 1 83 82 84
162 1 398 397 399
163 1 1670 1669 1671
164 1 521 520 522
165 1 1208 1207 1209
166 1 782 781 783
167 1 494 493 495
168 1 254 253 255
169 1 647 646 648
170 1 212 211 213
171 1 1319 1318 1320
172 1 1505 1504 1506
173 1 218 217 219
174 1 1577 1576 1578
175 1 1514 1513 1515
176 1 953 952 954
177 1 65 64 66
178 1 104 103 105
179 1 611 610 612
180 1 1139 1138 1140
181 1 752 751 753
182 1 581 580 582
183 1 497 496 498
184 1 593 592 594
185 1 728 727 729
186 1 197 196 198
187 1 1358 1357 1359
188 1 635 634 636
189 1 1556 1555 1557
190 1 1031 1030 1032
191 1 938 937 939
192 1 602 601 603
193 1 1664 1663 1665
194 1 980 979 981
195 1 824 823 825
196 1 773 772 774
197 1 1685 1684 1686
198 1 608 607 609
199 1 1130 1129 1131
200 1 1604 1603 1605
201 1 587 586 588
202 1 257 256 258
203 1 1376 1375 1377
204 1 1187 1186 1188
205 1 1634 1633 1635
206 1 1229 1228 1230
207 1 1619 1618 1620
208 1 719 718 720
209 1 1649 1648 1650
210 1 59 58 60
211 1 1580 1579 1581
212 1 623 622 624
213 1 404 403 405
214 1 245 244 246
215 1 1466 1465 1467
216 1 1352 1351 1353
217 1 1043 1042 1044
218 1 473 472 474
219 1 338 337 339
220 1 470 469 471
221 1 71 70 72
222 1 1628 1627 1629
223 1 1730 1729 1731
224 1 107 106 108
225 1 173 172 174
226 1 746 745 747
227 1 281 280 282
228 1 707 706 708
229 1 1202 1201 1203
230 1 764 763 765
231 1 308 307 309
232 1 857 856 858
233 1 1760 1759 1761
234 1 785 784 786
235 1 749 748 750
236 1 56 55 57
237 1 1133 1132 1134
238 1 1751 1750 1752
239 1 1790 1789 1791
240 1 458 457 459
241 1 1769 1768 1770
242 1 1391 1390 1392
243 1 1103 1102 1104
244 1 1442 1441 1443
245 1 209 208 210
246 1 833 832 834
247 1 1034 1033 1035
248 1 1700 1699 1701
249 1 8 7 9
250 1 1325 1324 1326
251 1 827 826 828
252 1 1550 1549 1551
253 1 347 346 348
254 1 977 976 978
255 1 1688 1687 1689
256 1 1094 1093 1095
257 1 1544 1543 1545
258 1 974 973 975
259 1 542 541 543
260 1 1019 1018 1020
261 1 869 868 870
262 1 386 385 387
263 1 1424 1423 1425
264 1 278 277 279
265 1 1457 1456 1458
266 1 737 736 738
267 1 314 313 315
268 1 1118 1117 1119
269 1 482 481 483
270 1 935 934 936
271 1 638 637 639
272 1 38 37 39
273 1 1379 1378 1380
274 1 17 16 18
275 1 812 811 813
276 1 713 712 714
277 1 890 889 891
278 1 428 427 429
279 1 62 61 63
280 1 116 115 117
281 1 176 175 177
282 1 554 553 555
283 1 1082 1081 1083
284 1 1277 1276 1278
285 1 923 922 924
286 1 1532 1531 1533
287 1 1199 1198 1200
288 1 1271 1270 1272
289 1 1511 1510 1512
290 1 989 988 990
291 1 5 4 6
292 1 1475 1474 1476
293 1 1172 1171 1173
294 1 1253 1252 1254
295 1 1220 1219 1221
296 1 680 679 681
297 1 1745 1744 1746
298 1 743 742 744
299 1 305 304 306
300 1 1013 1012 1014
301 1 797 796 798
302 1 410 409 411
303 1 248 247 249
304 1 1058 1057 1059
305 1 560 559 561
306 1 416 415 417
307 1 1268 1267 1269
308 1 377 376 378
309 1 1169 1168 1170
310 1 1763 1762 1764
311 1 1385 1384 1386
312 1 1322 1321 1323
313 1 1115 1114 1116
314 1 1064 1063 1065
315 1 1340 1339 1341
316 1 194 193 195
317 1 821 820 822
318 1 1316 1315 1317
319 1 968 967 969
320 1 275 274 276
321 1 1595 1594 1596
322 1 1517 1516 1518
323 1 1052 1051 1053
324 1 656 655 657
325 1 926 925 927
326 1 86 85 87
327 1 419 418 420
328 1 1547 1546 1548
329 1 836 835 837
330 1 1121 1120 1122
331 1 1658 1657 1659
332 1 113 112 114
333 1 374 373 375
334 1 1643 1642 1644
335 1 1076 1075 1077
336 1 578 577 579
337 1 986 985 987
338 1 110 109 111
339 1 1040 1039 1041
340 1 770 769 771
341 1 1433 1432 1434
342 1 485 484 486
343 1 1652 1651 1653
344 1 677 676 678
345 1 329 328 330
346 1 1412 1411 1413
347 1 1175 1174 1176
348 1 683 682 684
349 1 1640 1639 1641
350 1 1661 1660 1662
351 1 755 754 756
352 1 407 406 408
353 1 1766 1765 1767
354 1 686 685 687
355 1 125 124 126
356 1 320 319 321
357 1 464 463 465
358 1 179 178 180
359 1 1727 1726 1728
360 1 11 10 12
361 1 239 238 240
362 1 2 1 3
363 1 1679 1678 1680
364 1 23 22 24
365 1 1526 1525 1527
366 1 350 349 351
367 1 1448 1447 1449
368 1 1184 1183 1185
369 1 1418 1417 1419
370 1 1697 1696 1698
371 1 353 352 354
372 1 1283 1282 1284
373 1 1301 1300 1302
374 1 101 100 102
375 1 293 292 294
376 1 851 850 852
377 1 1085 1084 1086
378 1 596 595 597
379 1 1757 1756 1758
380 1 1646 1645 1647
381 1 479 478 480
382 1 1535 1534 1536
383 1 863 862 864
384 1 1496 1495 1497
385 1 1607 1606 1608
386 1 413 412 414
387 1 1295 1294 1296
388 1 1421 1420 1422
389 1 605 604 606
390 1 263 262 264
391 1 1406 1405 1407
392 1 191 190 192
393 1 674 673 675
394 1 1739 1738 1740
395 1 29 28 30
396 1 1004 1003 1005
397 1 1016 1015 1017
398 1 1718 1717 1719
399 1 137 136 138
400 1 368 367 369
401 1 365 364 366
402 1 1337 1336 1338
403 1 1280 1279 1281
404 1 1733 1732 1734
405 1 1025 1024 1026
406 1 1691 1690 1692
407 1 1001 1000 1002
408 1 1109 1108 1110
409 1 1235 1234 1236
410 1 251 250 252
411 1 539 538 540
412 1 1079 1078 1080
413 1 917 916 918
414 1 158 157 159
415 1 1430 1429 1431
416 1 1520 1519 1521
417 1 317 316 318
418 1 425 424 426
419 1 584 583 585
420 1 1538 1537 1539
421 1 1793 1792 1794
422 1 26 25 27
423 1 1310 1309 1311
424 1 1736 1735 1737
425 1 341 340 342
426 1 143 142 144
427 1 1703 1702 1704
428 1 170 169 171
429 1 1211 1210 1212
430 1 1613 1612 1614
431 1 302 301 303
432 1 134 133 135
433 1 1343 1342 1344
434 1 1667 1666 1668
435 1 1088 1087 1089
436 1 1232 1231 1233
437 1 758 757 759
438 1 1472 1471 1473
439 1 392 391 393
440 1 1292 1291 1293
441 1 515 514 516
442 1 1673 1672 1674
443 1 371 370 372
444 1 848 847 849
445 1 524 523 525
446 1 962 961 963
447 1 1124 1123 1125
448 1 1460 1459 1461
449 1 1709 1708 1710
450 1 662 661 663
451 1 905 904 906
452 1 356 355 357
453 1 503 502 504
454 1 527 526 528
455 1 1721 1720 1722
456 1 44 43 45
457 1 854 853 855
458 1 1112 1111 1113
459 1 1610 1609 1611
460 1 1469 1468 1470
461 1 1373 1372 1374
462 1 668 667 669
463 1 1394 1393 1395
464 1 1775 1774 1776
465 1 1244 1243 1245
466 1 1523 1522 1524
467 1 1724 1723 1725
468 1 1742 1741 1743
469 1 1259 1258 1260
470 1 1676 1675 1677
471 1 1217 1216 1218
472 1 557 556 558
473 1 1289 1288 1290
474 1 1784 1783 1785
475 1 809 808 810
476 1 1331 1330 1332
477 1 590 589 591
478 1 1157 1156 1158
479 1 14 13 15
480 1 1655 1654 1656
481 1 632 631 633
482 1 1274 1273 1275
483 1 80 79 81
484 1 866 865 867
485 1 545 544 546
486 1 92 91 93
487 1 32 31 33
488 1 1145 1144 1146
489 1 842 841 843
490 1 1349 1348 1350
491 1 467 466 468
492 1 224 223 225
493 1 395 394 396
494 1 701 700 702
495 1 1382 1381 1383
496 1 446 445 447
497 1 1100 1099 1101
498 1 1313 1312 1314
499 1 47 46 48
500 1 920 919 921
501 1 476 475 477
502 1 452 451 453
503 1 167 166 168
504 1 188 187 189
505 1 401 400 402
506 1 149 148 150
507 1 1631 1630 1632
508 1 536 535 537
509 1 1598 1597 1599
510 1 881 880 882
511 1 950 949 951
512 1 1166 1165 1167
513 1 779 778 780
514 1 1097 1096 1098
515 1 599 598 600
516 1 1778 1777 1779
517 1 284 283 285
518 1 572 571 573
519 1 1181 1180 1182
520 1 440 439 441
521 1 89 88 90
522 1 1445 1444 1446
523 1 155 154 156
524 1 845 844 846
525 1 359 358 360
526 1 20 19 21
527 1 548 547 549
528 1 965 964 966
529 1 818 817 819
530 1 122 121 123
531 1 1481 1480 1482
532 1 734 733 735
533 1 1682 1681 1683
534 1 563 562 564
535 1 740 739 741
536 1 776 775 777
537 1 1055 1054 1056
538 1 203 202 204
539 1 1286 1285 1287
540 1 1190 1189 1191
541 1 1163 1162 1164
542 1 1367 1366 1368
543 1 641 640 642
544 1 266 265 267
545 1 1346 1345 1347
546 1 1241 1240 1242
547 1 1589 1588 1590
548 1 1304 1303 1305
549 1 422 421 423
550 1 806 805 807
551 1 1493 1492 1494
552 1 1106 1105 1107
553 1 221 220 222
554 1 1142 1141 1143
555 1 1541 1540 1542
556 1 1616 1615 1617
557 1 1067 1066 1068
558 1 698 697 699
559 1 1799 1798 1800
560 1 230 229 231
561 1 41 40 42
562 1 1022 1021 1023
563 1 872 871 873
564 1 1247 1246 1248
565 1 311 310 312
566 1 566 565 567
567 1 908 907 909
568 1 1754 1753 1755
569 1 614 613 615
570 1 74 73 75
571 1 971 970 972
572 1 1178 1177 1179
573 1 929 928 930
574 1 389 388 390
575 1 1490 1489 1491
576 1 128 127 129
577 1 242 241 243
578 1 1148 1147 1149
579 1 431 430 432
580 1 1706 1705 1707
581 1 1238 1237 1239
582 1 947 946 948
583 1 1400 1399 1401
584 1 260 259 261
585 1 509 508 510
586 1 383 382 384
587 1 944 943 945
588 1 914 913 915
589 1 50 49 51
590 1 506 505 507
591 1 710 709 711
592 1 1712 1711 1713
593 1 1529 1528 1530
594 1 443 442 444
595 1 1226 1225 1227
596 1 1193 1192 1194
597 1 722 721 723
598 1 992 991 993
599 1 1601 1600 1602
600 1 815 814 816
