LAMMPS data file via write_data, version 7 Feb 2024, timestep = 10000, units = real

1800 atoms
2 atom types
1200 bonds
1 bond types
600 angles
1 angle types

1.8290950971691782 28.17090490283111 xlo xhi
1.8290950971691782 28.17090490283111 ylo yhi
1.8290950971691782 28.17090490283111 zlo zhi

Masses

1 15.9994
2 1.008

Pair Coeffs # lj/cut/coul/long

1 0.1553 3.166
2 0 0

Bond Coeffs # harmonic

1 600 1

Angle Coeffs # harmonic

1 75 109.47

Atoms # full

940 314 1 -0.8476 3.435527517506121 5.8524717712625955 7.165698806119309 0 0 0
941 314 2 0.4238 3.762883288434022 5.101047561687635 6.592817683033561 0 0 0
942 314 2 0.4238 4.07379467804878 6.619931539575253 7.105585592512031 0 0 0
838 280 1 -0.8476 5.9348375445379205 7.274164308107935 7.110232453607623 0 0 0
1335 445 2 0.4238 3.975308426544279 6.192237179174111 2.4875720026106998 0 0 0
343 115 1 -0.8476 3.6346434076760223 3.488219967902978 5.2176744827535995 0 0 1
792 264 2 0.4238 6.995864576162295 4.052147028779581 6.218169438011295 0 0 0
790 264 1 -0.8476 6.914389583787334 4.89910611637029 5.692798925869173 0 0 0
791 264 2 0.4238 6.369003256711278 5.559977830440554 6.208351415236792 0 0 0
996 332 2 0.4238 7.357710372933454 5.74090248919839 4.149622188374616 0 0 0
1334 445 2 0.4238 4.447256734502572 7.680549971346652 2.9658980541800974 0 0 0
433 145 1 -0.8476 2.7087076764923355 5.0077631214704414 2.8225916918963847 0 0 0
1626 542 2 0.4238 6.696158184121649 2.3272811919510588 8.19340051938621 0 0 0
1624 542 1 -0.8476 6.258233952839094 2.620400347656981 7.3435206755222415 0 0 0
434 145 2 0.4238 2.95747337103065 4.7912542509599945 3.7666423249812198 0 0 0
1333 445 1 -0.8476 4.689412930808389 6.887597115354031 2.406810439757426 0 0 0
995 332 2 0.4238 6.650192164015111 6.220657324092091 2.7582706796236955 0 0 0
994 332 1 -0.8476 7.489278119209268 5.8599694473408075 3.165495088663948 0 0 0
344 115 2 0.4238 4.603746699904116 3.2958546783150466 5.063316272467683 0 0 1
902 301 2 0.4238 3.0448458554221465 4.400387514213722 8.797733863539936 0 0 0
513 171 2 0.4238 6.578765957281697 3.451721296447385 4.495691732039642 0 0 1
269 90 2 0.4238 26.248165526304312 6.1063778413347265 7.342263100640104 0 0 0
840 280 2 0.4238 5.857029760885419 8.257013021874933 6.943060662334154 0 0 0
1673 558 2 0.4238 24.30593151079733 2.4713452736339336 14.300775152216545 0 1 0
839 280 2 0.4238 6.389950907102601 7.120238711079737 7.987256290176357 0 0 0
903 301 2 0.4238 4.224243021044062 3.623530379262881 7.977904242475528 0 0 0
517 173 1 -0.8476 25.344098011848452 14.745920340544835 13.197916327446515 -1 0 0
690 230 2 0.4238 2.4543801483307544 7.231319317608426 7.777884995606226 1 0 0
345 115 2 0.4238 3.1922946844750193 2.6801966898310194 5.606799180030897 0 0 1
511 171 1 -0.8476 6.000955846949137 2.715895144296476 4.14258001550279 0 0 1
1008 336 2 0.4238 8.153683574286276 8.026991356571427 2.741333537473567 0 0 0
200 67 2 0.4238 21.519310764083677 3.328450475768169 14.122313088036023 0 0 0
725 242 2 0.4238 2.8186689244952094 8.177463910530964 14.74159485441755 0 0 0
1195 399 1 -0.8476 13.396196165484756 2.5000898557388798 2.835463346241193 0 1 1
500 167 2 0.4238 14.614887450454301 2.065637720784501 7.824889416825833 0 1 0
644 215 2 0.4238 8.9262237594706 4.193337296042443 6.092465127430679 0 1 1
645 215 2 0.4238 10.22236609765885 3.2029085268602464 6.017157989079645 0 1 1
643 215 1 -0.8476 9.223655269791221 3.2443358108486873 5.987951647735278 0 1 1
183 61 2 0.4238 12.048448828366983 7.425683493639076 8.264230314347591 0 0 0
1369 457 1 -0.8476 11.950224281069458 4.192881375551247 6.79750673724593 0 1 0
492 164 2 0.4238 27.47406869377953 9.783202013926289 14.704620692590865 0 0 0
886 296 1 -0.8476 10.360456820775646 2.3652064920544387 2.8539428476157536 0 1 1
1371 457 2 0.4238 11.956231463738561 4.991137708381652 7.399788065897571 0 1 0
1062 354 2 0.4238 11.74262899337315 5.130279757429351 5.440742372122862 0 0 0
1060 354 1 -0.8476 11.595413772317396 5.666344626887378 4.609505835184596 0 0 0
899 300 2 0.4238 22.888575070625023 2.2312229638647283 6.623603754900333 0 0 0
1197 399 2 0.4238 13.614815431756034 3.3981437029708577 3.2171679603730374 0 1 1
1746 582 2 0.4238 24.824639677255114 8.424146725271445 2.2300621847855426 0 0 0
1571 524 2 0.4238 16.06467091372674 9.37668615676328 2.0829164194539307 0 0 1
768 256 2 0.4238 9.666677287319304 8.196628814397666 4.086522349014402 0 0 0
1006 336 1 -0.8476 8.957273173696645 8.616668460555063 2.6606053028051515 0 0 0
181 61 1 -0.8476 12.103456811812839 6.462588888140959 8.527697971667138 0 0 0
1307 436 2 0.4238 13.2219236816527 4.965088395544081 4.406973198610588 0 0 0
1714 572 1 -0.8476 12.430073494428964 7.301390545089136 2.385278961069095 0 0 1
997 333 1 -0.8476 11.637731545399536 14.941097483385997 7.782987410658598 0 0 0
118 40 1 -0.8476 23.478506678570533 13.635203227351106 1.8969878291178721 0 0 1
1061 354 2 0.4238 11.040775685303988 6.47002958128288 4.825049617795715 0 0 0
766 256 1 -0.8476 10.237085877801997 8.116618482022076 4.90397230929254 0 0 0
1133 378 2 0.4238 8.70002057790344 4.980295324615588 2.3802546774252207 0 0 1
1071 357 2 0.4238 21.947396135596442 8.910768848692863 12.560045826693132 0 0 0
116 39 2 0.4238 13.907111654730668 8.31746361601456 1.869297397967399 0 0 1
1498 500 1 -0.8476 23.758549614011805 2.2638480493909077 2.5843832549992656 0 1 1
665 222 2 0.4238 19.16332077979237 7.713109223786908 3.4753155919256313 0 0 1
1306 436 1 -0.8476 14.132849090984983 4.717761669973271 4.076765276343845 0 0 0
1308 436 2 0.4238 14.645781708283646 4.27633558835727 4.812995962172772 0 0 0
1364 455 2 0.4238 19.012313596749856 6.69593001662971 5.909983304645829 0 0 0
884 295 2 0.4238 15.339212736387909 3.3206827828016117 6.407642332547527 0 0 0
1363 455 1 -0.8476 18.855545809061546 7.134452378122363 5.025045989149647 0 0 0
1009 337 1 -0.8476 18.117716525905806 3.8625099401426204 3.7481104239727663 0 0 0
885 295 2 0.4238 16.223622270964157 4.444607646192013 7.195816108163416 0 0 0
1781 594 2 0.4238 16.479755346363568 6.992183039832825 2.940079838479365 0 1 0
1782 594 2 0.4238 15.491193132373706 6.159374566210796 3.937967726796864 0 1 0
883 295 1 -0.8476 15.968397499611221 4.089923376928199 6.2963432510245285 0 0 0
1365 455 2 0.4238 17.948921315031306 6.884481554492786 4.6851362125384455 0 0 0
1780 594 1 -0.8476 16.20919666594716 6.853941817915779 3.8928022665991104 0 1 0
1011 337 2 0.4238 18.016019196808983 4.420491609310483 4.571703855648208 0 0 0
1463 488 2 0.4238 18.70200249919761 5.2641879446238775 7.657801859839395 0 0 0
1464 488 2 0.4238 18.32196695428211 6.8345349618230165 7.8948430221538155 0 0 0
1462 488 1 -0.8476 18.95316824188076 6.207058944155565 7.438936337608277 0 0 0
695 232 2 0.4238 22.792231162702528 9.077581531845286 3.2691740188369005 0 0 0
54 18 2 0.4238 19.292564990913462 2.7819977785684102 8.403026367228437 0 1 0
52 18 1 -0.8476 19.608774874991816 3.345108189345188 7.639540731890557 0 1 0
693 231 2 0.4238 25.410172020306078 10.012483515118143 13.952021533215618 0 0 0
407 136 2 0.4238 19.73938212967741 2.1731940441880653 6.370274017342635 0 1 0
664 222 1 -0.8476 19.258807705661994 8.359197122862533 2.7180542669466363 0 0 1
1046 349 2 0.4238 19.357969804348734 4.550172978637996 2.555334517570891 0 0 0
1568 523 2 0.4238 17.40780586349218 8.666692456870518 8.163343576865886 0 0 0
1010 337 2 0.4238 17.713704370678137 2.9611717568840223 3.9041736526975006 0 0 0
1567 523 1 -0.8476 17.80717015838181 8.059683737851842 8.850396789619019 0 0 0
53 18 2 0.4238 20.607039300150113 3.311235654775836 7.591441472876048 0 1 0
1559 520 2 0.4238 21.38977820265339 14.201611035024865 5.866051264447577 0 0 1
689 230 2 0.4238 28.125022904081916 8.337318764833784 6.781438501877556 0 0 0
95 32 2 0.4238 20.68040273322118 5.644331651326725 6.7697890250898105 0 0 0
1027 343 1 -0.8476 24.7707594857906 4.801825352369458 4.241981101891401 0 0 0
1222 408 1 -0.8476 26.51551106545338 5.764910506141292 2.4469824276800187 -1 0 0
94 32 1 -0.8476 21.639905609230723 5.5019939580997494 6.526711694905691 0 0 0
1501 501 1 -0.8476 25.53852107832862 8.409005142716637 4.722342991581362 0 0 0
1502 501 2 0.4238 25.261219675004618 7.714813141880226 5.38656721920186 0 0 0
1503 501 2 0.4238 24.75093147920756 8.97842217889766 4.486842974290067 0 0 0
96 32 2 0.4238 21.778677982863037 4.547681720355499 6.262091298300189 0 0 0
336 112 2 0.4238 21.927018146202833 5.757274187084516 4.812488685426836 0 0 0
334 112 1 -0.8476 22.193413486264596 5.615788791582924 3.8590698639159435 0 0 0
335 112 2 0.4238 23.12446107846435 5.252638781596126 3.823510044630818 0 0 0
1029 343 2 0.4238 25.251647273054367 5.386432520341863 3.588548960031309 0 0 0
268 90 1 -0.8476 26.06914485880953 5.370565712824678 7.99535146101858 0 0 0
1028 343 2 0.4238 25.43264649044073 4.23334930796934 4.73058383951511 0 0 0
898 300 1 -0.8476 22.144515929938798 2.794838224063758 6.2648476719897594 0 0 0
1150 384 1 -0.8476 22.942334404173778 7.8258570676978225 6.417021459733149 0 0 0
1151 384 2 0.4238 22.279861909336923 7.0896107850270225 6.555097031728769 0 0 0
1152 384 2 0.4238 22.874056125561992 8.163981039252697 5.4784040940700365 0 0 0
732 244 2 0.4238 25.773489556022263 3.929696339879254 6.83963417261963 0 1 0
1223 408 2 0.4238 27.468683576512156 5.648091296251657 2.725922381170986 -1 0 0
1007 336 2 0.4238 9.690484280566878 8.119244679782465 2.1969639778337156 0 0 0
730 244 1 -0.8476 26.160983799521944 3.1575952261010167 6.335947639907136 0 1 0
270 90 2 0.4238 26.767096825714688 5.3833005604317385 8.711377739610093 0 0 0
694 232 1 -0.8476 23.212678975989405 9.6439487473257 3.9780067799187706 0 0 0
529 177 1 -0.8476 21.626528697525934 12.753509362359072 12.117411806327311 0 0 0
731 244 2 0.4238 25.585376532570187 2.3506609495124287 6.4683311361792875 0 1 0
1484 495 2 0.4238 21.109134253302635 7.53585789553923 9.402193194200935 0 0 0
1047 349 2 0.4238 20.908024452391935 5.006651783060585 2.791052384812375 0 0 0
688 230 1 -0.8476 28.097218686779733 7.942169690009921 7.699630604616718 0 0 0
666 222 2 0.4238 18.851096720862337 7.968200228564239 1.8928965781447307 0 0 1
1256 419 2 0.4238 24.87712055869818 9.62488332244261 8.486126195300116 0 0 0
216 72 2 0.4238 4.402240282936354 9.583209661871983 4.8755189411484245 1 0 0
214 72 1 -0.8476 4.102857253238874 9.172111843426013 4.014496028594447 1 0 0
215 72 2 0.4238 3.1345361133805563 8.93095382561301 4.079218941198855 1 0 0
551 184 2 0.4238 9.135062329594291 10.215870313098392 4.055225251329091 0 0 0
552 184 2 0.4238 8.49273536679295 11.552733531427995 3.3719844119014724 0 0 0
876 292 2 0.4238 7.300200662795269 11.830787563591205 5.038546008103959 0 0 0
568 190 1 -0.8476 5.2692612654282724 10.03198388892979 6.476453455297332 0 0 0
550 184 1 -0.8476 8.892401743456194 11.174067388835518 4.206772523204347 0 0 0
569 190 2 0.4238 4.7440052590419555 10.505215839745583 7.183666085197197 0 0 0
570 190 2 0.4238 5.735974547105881 10.70432633874871 5.901887177002764 0 0 0
488 163 2 0.4238 7.148564233517563 12.462981025418095 7.199850053315593 0 0 0
875 292 2 0.4238 6.086897413851325 12.876195309791195 4.7197614960803485 0 0 0
874 292 1 -0.8476 6.401899169015027 12.154273334929693 5.335874404519833 0 0 0
892 298 1 -0.8476 4.2092172466624405 13.008022747541494 2.96080580192261 0 0 1
1388 463 2 0.4238 2.5780818226679214 13.529893746763767 5.21946715309188 1 0 0
1387 463 1 -0.8476 2.5676046876310017 12.530617454746828 5.183008359533708 1 0 0
1389 463 2 0.4238 2.8364763868520315 12.161783590690217 6.072762047671203 1 0 0
893 298 2 0.4238 3.7259066637972764 12.575379471780385 3.721873230297903 0 0 1
487 163 1 -0.8476 7.8658191490499085 12.18191667067645 7.837455555227077 0 0 0
1478 493 2 0.4238 3.120835595660168 10.956560917332748 8.702385509222161 0 0 0
1477 493 1 -0.8476 4.008477862022564 11.373412552210835 8.506634167978643 0 0 0
1479 493 2 0.4238 4.562400640145126 11.38441433451262 9.339124901988502 0 0 0
887 296 2 0.4238 9.85032588228852 3.0969621397549316 2.4019559631485916 0 1 1
1058 353 2 0.4238 3.6656311717858023 14.403354570235113 2.49384603523536 0 0 0
234 78 2 0.4238 7.859299825815894 14.008439510330437 8.832445066779494 0 0 0
387 129 2 0.4238 4.509125613775954 10.150844398213524 2.6294378738844695 1 0 0
760 254 1 -0.8476 6.747835837872683 14.996412223278584 4.391184262829926 0 0 0
1070 357 2 0.4238 21.920154982724398 9.574641672939432 11.068356603779062 0 0 0
332 111 2 0.4238 22.71340611728641 8.796390453556949 9.30137274041519 0 0 0
575 192 2 0.4238 3.5932303909150267 4.133351104233707 13.304731414092508 0 0 0
160 54 1 -0.8476 9.478442795685822 14.813806957973172 4.857407846798003 0 0 0
1693 565 1 -0.8476 17.91840528819302 2.3891328057578276 10.373926353771234 0 1 0
1636 546 1 -0.8476 10.296246850908144 8.716174655480941 7.552921867327461 0 0 1
1638 546 2 0.4238 10.218578888245885 8.483088836176002 6.583575883174498 0 0 1
1355 452 2 0.4238 26.204646003692368 14.915384141024285 2.7607878128152827 0 0 0
1637 546 2 0.4238 10.919831962863702 9.49047083807437 7.660623582076914 0 0 1
767 256 2 0.4238 10.854527657503576 8.90139409261992 4.957683996312259 0 0 0
616 206 1 -0.8476 10.361473355435258 12.704199026373148 6.961058393484193 0 0 0
162 54 2 0.4238 9.718338506059997 14.206952684668995 4.0996669565916335 0 0 0
617 206 2 0.4238 10.217965959344331 13.171441735973435 6.088658295873713 0 0 0
618 206 2 0.4238 9.476942104591991 12.452685519427181 7.353916527490594 0 0 0
1797 599 2 0.4238 11.95010692621733 11.008899778605807 3.174719099767721 0 0 0
205 69 1 -0.8476 12.101898140497774 10.11170814262449 4.686600667931818 0 0 0
206 69 2 0.4238 13.048578053307743 9.790215186576393 4.707372665414626 0 0 0
207 69 2 0.4238 11.880003387730474 10.551301632217271 5.556952504954966 0 0 0
1795 599 1 -0.8476 12.130695093470276 11.78083635563573 2.565216077066122 0 0 0
1796 599 2 0.4238 12.884846908960537 12.325665801915983 2.931833016469062 0 0 0
877 293 1 -0.8476 12.19307637903821 11.009668844867454 7.532921199770929 0 0 0
878 293 2 0.4238 13.116332108446882 11.382912693291958 7.44192709831526 0 0 0
879 293 2 0.4238 11.52832057356655 11.756495967297164 7.514453918828588 0 0 0
619 207 1 -0.8476 13.652380075734914 13.658394699027154 3.7906430432022677 0 0 0
621 207 2 0.4238 14.522994725284894 13.184207730372577 3.9216731868738894 0 0 0
998 333 2 0.4238 11.266994629208476 14.11770303137386 7.353373912257205 0 0 0
793 265 1 -0.8476 14.446892503478008 12.617857612783405 6.689849459095788 0 0 0
1073 358 2 0.4238 14.206962377209269 14.30066206297706 12.60426083892911 0 0 0
795 265 2 0.4238 13.95672723330156 13.484789669457616 6.780179691047836 0 0 0
1090 364 1 -0.8476 11.032099910659435 14.167845817712035 14.968315430043287 0 0 0
1161 387 2 0.4238 26.150380447469857 11.112725936625363 11.773306884067654 0 0 0
1560 520 2 0.4238 20.224515677300516 14.952832351708969 6.728857752683722 0 0 1
715 239 1 -0.8476 21.83701699400676 8.58318416410263 1.8906425786118728 0 0 0
1786 596 1 -0.8476 14.661162041855388 8.991999090992504 5.1412596220640445 0 0 0
1788 596 2 0.4238 14.589641737072911 8.059753856086667 5.495936940258343 0 0 0
1787 596 2 0.4238 15.348333320719249 9.020633054177008 4.415333568316129 0 0 0
1486 496 1 -0.8476 19.436113164280606 11.68730076359621 3.2718164291399265 0 0 1
1297 433 1 -0.8476 19.025259055924792 9.96331570390692 5.408328830888591 0 0 0
1298 433 2 0.4238 19.270547806899366 10.528783100911694 4.620881555690831 0 0 0
1299 433 2 0.4238 19.343219820561465 9.027147268940327 5.258387908371198 0 0 0
1437 479 2 0.4238 17.66121859507909 9.598362682145368 6.379715746241657 0 0 0
1435 479 1 -0.8476 16.821925171547505 9.662924072812654 6.919540191161554 0 0 0
1436 479 2 0.4238 16.0300226576719 9.552339473243219 6.318995864264745 0 0 0
1137 379 2 0.4238 20.41086925591442 11.647401630723534 8.136996747454829 0 0 0
1409 470 2 0.4238 16.142993865712434 10.637841487040978 8.290107787756632 0 0 0
1410 470 2 0.4238 14.969626452215198 11.748121915839643 8.051169488905163 0 0 0
1452 484 2 0.4238 16.52443524593118 11.482694213327727 3.899213342610983 0 0 0
1450 484 1 -0.8476 16.17716642792501 12.390263534121837 4.1352533609335795 0 0 0
1451 484 2 0.4238 16.91747578768095 13.058905680742297 4.065593522929799 0 0 0
1487 496 2 0.4238 18.995426378974066 12.416991931949546 3.7946337938203794 0 0 1
1572 524 2 0.4238 17.511583894511972 9.469603619382173 2.8341925666730203 0 0 1
1508 503 2 0.4238 21.27746801639931 11.650411398813315 3.5728152896404533 0 0 1
794 265 2 0.4238 15.289444907100604 12.76378917349995 6.171388072792393 0 0 0
1570 524 1 -0.8476 16.65578858398605 9.952238989688652 2.6479937796689472 0 0 1
130 44 1 -0.8476 10.136517346695104 13.735567853718695 2.3572942909209327 0 0 1
651 217 2 0.4238 19.08746412327153 14.607177379077456 4.577877606035754 0 0 1
462 154 2 0.4238 23.42323398639236 12.634513700576672 9.199598031136677 0 0 0
649 217 1 -0.8476 18.379428157765652 14.111951162069769 4.074460371900873 0 0 1
717 239 2 0.4238 20.946594421259334 8.674207731553588 2.3365736160081916 0 0 0
1257 419 2 0.4238 23.966500142139765 8.397121956115093 7.9116887987400615 0 0 0
1362 454 2 0.4238 27.157708590892035 8.946716236088356 4.950651963530234 0 0 0
620 207 2 0.4238 13.483555047399154 14.265828117576412 4.566861310811808 0 0 0
696 232 2 0.4238 23.156255066475424 10.606443285725442 3.712652936374421 0 0 0
895 299 1 -0.8476 19.474069568804453 10.657224229276405 14.977056946828638 0 0 0
1136 379 2 0.4238 20.864580254136044 11.425644760938166 6.5840717255940175 0 0 0
1135 379 1 -0.8476 21.166790873336886 11.386648476903957 7.536510815903471 0 0 0
1255 419 1 -0.8476 24.457134987723244 8.745499538694759 8.7103777677138 0 0 0
1507 503 1 -0.8476 22.182849189530344 12.065905315512627 3.660236506433714 0 0 1
910 304 1 -0.8476 26.212751713797708 11.552709159310096 7.822664872061496 0 0 0
911 304 2 0.4238 26.684844068969475 12.075852994975486 7.113128771871362 0 0 0
912 304 2 0.4238 25.33623898572067 11.987302579099824 8.029659611078234 0 0 0
956 319 2 0.4238 23.832631372804855 14.375776970226225 5.973070780053042 0 0 1
955 319 1 -0.8476 23.079539002615746 13.740068608791267 6.142537148034699 0 0 1
1360 454 1 -0.8476 27.980477123669367 9.507512877964349 5.04312425960164 0 0 0
1361 454 2 0.4238 27.78639691591932 10.437890617872355 4.7321223770562595 0 0 0
957 319 2 0.4238 23.287023303885597 13.184619677529138 6.947781700532555 0 0 1
1575 525 2 0.4238 26.907408495940054 12.599170588887981 2.5257796374199724 0 0 1
1573 525 1 -0.8476 26.839335089962816 11.608519569158222 2.4075901803046618 0 0 1
1745 582 2 0.4238 25.773936433764057 9.749662987585362 2.138150753857206 0 0 0
1509 503 2 0.4238 22.43392338454499 12.117633977281258 4.626817148511151 0 0 1
158 53 2 0.4238 4.338200092444253 2.3790233991038727 13.975623973244714 0 0 0
282 94 2 0.4238 5.135659803584366 3.2444290594531466 2.2379710688614707 0 1 1
894 298 2 0.4238 4.5049122233221865 12.306842305002894 2.3120349498019155 0 0 1
630 210 2 0.4238 26.960515332860226 10.60972322959595 8.672918207625308 0 0 0
1438 480 1 -0.8476 3.3768048076607053 12.603259872808879 14.969771819477502 0 0 0
1069 357 1 -0.8476 21.711316435622727 9.727934674353243 12.034214201916285 0 0 0
1356 452 2 0.4238 24.814264501851056 14.172224064177053 3.186414502409339 0 0 0
1500 500 2 0.4238 23.99548325073149 3.02081658717485 3.193360707527831 0 1 1
1773 591 2 0.4238 6.937293441381699 8.711491217915642 14.301471734294694 0 0 0
237 79 2 0.4238 6.15775042659956 3.2406978133694704 13.61990355714223 0 0 0
901 301 1 -0.8476 3.55387159988116 3.543567927885099 8.715603767902074 0 0 0
1562 521 2 0.4238 27.088873146616834 3.7439852943958556 13.728692267701827 -1 0 0
68 23 2 0.4238 7.762363558353681 6.9555499551288005 9.515361144360492 0 0 0
69 23 2 0.4238 6.966585740406414 5.531266233624638 9.584344970023288 0 0 0
99 33 2 0.4238 4.836531911160169 5.989031949269827 12.555432542384565 0 0 0
67 23 1 -0.8476 6.908015505629243 6.485985284268584 9.292671962675294 0 0 0
97 33 1 -0.8476 5.107213894954546 6.5588439544772505 13.331343348593068 0 0 0
98 33 2 0.4238 4.2943679351680375 6.823092180088475 13.85042559012737 0 0 0
288 96 2 0.4238 2.4804754392194264 9.091540477895467 12.152494030296937 0 0 0
1261 421 1 -0.8476 4.154653886082153 6.68192046512784 10.321477571759191 0 0 0
1262 421 2 0.4238 4.919011211117782 6.795807511333683 9.68682775755583 0 0 0
1263 421 2 0.4238 4.005892044477484 7.535536242637609 10.820679760548222 0 0 0
1214 405 2 0.4238 4.554406264169266 3.3327873543724404 11.169797662058334 0 0 0
1213 405 1 -0.8476 4.183052043112891 4.066450362621538 11.738855721495852 0 0 0
1772 591 2 0.4238 5.4640633135974195 8.015209068723934 14.408192776009784 0 0 0
1215 405 2 0.4238 4.042220895626825 4.883328265981901 11.179508127697725 0 0 0
1771 591 1 -0.8476 5.955640785385587 8.885557570621504 14.379260000656284 0 0 0
1427 476 2 0.4238 7.1905710481903915 3.9351794847121986 11.319969023151975 0 0 0
1488 496 2 0.4238 19.6640809810215 12.02303352794673 2.3578655395478556 0 0 1
724 242 1 -0.8476 3.207859334093282 7.276441983285307 14.93312128756898 0 0 0
235 79 1 -0.8476 6.761772645661941 4.032965388169513 13.533521971836459 0 0 0
330 110 2 0.4238 2.427752567013865 2.3544026831263425 7.517684167757029 0 0 0
135 45 2 0.4238 9.407309243845845 1.8782651904769083 7.6713354433300545 0 0 0
454 152 1 -0.8476 9.349410560013311 4.057575286810952 14.70264618767827 0 0 0
672 224 2 0.4238 11.867013398220127 5.7706589501778485 14.154687152873263 0 0 0
534 178 2 0.4238 10.62698907078562 2.899819639078734 11.225216100560322 0 0 0
1592 531 2 0.4238 8.377508410175476 7.483169215976801 14.225330875186577 0 0 0
145 49 1 -0.8476 13.40488610672678 4.039496823558168 10.028368742423407 0 1 0
1370 457 2 0.4238 12.634810054139791 3.5343630262756784 7.110057428716267 0 1 0
146 49 2 0.4238 13.898394899706693 3.281320863128099 9.602211100748038 0 1 0
1593 531 2 0.4238 8.927662964925808 7.787733551200091 12.718288811700667 0 0 0
182 61 2 0.4238 11.611201244239135 6.323451706503609 9.38695249567548 0 0 0
533 178 2 0.4238 11.579691325656068 3.720899728846301 10.183682425590165 0 0 0
1398 466 2 0.4238 12.245754927441977 3.9094901791735333 13.158238839090416 0 0 0
1426 476 1 -0.8476 7.442275756496152 4.091959946619253 10.36495226920707 0 0 0
1428 476 2 0.4238 8.385420963150647 3.794955905577037 10.215760539015243 0 0 0
652 218 1 -0.8476 10.969201187732551 6.6628160140824635 11.016355879521624 0 0 0
654 218 2 0.4238 10.832408590990639 5.994784470942461 11.747802183158104 0 0 0
671 224 2 0.4238 10.480223640881851 4.9832263726395345 13.803447439728325 0 0 0
653 218 2 0.4238 11.851008080966169 7.117652607820106 11.140984708587942 0 0 0
435 145 2 0.4238 3.070492213148383 4.3028351850315545 2.2125256053024174 0 0 0
670 224 1 -0.8476 11.306876921964085 5.392735446819982 13.41752164054401 0 0 0
1397 466 2 0.4238 13.128367173049876 3.6551998615876222 11.808076750412102 0 0 0
1396 466 1 -0.8476 12.992052961057267 3.3770040681611633 12.758875743263681 0 0 0
147 49 2 0.4238 14.025711188035247 4.813590571628058 10.152252342482827 0 1 0
532 178 1 -0.8476 10.66998969195877 3.3298708583996817 10.323439962369685 0 0 0
185 62 2 0.4238 15.131544763169178 5.261224606978783 11.952116892580667 0 0 0
184 62 1 -0.8476 15.244372162067021 5.657674168341206 11.04102427358964 0 0 0
134 45 2 0.4238 9.403833489199627 2.398037313849769 9.219376205257102 0 0 0
456 152 2 0.4238 8.611663830557534 3.8341298931340164 14.065625599970346 0 0 0
1591 531 1 -0.8476 8.519295338218196 8.193539220200401 13.535937677896278 0 0 0
232 78 1 -0.8476 7.572376939904397 14.928738694959977 9.09837181388621 0 0 0
1695 565 2 0.4238 18.18805397952726 2.562984092102406 11.321057549945069 0 1 0
1250 417 2 0.4238 1.98473114877666 13.031180355810589 14.16127574273341 0 0 0
705 235 2 0.4238 15.882495427969369 3.730306582521533 14.811419151605833 0 0 0
186 62 2 0.4238 15.755521334394151 6.514289290957665 11.111232021413825 0 0 0
659 220 2 0.4238 17.355653886082486 7.983319241660881 10.865122220276259 0 0 0
704 235 2 0.4238 14.905061186220147 3.537596844196977 13.51755266072072 0 0 0
703 235 1 -0.8476 15.532018089547178 4.163687831653453 13.981155094986802 0 0 0
1485 495 2 0.4238 20.25747299176107 6.323898744502894 8.71485532399155 0 0 0
272 91 2 0.4238 16.166278612761886 5.001849592227892 9.743382661022409 0 0 0
325 109 1 -0.8476 17.829991956221974 5.901442195829173 13.186569952557651 0 0 0
326 109 2 0.4238 17.053967492078726 5.573470199164783 13.725284228374582 0 0 0
327 109 2 0.4238 17.525807344528275 6.630668490393886 12.573631287476694 0 0 0
1204 402 1 -0.8476 20.837625676282883 5.019189884537397 11.67528158557061 0 0 0
1205 402 2 0.4238 20.91159393607373 5.608885222824505 10.871055147634252 0 0 0
1206 402 2 0.4238 19.87274298327806 4.862500682069641 11.886094086403894 0 0 0
658 220 1 -0.8476 16.658361212685662 7.819216060408465 11.562865576653717 0 0 0
271 91 1 -0.8476 16.78439570265534 4.586964801486134 9.075704658738127 0 0 0
273 91 2 0.4238 17.142795691639268 3.7282211779850107 9.441902523866197 0 0 0
1554 518 2 0.4238 21.96061634051754 7.776271926456764 14.170824443174608 0 0 0
228 76 2 0.4238 21.927480825715897 6.202756121047774 12.480896464984948 0 0 0
626 209 2 0.4238 21.396233795627865 2.8706073375080052 10.82790105659324 0 0 0
1050 350 2 0.4238 28.05551263007311 14.930554855826184 11.223800225911921 -1 0 0
226 76 1 -0.8476 22.538041612215686 6.937273904156478 12.7770234742017 0 0 0
1354 452 1 -0.8476 25.73551217931663 14.416238844070653 3.4893206567654254 0 0 0
984 328 2 0.4238 18.285126896596964 3.7504150903853897 13.028280834841345 0 0 0
983 328 2 0.4238 19.558047252863425 2.7380927560692037 13.174851426171449 0 0 0
1569 523 2 0.4238 18.49538431296125 8.55905941577526 9.376683893229899 0 0 0
982 328 1 -0.8476 18.78508828623748 2.999529521728488 12.596769610264333 0 0 0
1716 572 2 0.4238 12.327045664454557 6.657858889987723 3.14372794849142 0 0 1
1483 495 1 -0.8476 20.9300244868085 6.552173237358194 9.418813613089274 0 0 0
131 44 2 0.4238 10.519896165584896 14.621051743522367 2.0947449071945528 0 0 1
329 110 2 0.4238 27.78312630939979 2.2451935833411127 6.220910276494051 -1 0 0
296 99 2 0.4238 24.248877261742905 4.439352823845885 9.018121919807015 0 0 0
333 111 2 0.4238 21.60435771218745 9.788800447104537 8.629257226531271 0 0 0
119 40 2 0.4238 22.920596628197373 13.065235598518052 2.500200340081158 0 0 1
625 209 1 -0.8476 21.99580405920365 2.270811341724892 10.298040395279342 0 0 0
627 209 2 0.4238 22.766264665629805 2.7996875661441925 9.942129615155046 0 0 0
295 99 1 -0.8476 23.29990898658543 4.248743353401205 9.269357935218856 0 0 0
379 127 1 -0.8476 23.140165800174664 4.19590452021915 14.571963331446009 0 0 0
380 127 2 0.4238 23.86690996969857 4.81837535832751 14.281506192871495 0 0 0
372 124 2 0.4238 26.24811199586906 2.4135664600425786 11.956089379825658 0 0 0
1561 521 1 -0.8476 26.726184656236697 3.9780590922406356 12.826662009891878 -1 0 0
1584 528 2 0.4238 26.493796994499093 7.097030232367208 10.536779263812429 0 0 0
1558 520 1 -0.8476 20.5252347885804 14.700915037443002 5.809022006967553 0 0 1
1563 521 2 0.4238 25.98530870563296 4.642103465130091 12.9273593007638 -1 0 0
1404 468 2 0.4238 25.64087152741915 6.637124175631369 14.093655691187221 0 0 0
76 26 1 -0.8476 27.767270620303194 5.688989663754416 10.30108782419018 0 0 0
78 26 2 0.4238 2.285699443543909 6.17545792138301 10.148344155220684 1 0 0
1583 528 2 0.4238 25.27292149216842 8.132778356753116 10.215385311182834 0 0 0
1582 528 1 -0.8476 25.82934973537251 7.726232904005996 10.940023467275472 0 0 0
77 26 2 0.4238 27.875629779933412 5.051794219578342 11.06412947421001 0 0 0
1402 468 1 -0.8476 25.126224598797016 6.226227216490671 13.34113041162321 0 0 0
1403 468 2 0.4238 25.41095843192305 6.641094780145804 12.476952418185201 0 0 0
227 76 2 0.4238 23.459605678949984 6.572003487807838 12.908512026080102 0 0 0
297 99 2 0.4238 22.730275405113503 5.039168328783147 9.044106612950943 0 0 0
1159 387 1 -0.8476 26.938845019859535 11.607239574508624 11.407558417058334 0 0 0
490 164 1 -0.8476 2.0100103201407276 9.734840612903604 14.227958501105393 1 0 0
461 154 2 0.4238 22.57427276714629 11.859172605021913 8.039979009623092 0 0 0
489 163 2 0.4238 7.471826899088484 11.594819053476705 8.544618427198097 0 0 0
1585 529 1 -0.8476 3.2983664981826974 14.538620853219404 8.223954156262206 0 0 0
286 96 1 -0.8476 2.947946502263349 9.122463510098015 11.269030839710725 0 0 0
287 96 2 0.4238 2.2707240744406967 9.118366899737486 10.533268826604239 0 0 0
1249 417 1 -0.8476 27.5341142955142 13.24580284652508 13.59032107449791 -1 0 0
1586 529 2 0.4238 2.72694750444641 14.549377106887459 9.044537290682564 0 0 0
933 311 2 0.4238 8.02316737684492 9.675747706933546 9.798401152366132 0 0 0
932 311 2 0.4238 6.564786557724023 9.734878204308721 10.530681311695062 0 0 0
300 100 2 0.4238 6.606534780070113 13.151449080637027 13.17951730676271 0 0 0
931 311 1 -0.8476 7.183395923056325 10.208373301567784 9.90369094947309 0 0 0
1564 522 1 -0.8476 5.492490969155215 9.647969053996587 11.862072756464418 0 0 0
1128 376 2 0.4238 7.976189827070306 13.475908376908832 10.901387348765303 0 0 0
1565 522 2 0.4238 5.710570118515934 9.34265468118883 12.789012161747964 0 0 0
1566 522 2 0.4238 4.513798322613413 9.530143079190413 11.693936549343489 0 0 0
1587 529 2 0.4238 3.874828500958822 13.721523411916005 8.229900747075163 0 0 0
1126 376 1 -0.8476 7.748781472349658 12.916102400517566 11.698190289581502 0 0 0
1127 376 2 0.4238 7.737000995012988 11.951343797664405 11.435331978344143 0 0 0
900 300 2 0.4238 21.46188596923858 2.207922608748303 5.829487547275855 0 0 0
298 100 1 -0.8476 6.003180056310163 13.18459333605533 13.976296196731987 0 0 0
299 100 2 0.4238 5.793878418874845 14.137324850313757 14.19649509604781 0 0 0
1251 417 2 0.4238 27.466950803958525 12.578229493881226 12.848817921712955 -1 0 0
331 111 1 -0.8476 21.768266629351366 9.118880899436384 9.353366128159735 0 0 0
822 274 2 0.4238 13.2375630754028 14.914421774567446 2.4707941720716935 0 0 1
165 55 2 0.4238 13.946189543579374 7.7905673578708745 10.743592153609729 0 0 0
1091 364 2 0.4238 10.708192766301975 13.843838793841913 14.07944153927407 0 0 0
323 108 2 0.4238 9.577936868895378 8.57421268283413 8.880678131848612 0 0 0
322 108 1 -0.8476 9.25947302352813 8.39655008267326 9.811811260783813 0 0 0
324 108 2 0.4238 9.96911183816849 7.907727603955653 10.31921385768853 0 0 0
804 268 2 0.4238 14.5823773728029 11.115692830975211 10.220670821626141 0 0 0
831 277 2 0.4238 9.480929996004186 12.908158785236644 12.50740117491778 0 0 0
1748 583 2 0.4238 11.190183744903706 10.701415498376086 9.869197116431929 0 0 0
1749 583 2 0.4238 12.402911932233232 11.336218061024649 10.759658387418758 0 0 0
830 277 2 0.4238 10.873890525603466 12.416265642620068 11.811479252902242 0 0 0
802 268 1 -0.8476 14.001871331138894 11.158024736972603 11.033821610876698 0 0 0
163 55 1 -0.8476 13.138885727420238 8.253656996798156 11.109380861490852 0 0 0
164 55 2 0.4238 13.283122898391353 9.24293202008097 11.086498576136579 0 0 0
1038 346 2 0.4238 8.61858214417147 10.102932861774866 13.69521136787232 0 0 0
1036 346 1 -0.8476 8.47324931308812 10.956691994661513 14.195177702373577 0 0 0
1037 346 2 0.4238 7.711383577767339 11.457770152886376 13.78472261649131 0 0 0
859 287 1 -0.8476 12.938957494471644 9.912314083801254 14.58310871442761 0 0 0
860 287 2 0.4238 12.794264412000743 9.264971949818001 13.834774436730457 0 0 0
495 165 2 0.4238 13.985192477174936 5.1511090628683505 14.787703115232755 0 0 0
1155 385 2 0.4238 14.17518690100811 10.992208346843213 14.153473146672118 0 0 0
803 268 2 0.4238 14.536748575254292 11.496604794232846 11.807942105170088 0 0 0
1747 583 1 -0.8476 11.415526121956697 11.343977007745691 10.601540986312278 0 0 0
1074 358 2 0.4238 15.151302743485369 13.209003041407325 13.367876295652948 0 0 0
829 277 1 -0.8476 10.456162548328017 13.10418571979789 12.404995360771082 0 0 0
691 231 1 -0.8476 25.80005048347177 10.145604928403912 14.863211273584671 0 0 0
199 67 1 -0.8476 20.877961082063898 2.6411348765848497 14.46328395735079 0 0 0
1072 358 1 -0.8476 15.071674347636097 14.165745971727961 13.088062386106811 0 0 0
1408 470 1 -0.8476 15.586470925110731 11.344571485770544 8.726922415887234 0 0 0
36 12 2 0.4238 23.006703667548692 13.4395214120887 11.338204658920905 0 0 0
140 47 2 0.4238 19.210125288455494 12.704332789633224 9.622598140623271 0 0 0
139 47 1 -0.8476 19.940463593419338 12.077301569261076 9.893579741953234 0 0 0
1045 349 1 -0.8476 20.23804878789373 4.712892377608378 2.1092679096844207 0 0 0
141 47 2 0.4238 20.466239423020724 12.481570670504885 10.641990570316379 0 0 0
414 138 2 0.4238 11.71617691093491 14.590319585661987 12.30997153964422 0 0 0
236 79 2 0.4238 6.247823695028347 4.867256284470292 13.73304008022828 0 0 0
660 220 2 0.4238 16.547029502690172 8.640470134210066 12.122454847705855 0 0 0
499 167 1 -0.8476 14.300513001564608 2.105087240483062 6.876414590382981 0 1 0
1196 399 2 0.4238 12.491502640009116 2.214714751502501 3.151822673335072 0 1 1
1153 385 1 -0.8476 14.986964096285783 11.472630923916887 13.821503296808448 0 0 0
35 12 2 0.4238 24.408236295417446 14.150671792551389 11.781574322736079 0 0 0
958 320 1 -0.8476 17.651514247666583 13.298698375027852 9.195010536665988 0 0 0
161 54 2 0.4238 8.49750821249331 14.747294522974574 5.0399913595300845 0 0 0
1154 385 2 0.4238 15.679365480562339 11.494779357347957 14.542670289219037 0 0 0
1414 472 1 -0.8476 17.5856946839005 9.725302470082074 13.29504578617048 0 0 0
1415 472 2 0.4238 18.11058544164031 9.541227627686235 12.46402317611772 0 0 0
801 267 2 0.4238 19.26417605252339 10.366611861638477 10.502268124124784 0 0 0
799 267 1 -0.8476 19.209893845443723 9.42599477792955 10.837357657057554 0 0 0
1440 480 2 0.4238 4.3147868403414265 12.741230932024848 14.651736558687269 0 0 0
800 267 2 0.4238 20.04788756531405 9.200261404952169 11.33415038287418 0 0 0
1416 472 2 0.4238 18.20666021639672 10.010389718930243 14.025196459910683 0 0 0
1453 485 1 -0.8476 19.097682951937642 14.17296654663899 13.039928598583659 0 0 0
1454 485 2 0.4238 18.66180867137949 13.850535383400798 13.88019273327279 0 0 0
1455 485 2 0.4238 18.405182085861945 14.286101101786096 12.327443385556947 0 0 0
960 320 2 0.4238 16.896490517751083 12.66994524584318 9.008996030694 0 0 0
530 177 2 0.4238 20.99634076899546 13.354370442403361 12.609165497818454 0 0 0
105 35 2 0.4238 18.892865748431483 6.046359446502253 14.700938946145197 0 0 0
747 249 2 0.4238 24.35899648961876 14.198525157625227 14.677449187242031 0 0 0
628 210 1 -0.8476 27.663516045264565 10.083323987760954 9.151129490449543 0 0 0
629 210 2 0.4238 27.936110778376303 9.302944211085459 8.588375865815582 0 0 0
518 173 2 0.4238 26.14696692307843 14.151121201014897 13.23801082311808 -1 0 0
289 97 1 -0.8476 24.883097378906676 10.105324402010579 12.264077849315544 0 0 0
1049 350 2 0.4238 27.242342772311474 13.667151555310769 10.584133996386434 -1 0 0
460 154 1 -0.8476 23.49153948293163 12.099771034206194 8.35735301003912 0 0 0
290 97 2 0.4238 24.9404827541482 9.11370286391853 12.148379007806247 0 0 0
1048 350 1 -0.8476 27.97261212974079 14.331994903278801 10.427027443621489 -1 0 0
1160 387 2 0.4238 27.388718031509406 11.048604470859718 10.710756320723963 0 0 0
291 97 2 0.4238 23.92449186060727 10.38892470563942 12.23880759048912 0 0 0
531 177 2 0.4238 21.615221548954104 11.845027066673373 12.535173177719034 0 0 0
132 44 2 0.4238 10.87634848845773 13.072334836981522 2.470277007196501 0 0 1
34 12 1 -0.8476 23.85198323440168 13.85666714944894 11.004312549605618 0 0 0
959 320 2 0.4238 17.53892845299122 13.69435244491524 10.106479049049929 0 0 0
1280 427 2 0.4238 16.382318115708898 14.871263482851122 11.988755963199289 0 0 0
576 192 2 0.4238 2.5646043761302324 3.867403101881069 14.544814943084045 0 0 0
574 192 1 -0.8476 3.515795882239394 3.798850575007842 14.243936616810036 0 0 0
491 164 2 0.4238 2.4737842446730007 10.618393713861456 14.293074490130735 1 0 0
1499 500 2 0.4238 22.803222717048165 2.006147699438772 2.729068290378991 0 1 1
151 51 1 -0.8476 10.025110310177858 1.9381274431298134 12.637506827115109 0 0 0
1430 477 2 0.4238 3.7484827845642066 1.9319847530229088 9.197984893428638 0 0 0
861 287 2 0.4238 12.071528108628488 10.352107058164377 14.815792208833123 0 0 0
1552 518 1 -0.8476 21.426911029448355 8.168453473099454 14.920054256557153 0 0 0
512 171 2 0.4238 6.521416306125906 1.8621745114988144 4.126019564814356 0 0 1
1077 359 2 0.4238 25.47845082406721 14.974315665258365 4.973095534057519 0 0 0
650 217 2 0.4238 17.84849347363265 14.756836147983401 3.5247109572927533 0 0 1
896 299 2 0.4238 20.11485612845363 9.936802340595216 14.711769038087457 0 0 0
1043 348 2 0.4238 20.75735820256287 13.613143210889584 14.93098437652795 0 0 0
363 121 2 0.4238 3.058882906717238 5.077080055812953 19.89894975932409 0 0 0
438 146 2 0.4238 5.445168784539462 4.654547352683213 16.194689900731046 0 0 0
437 146 2 0.4238 5.266841771654597 3.0716350967043837 15.835254767291984 0 0 0
436 146 1 -0.8476 5.728868627324321 3.7259564107359973 16.433909087651507 0 0 0
1264 422 1 -0.8476 6.072126033879331 6.141186913323849 19.177471336894982 0 0 0
1266 422 2 0.4238 5.676738331319258 6.26146339290478 18.266870324770423 0 0 0
593 198 2 0.4238 27.87998791381257 4.77569029156089 18.958610060301098 -1 0 0
753 251 2 0.4238 26.716648122670627 3.958880585320054 16.06102046137905 -1 0 0
1623 541 2 0.4238 5.265292190446864 6.800167853214525 20.56855799470422 0 0 0
1265 422 2 0.4238 7.060266054489383 6.2884023005784755 19.133894298119515 0 0 0
361 121 1 -0.8476 3.2408456570992947 5.20199198939399 18.92361422829987 0 0 0
450 150 2 0.4238 2.8022084915170224 6.967783674336497 18.742221788218437 0 0 0
752 251 2 0.4238 27.458391566835047 2.5713560198544827 15.623759115520356 -1 0 0
751 251 1 -0.8476 27.28505462501427 3.5214033845029937 15.364227962061083 -1 0 0
448 150 1 -0.8476 2.700887553951852 7.864505333718479 19.173055185206756 0 0 0
385 129 1 -0.8476 4.36175707113696 10.60792474680454 28.094119767810326 1 0 -1
362 121 2 0.4238 4.192515029048728 4.964416386519186 18.72899654890449 0 0 0
1327 443 1 -0.8476 5.043573349868948 2.9489716495078526 19.002838931549405 0 0 0
1329 443 2 0.4238 5.526875381592346 2.655199154270635 18.178151644571216 0 0 0
1621 541 1 -0.8476 5.294417636466321 7.065390840064572 21.532301597794827 0 0 0
449 150 2 0.4238 2.6491882136878693 7.753524279496945 20.16552851085322 0 0 0
1328 443 2 0.4238 5.5322678098587375 3.714926946747223 19.420549794000024 0 0 0
787 263 1 -0.8476 7.8700370389935275 2.8993757525245987 20.921828237869548 0 1 0
945 315 2 0.4238 15.505621996630072 1.8983195305164828 24.744905250809772 0 1 0
1687 563 1 -0.8476 25.800058176864617 2.834126722627381 27.31790242308991 0 0 0
83 28 2 0.4238 8.061059897696946 3.2555942617887714 17.161745505528554 0 0 0
1580 527 2 0.4238 20.954302022638366 14.759872410736339 19.415076376197355 0 0 0
84 28 2 0.4238 8.002838792664765 2.745139291720047 18.711794337770137 0 0 0
520 174 1 -0.8476 10.249766837583067 4.789605884292881 19.572140340257583 0 0 0
521 174 2 0.4238 10.062097298923584 5.407746413838727 18.80880905010178 0 0 0
522 174 2 0.4238 10.6217797818052 3.9302023598550493 19.22139200992087 0 0 0
1574 525 2 0.4238 27.557884435470037 11.296863482033347 28.12766880641707 0 0 0
82 28 1 -0.8476 8.277992390695557 2.5015931673737306 17.781757635413253 0 0 0
1209 403 2 0.4238 13.520407027419783 2.8595983411774735 16.79562857631073 0 0 0
1208 403 2 0.4238 12.329718662225819 3.3060206004518595 17.820115574940914 0 0 0
648 216 2 0.4238 12.03411720576604 6.70541597402401 16.18613431531301 0 0 0
1207 403 1 -0.8476 13.10618620268309 3.630301492324052 17.279808121650408 0 0 0
783 261 2 0.4238 10.047565386590614 2.225400903977305 18.26867328605072 0 0 0
781 261 1 -0.8476 11.024254627079339 2.318850096424473 18.46190464050919 0 0 0
493 165 1 -0.8476 13.217383556176232 5.466355043097677 15.345449894211507 0 0 0
253 85 1 -0.8476 9.244834520458122 6.961378117364174 17.730406189335284 0 0 0
254 85 2 0.4238 10.20391651489675 6.9897607838249405 17.448717916938776 0 0 0
494 165 2 0.4238 13.152864423220711 4.905817131146316 16.171056692649863 0 0 0
213 71 2 0.4238 15.59724159219489 6.508214034551692 20.04730895974923 0 0 0
646 216 1 -0.8476 11.77639616931003 7.24003595668482 16.990965931789688 0 0 0
1670 557 2 0.4238 8.459421328607299 5.504466925801953 15.124603863992633 0 0 0
211 71 1 -0.8476 15.452777364315825 7.268320142071361 20.680839759730645 0 0 0
647 216 2 0.4238 12.534702096278378 7.247731510384359 17.64281339976691 0 0 0
580 194 1 -0.8476 26.60319681785173 6.788037665737991 15.484630225814028 0 0 0
748 250 1 -0.8476 13.92830007457644 6.794719842977439 23.154398410687755 0 0 0
749 250 2 0.4238 14.726883741862393 6.514986993101094 22.621476247156707 0 0 0
750 250 2 0.4238 13.922705991018885 7.79022422697824 23.248910334041597 0 0 0
1799 600 2 0.4238 25.142945614061773 14.959987423819257 21.37670052988569 0 0 0
897 299 2 0.4238 19.97784364266804 11.502641556957434 15.154466074031417 0 0 0
1466 489 2 0.4238 16.24652020602634 13.761663809257541 18.46232560330224 0 0 0
1620 540 2 0.4238 17.61600181145797 12.94677701647775 15.847685951715002 0 0 0
219 73 2 0.4238 14.471095440249888 4.719839961146397 18.317389547123724 0 0 0
5 2 2 0.4238 24.90570947353161 8.579238652074135 23.16812353501623 -1 0 0
1318 440 1 -0.8476 16.66937596459109 3.553476032482574 21.189902303854453 0 0 0
1504 502 1 -0.8476 18.413133311678116 5.578713772998171 20.681779489256215 0 0 0
1505 502 2 0.4238 18.721547663474027 6.16631375523726 19.93371602576837 0 0 0
1506 502 2 0.4238 18.601377481979597 6.025873805040663 21.556195912970338 0 0 0
1515 505 2 0.4238 18.95160836506917 7.012291972095981 18.08520900715255 0 0 0
497 166 2 0.4238 22.259706687962044 5.197020455460017 20.229484594783393 0 0 0
217 73 1 -0.8476 15.231009753566395 5.104035945229265 18.841714266599546 0 0 0
496 166 1 -0.8476 22.290144515955326 6.137717112578467 20.567353470460546 0 0 0
218 73 2 0.4238 15.547282561841389 4.432096933400937 19.511387319778706 0 0 0
1320 440 2 0.4238 17.064074529314418 4.438205361567989 20.94199276354977 0 0 0
1578 526 2 0.4238 18.937099314775068 3.4659059239641987 16.956368151613244 0 0 0
1576 526 1 -0.8476 18.35193244572914 3.9666182306393347 16.318513161989515 0 0 0
498 166 2 0.4238 21.662846674163795 6.234808369547531 21.34005183288984 0 0 0
1577 526 2 0.4238 18.68434421744591 4.905389188146117 16.22793969199229 0 0 0
470 157 2 0.4238 22.18377605880623 7.988092617575674 20.485354070527286 0 0 0
1513 505 1 -0.8476 19.383517758456378 7.257600501894507 18.953120312012224 0 0 0
953 318 2 0.4238 17.13233967328582 5.8861730687695 16.540378344201507 0 0 0
952 318 1 -0.8476 16.85589307025819 6.415592178087596 17.342428661045872 0 0 0
954 318 2 0.4238 16.221388634846207 5.87579470156439 17.895614760055366 0 0 0
1140 380 2 0.4238 17.018379999695718 2.874194451572281 16.152442973128817 0 1 0
1553 518 2 0.4238 21.931300585311902 8.066658718498203 15.777504821904285 0 0 0
64 22 1 -0.8476 19.98533252510928 2.488306946349738 17.899747639730116 0 1 0
212 71 2 0.4238 14.685455852033936 7.825523708092717 20.363453461968234 0 0 0
1319 440 2 0.4238 17.399677493466157 2.927703656072689 21.46387442887032 0 0 0
65 22 2 0.4238 20.518546663740167 2.797168266654678 18.68732583003858 0 1 0
1510 504 1 -0.8476 26.191716338718756 10.29901030391525 25.656178666469565 0 0 0
990 330 2 0.4238 22.221819950710632 9.704468367885582 27.14870300019605 0 0 0
103 35 1 -0.8476 19.203751439140206 6.521831789387713 15.523902540716428 0 0 0
104 35 2 0.4238 19.981912070515293 7.107344031074425 15.296669996255876 0 0 0
610 204 1 -0.8476 20.300555535786636 3.6191951545827115 20.721045237894096 0 0 0
612 204 2 0.4238 19.709116849122104 4.362284330791811 20.407977138194113 0 0 0
635 212 2 0.4238 22.28779425187588 7.570116897461448 18.48590493188034 0 0 0
636 212 2 0.4238 23.148585619220455 7.417186391744204 17.106681972035943 0 0 0
594 198 2 0.4238 26.439342194486763 5.073109958931186 19.667615503817792 -1 0 0
592 198 1 -0.8476 26.916009995171457 4.511717784401862 18.991139245845126 -1 0 0
729 243 2 0.4238 24.165682843509067 6.360908654461765 20.230345389443187 0 0 0
198 66 2 0.4238 25.595319035931517 4.829585769382951 17.8337986728639 0 0 0
197 66 2 0.4238 24.217749179094433 4.581797485767051 16.992664035252492 0 0 0
727 243 1 -0.8476 25.148764129709043 6.300950718017134 20.05728972130686 0 0 0
728 243 2 0.4238 25.457320601884014 7.132753663696327 19.59589096760196 0 0 0
965 322 2 0.4238 27.38792293437993 2.6428017679177733 19.51381825778644 0 0 0
1358 453 2 0.4238 22.366123097624914 3.9176488741542603 18.068855703430835 0 0 0
1359 453 2 0.4238 22.485154512458017 5.454892349480646 17.530971641306138 0 0 0
196 66 1 -0.8476 25.11063430921213 5.031966174523021 16.982849236190468 0 0 0
1556 519 2 0.4238 24.020756078749166 2.517328219705857 20.26658809704528 -1 1 0
1357 453 1 -0.8476 22.37055920709122 4.500262375966148 17.256123352164316 0 0 0
634 212 1 -0.8476 22.325587517848035 7.1226632203988425 17.5924010544819 0 0 0
472 158 1 -0.8476 24.060782585443228 8.926101872437913 16.34514151290734 0 0 0
1665 555 2 0.4238 5.904523838739476 11.969701161921718 15.307280324137814 0 0 0
1555 519 1 -0.8476 23.562972953632638 1.9625542819378932 19.57185609693734 -1 1 0
337 113 1 -0.8476 26.356686033757256 8.613930687307853 19.278858984417788 0 0 0
339 113 2 0.4238 26.08069806559446 9.568361645243643 19.165349163893822 0 0 0
338 113 2 0.4238 27.354870635415764 8.554076435905365 19.28499567665547 0 0 0
1442 481 2 0.4238 14.866987579317374 4.705380112679814 27.913377067497528 0 0 0
55 19 1 -0.8476 9.012689719129256 1.8472042964739899 23.76356256524194 0 1 0
1031 344 2 0.4238 24.845715264078613 4.4087277964399085 21.22491009430221 0 0 0
581 194 2 0.4238 26.060236197017055 6.18288348695249 16.066845169019153 0 0 0
611 204 2 0.4238 19.902170316767034 3.196517237010689 21.535063101213147 0 0 0
399 133 2 0.4238 5.988430536373193 6.387884081377766 15.944739741710933 0 0 0
397 133 1 -0.8476 5.183068592930866 6.355583478222833 16.536636090288532 0 0 0
398 133 2 0.4238 4.431048990901073 6.852553339356368 16.103645993687266 0 0 0
939 313 2 0.4238 4.210733755551141 9.320093403570993 19.312168350053064 0 0 0
602 201 2 0.4238 6.721317529128852 10.802351824935775 17.54748873121944 0 0 0
603 201 2 0.4238 6.370663897841248 10.559506083940096 19.12377334755491 0 0 0
938 313 2 0.4238 3.9129864765874185 10.85149575170493 18.82971758250028 0 0 0
1439 480 2 0.4238 3.372741633574269 12.510127810676765 15.965413817892916 0 0 0
937 313 1 -0.8476 4.57381452366988 10.251303751251319 19.2803485690508 0 0 0
601 201 1 -0.8476 7.1072320077215885 10.717367761885452 18.46609624998524 0 0 0
1663 555 1 -0.8476 5.675968974587604 11.238330307531038 15.949815453751638 0 0 0
573 191 2 0.4238 15.737359769687371 2.117370038264127 21.05016563096774 0 0 0
981 327 2 0.4238 7.526954989195905 12.616708355228326 18.767546609552063 0 0 0
979 327 1 -0.8476 7.904314212778319 13.523341371174707 18.956249111228622 0 0 0
823 275 1 -0.8476 3.633461730685717 12.74715846232173 20.549232961033745 0 0 0
824 275 2 0.4238 3.676141837137876 11.752574413927613 20.454504404239465 0 0 0
825 275 2 0.4238 4.218865474836334 13.035225363606637 21.307066932641014 0 0 0
772 258 1 -0.8476 3.9483174248892237 12.483993975117187 17.630074052322158 1 0 0
773 258 2 0.4238 4.254249593384282 12.692800491676685 18.558942924746503 1 0 0
774 258 2 0.4238 4.698451851082744 12.065186620243406 17.118321378915677 1 0 0
988 330 1 -0.8476 22.298211419775697 10.482537539096317 26.525192955851686 0 0 0
980 327 2 0.4238 8.900884581552244 13.46416030708188 19.01401748054171 0 0 0
267 89 2 0.4238 15.225256407757907 14.52900489007467 24.64842103763955 0 0 0
582 194 2 0.4238 26.820681750707983 7.625704622334788 15.985635626988463 0 0 0
1512 504 2 0.4238 27.158536335311325 10.369289342522967 25.901766141278827 0 0 0
1395 465 2 0.4238 7.12925470282143 14.650119901966502 19.985551515625723 0 0 0
1138 380 1 -0.8476 16.357961131361748 2.2778591756891107 15.696126506645301 0 1 0
4 2 1 -0.8476 25.697497136561736 9.189989714270773 23.175054814050732 -1 0 0
1475 492 2 0.4238 27.463828709933132 13.85626334971423 23.953016575589317 -1 0 0
1034 345 2 0.4238 20.358878451479384 3.4918109782409816 24.96955444665172 0 1 0
255 85 2 0.4238 9.063452260231799 7.7072988558299285 18.371260945865693 0 0 0
1229 410 2 0.4238 12.657605519635661 14.168087861476545 15.42089986476722 0 0 0
1669 557 1 -0.8476 8.099672620479481 6.376961785814328 15.455248132603414 0 0 0
1130 377 2 0.4238 9.078915551131319 9.257313431107608 20.471522668362283 0 0 0
607 203 1 -0.8476 13.976800894723235 9.634098135064292 17.13347406714159 0 0 0
1376 459 2 0.4238 11.117916541588144 12.620344441606495 15.450023590619798 0 0 0
1129 377 1 -0.8476 9.062780822172758 9.076541843165682 19.488133698094444 0 0 0
1131 377 2 0.4238 8.325468192306767 9.602794963189774 19.064552201530347 0 0 0
1604 535 2 0.4238 11.496916847756559 10.745728899219518 17.895634154357047 0 0 0
1603 535 1 -0.8476 11.53863755499718 10.151844609624453 18.699097208097648 0 0 0
1605 535 2 0.4238 10.6151470849664 10.00542365707058 19.053665010560977 0 0 0
586 196 1 -0.8476 14.037536577789357 10.032699835490357 20.673252730708462 0 0 0
587 196 2 0.4238 14.7865334889798 10.625924884962282 20.378157915283467 0 0 0
588 196 2 0.4238 13.407622978952316 9.886702049364342 19.910438342006742 0 0 0
258 86 2 0.4238 11.107217916103258 13.053112877891678 19.704640595006403 0 0 0
256 86 1 -0.8476 10.58352887421599 13.539664408542839 19.00534849741622 0 0 0
257 86 2 0.4238 11.147321644563084 14.265705593085542 18.611655775164273 0 0 0
1634 545 2 0.4238 14.22703225718509 13.21700312979168 17.164017264965636 0 0 0
608 203 2 0.4238 13.091509914671025 9.77745285873935 17.575855509111385 0 0 0
1375 459 1 -0.8476 10.966242731833525 11.65370558512085 15.656412625165377 0 0 0
1635 545 2 0.4238 14.452150174740169 11.661535887663659 17.607242719954645 0 0 0
891 297 2 0.4238 13.613249823606331 9.60728196976325 22.506132694736976 0 0 0
1186 396 1 -0.8476 12.04025584903836 12.17064796151695 21.002229208768348 0 0 0
1187 396 2 0.4238 12.611616212156054 11.728297058059312 20.31095119153637 0 0 0
1188 396 2 0.4238 12.609728978165077 12.75282406077472 21.582543331853806 0 0 0
1633 545 1 -0.8476 14.552105706659878 12.614602957837619 17.893012006146876 0 0 0
1391 464 2 0.4238 10.39885299435323 2.7608811644225604 24.220412081600237 0 1 0
1618 540 1 -0.8476 18.311231419463745 13.626715236102594 15.614592454411017 0 0 0
708 236 2 0.4238 6.222802899420645 3.5536003369330325 23.462029187917025 0 0 0
57 19 2 0.4238 8.117780824981303 1.9292681262128233 23.324933258136696 0 1 0
1514 505 2 0.4238 19.363630014343357 8.25097362402562 19.066285529679718 0 0 0
469 157 1 -0.8476 22.36901111042075 8.937626325820755 20.23224117074232 0 0 0
1650 550 2 0.4238 18.572112018235416 10.088758812149493 19.705220905709666 0 0 0
719 240 2 0.4238 16.99175885658923 8.058430592177027 17.27527994185801 0 0 0
1102 368 1 -0.8476 18.542694345419804 1.970220498819978 22.255887647219787 0 1 0
720 240 2 0.4238 15.70538859579018 9.052977466818884 17.426055636294116 0 0 0
471 157 2 0.4238 21.81888164163479 9.547913459528122 20.802241147460236 0 0 0
718 240 1 -0.8476 16.704026302067128 9.002233211036941 17.437879706877595 0 0 0
1648 550 1 -0.8476 18.807074585539084 9.84775805865581 18.763571681624576 0 0 0
1649 550 2 0.4238 17.998755364156324 9.483327888884006 18.301183591147826 0 0 0
58 20 1 -0.8476 15.903325808905114 11.916055457070424 20.00844669946901 0 0 0
59 20 2 0.4238 16.096484945391076 12.781629555415341 20.470467403693625 0 0 0
60 20 2 0.4238 15.459454149622054 12.09834027240185 19.131097110339695 0 0 0
1132 378 1 -0.8476 9.076049294809392 4.515071586438051 27.920714720000817 0 0 0
555 185 2 0.4238 19.796042848208778 10.694027750220794 21.38038602004479 0 0 0
1579 527 1 -0.8476 21.550522874580317 13.968701621283712 19.551317086667652 0 0 0
1082 361 2 0.4238 21.55932547986047 13.735389910222949 21.55999414404952 0 0 0
624 208 2 0.4238 19.892505477486985 11.115859843028012 17.995911489519003 0 0 0
623 208 2 0.4238 20.70070185002011 12.1461645656428 17.020258981808386 0 0 0
622 208 1 -0.8476 20.518790809472144 11.895050030710163 17.97096524834403 0 0 0
1581 527 2 0.4238 21.28600054201877 13.23941297232449 18.92031941606296 0 0 0
405 135 2 0.4238 17.140587745009285 10.872415197847122 20.884979077408303 0 0 0
403 135 1 -0.8476 17.97764487775143 10.66004305732434 21.389186843330087 0 0 0
1380 460 2 0.4238 8.629342455090125 10.836584476103944 27.42355706460787 0 0 -1
1715 572 2 0.4238 11.98205339706968 6.93169750751553 27.913088030604037 0 0 0
1689 563 2 0.4238 25.78219126277115 3.8331741396618613 27.27819013738987 0 0 0
1377 459 2 0.4238 10.081783617825335 11.368775517359886 15.286900818998156 0 0 0
1353 451 2 0.4238 16.67247774414418 10.687647294314761 16.677228432783686 0 0 0
1474 492 1 -0.8476 26.9783099101834 13.97533758994552 24.81909176237219 -1 0 0
692 231 2 0.4238 25.905752668757145 11.124005710776983 15.040839227153462 0 0 0
108 36 2 0.4238 25.373342479405167 13.082695559423485 16.290661317588885 0 0 0
473 158 2 0.4238 23.61210842708946 9.65629846500851 16.860405017376905 0 0 0
1688 563 2 0.4238 24.98166120488238 2.5045749098927965 27.788661432814997 0 0 0
1628 543 2 0.4238 22.824822907257357 9.796299582205975 18.811909630270733 0 0 0
107 36 2 0.4238 26.99673152113531 13.258448499799712 16.308681320000225 0 0 0
474 158 2 0.4238 24.827921664139538 9.305833228052672 15.828136866132896 0 0 0
72 24 2 0.4238 23.38361367207672 14.297397471775408 20.11369408510989 0 0 0
1685 562 2 0.4238 2.6422873122532278 13.735000388549897 17.604250630430702 0 0 0
70 24 1 -0.8476 24.37632623568625 14.18168131336654 20.147229644305384 0 0 0
71 24 2 0.4238 24.617914878467097 13.274217444765975 19.80351874268434 0 0 0
1684 562 1 -0.8476 1.901439868319133 14.331856631703236 17.296190462274943 0 0 0
1686 562 2 0.4238 27.721901985137343 14.651542411495862 18.08738592094827 -1 0 0
1730 577 2 0.4238 25.830969231499814 11.879457312835035 18.226161516945055 0 0 0
1627 543 1 -0.8476 22.879229893949848 10.545381214525914 18.151675847859117 0 0 0
1629 543 2 0.4238 21.972483182278424 10.949191551006185 18.030268842785873 0 0 0
1729 577 1 -0.8476 25.225822182149713 11.619302194965204 18.978563306471642 0 0 0
1731 577 2 0.4238 24.339536703131508 11.337267416999781 18.61121266023639 0 0 0
174 58 2 0.4238 25.60611369125612 11.324563530711119 20.648609906111425 0 0 0
1172 391 2 0.4238 2.2443460802588477 12.950229592184078 21.543607909908125 1 0 0
106 36 1 -0.8476 26.236165674492234 12.669391062719436 16.581707675432412 0 0 0
746 249 2 0.4238 24.009195131616693 14.17109972239347 16.27228305021007 0 0 0
680 227 2 0.4238 24.890949379164276 12.243508753840588 22.834298224428515 0 0 0
6 2 2 0.4238 25.841136263310233 9.539002491629528 24.101095378700414 -1 0 0
1173 391 2 0.4238 27.05800581117503 12.715161195421482 22.069065262437768 0 0 0
172 58 1 -0.8476 25.967344496258413 11.445391862934722 21.573221180326236 0 0 0
1171 391 1 -0.8476 27.914629138121263 13.201749740655249 22.240588172604596 0 0 0
1378 460 1 -0.8476 8.415340769014408 11.767630899206932 27.719103830181893 0 0 -1
858 286 2 0.4238 8.307696138175253 7.396262312717847 23.712955894008374 0 0 0
977 326 2 0.4238 20.844304929149267 2.0022731432434444 27.278718896126676 0 1 -1
389 130 2 0.4238 12.799151390284761 2.1336032029883123 23.427788502374653 0 1 0
280 94 1 -0.8476 4.369141254471588 3.282327990020563 27.938683734766265 0 1 0
309 103 2 0.4238 4.948781296850729 6.54458166182169 26.806501356150306 0 0 0
706 236 1 -0.8476 5.966778911407646 4.2194978289487945 22.761297552323704 0 0 0
707 236 2 0.4238 5.088534553403721 4.633758621265212 23.00018642565935 0 0 0
1134 378 2 0.4238 8.363538199383246 4.420226121759214 27.225499300952514 0 0 0
1201 401 1 -0.8476 3.6378214358210923 5.052011989449368 24.10660032448329 0 0 0
1203 401 2 0.4238 4.224711343554886 5.6320570480734915 24.67148972196774 0 0 0
764 255 2 0.4238 6.829331222319074 3.4426461032842535 25.903267749930194 0 0 0
765 255 2 0.4238 6.191098531338499 4.906061782938197 26.246311912596852 0 0 0
763 255 1 -0.8476 6.869204646517099 4.225604253699795 26.52405712757688 0 0 0
1202 401 2 0.4238 3.089049203008136 4.458903360053342 24.69572106350845 0 0 0
788 263 2 0.4238 7.190939862780797 3.3191897655129496 21.523970469262657 0 1 0
307 103 1 -0.8476 5.080813341658569 6.400611606490509 25.825770911466833 0 0 0
278 93 2 0.4238 4.490887835993173 8.177228577709517 22.54037981135849 0 0 0
1622 541 2 0.4238 6.124317608513376 6.69975641998748 21.953692782811032 0 0 0
281 94 2 0.4238 4.711700164562478 3.1899706047215357 27.00374219863798 0 1 0
308 103 2 0.4238 5.3652630804315695 7.258689977833771 25.398240918685794 0 0 0
856 286 1 -0.8476 7.76942854274496 7.017743712891343 22.959972694009963 0 0 0
1759 587 1 -0.8476 2.091844149160308 5.210236407357282 21.818079218281206 1 0 0
1760 587 2 0.4238 27.95133699144977 4.335465141005096 21.771844945728247 0 0 0
1761 587 2 0.4238 2.725558105846686 5.200973467323727 22.59158610423146 1 0 0
1544 515 2 0.4238 27.688869378403908 7.036305658934437 21.702483080290023 -1 0 0
455 152 2 0.4238 9.646232484088788 3.226815298020682 15.17352579610911 0 0 0
120 40 2 0.4238 23.65478863554192 13.144415611249293 27.385542548068713 0 0 0
210 70 2 0.4238 16.84217621202323 7.526136335179555 22.13896074101455 0 0 0
1044 348 2 0.4238 22.30223730231802 13.174414976196866 15.226739910832887 0 0 0
789 263 2 0.4238 8.756341364812048 3.341497247092142 21.059615292091507 0 1 0
1619 540 2 0.4238 18.43384633408541 14.254936864859385 16.382899437392034 0 0 0
1750 584 1 -0.8476 10.816333811663357 5.618093203528084 25.911201155724548 0 0 0
1751 584 2 0.4238 10.161955038804582 5.311199581114842 26.602284924871057 0 0 0
1752 584 2 0.4238 10.852156079361501 4.951383867498391 25.166750040102016 0 0 0
1789 597 1 -0.8476 9.569927815379739 5.092191204958903 22.122088848499146 0 0 0
1790 597 2 0.4238 10.203732668289293 4.853260309366169 22.85774876564716 0 0 0
857 286 2 0.4238 8.186452859940374 6.163917519071497 22.648422378278063 0 0 0
1791 597 2 0.4238 10.052898148797905 5.072964825228556 21.246666637854574 0 0 0
458 153 2 0.4238 12.262242725112532 6.541843747564264 25.92410809665398 0 0 -1
1443 481 2 0.4238 14.46764442572077 5.892800398870133 26.865921226153787 0 0 0
1252 418 1 -0.8476 21.816664756141535 9.566560043898884 23.979043027059916 0 0 0
681 227 2 0.4238 24.291400421736405 12.645278682626296 24.29912855064412 0 0 0
459 153 2 0.4238 13.378264760205754 6.865876453098822 24.77689283943708 0 0 -1
457 153 1 -0.8476 13.225900192220452 6.751496252664232 25.758572140441636 0 0 -1
935 312 2 0.4238 6.316527614971529 14.406171467086972 26.96843769411904 1 0 -1
9 3 2 0.4238 15.47674549011552 3.7025165188978573 22.999922115975508 0 0 0
8 3 2 0.4238 14.393188033287496 4.151825183640796 24.135981369658047 0 0 0
1392 464 2 0.4238 11.538229038925483 2.347050444921803 25.314565463577587 0 1 0
117 39 2 0.4238 14.577743937496779 8.245021761657933 26.72395895495481 0 0 0
1770 590 2 0.4238 9.872783958088355 7.013071775679022 25.388052588439628 0 0 0
1768 590 1 -0.8476 9.340115894732413 7.814184992257635 25.115152600492564 0 0 0
1441 481 1 -0.8476 15.220904123496505 5.346933530406599 27.23282990889146 0 0 0
1390 464 1 -0.8476 11.275601705198476 3.021548146097784 24.624585904073463 0 1 0
173 58 2 0.4238 25.87676338650717 10.588711770290805 22.081047592261434 0 0 0
208 70 1 -0.8476 17.376677197190872 7.257068003074971 22.9401496114954 0 0 0
833 278 2 0.4238 20.278122703564506 7.0035652715639465 23.312243178824417 0 0 0
832 278 1 -0.8476 20.95683387090301 6.373040155657611 22.935704649081444 0 0 0
1511 504 2 0.4238 25.684271226603762 9.888936560891123 26.41402549397622 0 0 0
1104 368 2 0.4238 18.86300475746851 2.3899820074828466 23.105118938278487 0 1 0
1551 517 2 0.4238 16.756158892987777 6.093104839855121 27.502736893402435 0 0 -1
209 70 2 0.4238 17.539997099406868 8.05799950929811 23.51619470247791 0 0 0
834 278 2 0.4238 20.882478078181258 5.488910560022406 23.39698343108347 0 0 0
1033 345 1 -0.8476 19.88035603570755 4.033774003842632 24.278696288267668 0 1 0
716 239 2 0.4238 21.820391888041513 7.7992623978571824 27.611821687190393 0 0 -1
1035 345 2 0.4238 18.950726733043865 4.227520914919163 24.592135250058007 0 1 0
784 262 1 -0.8476 6.19893784677856 2.0458138605859713 24.81744103516816 0 1 0
1699 567 1 -0.8476 17.581579533899145 2.9615022054594586 27.195660469500723 0 1 -1
1701 567 2 0.4238 17.462803351871653 3.8156701624387424 26.689417727360684 0 1 -1
1550 517 2 0.4238 17.896085970020884 6.842157501645614 26.604910855582155 0 0 -1
7 3 1 -0.8476 15.27214122737449 3.7015854218606083 23.978762531863687 0 0 0
1325 442 2 0.4238 20.63931197173516 8.736166042661326 24.880719482027025 0 1 0
1324 442 1 -0.8476 19.89912794051083 8.217624853972204 25.30877872067733 0 1 0
826 276 1 -0.8476 17.454861060299507 5.436700859621273 24.962715987660395 0 0 0
827 276 2 0.4238 16.634734165160452 4.880589341779218 24.82809099606815 0 0 0
828 276 2 0.4238 17.602841496393154 6.012483060572354 24.15862103834877 0 0 0
1326 442 2 0.4238 19.08945113799404 8.798672117417109 25.39123847317927 0 1 0
1700 567 2 0.4238 17.805182478813443 3.167052073502586 28.148416154079605 0 1 -1
1549 517 1 -0.8476 17.534153240518016 6.7208131169822805 27.529179383838375 0 0 -1
348 116 2 0.4238 20.962680669220617 7.10496260119483 25.98542223883033 0 0 0
1093 365 1 -0.8476 28.16615156562667 3.698709971170293 25.66424976333574 0 0 0
870 290 2 0.4238 26.32088007361415 7.77952863274324 26.841749323671344 0 0 0
1094 365 2 0.4238 28.151530423888182 3.9384943019414242 26.634961779269275 0 0 0
347 116 2 0.4238 20.982972077800717 5.9525118209094865 27.142163646460133 0 0 0
346 116 1 -0.8476 21.52215380213505 6.659354127453225 26.684289146078605 0 0 0
1543 515 1 -0.8476 27.665956379370378 8.031424881381513 21.79842635378543 -1 0 0
978 326 2 0.4238 20.833351086748678 3.6340975541917024 27.21843347454167 0 1 -1
1545 515 2 0.4238 26.949714934707664 8.28728141845492 22.447678693998718 -1 0 0
1095 365 2 0.4238 27.494801939359363 2.9786822212965767 25.48863125015687 0 0 0
543 181 2 0.4238 22.714671982707898 6.918603881742214 22.968588479382035 0 0 0
974 325 2 0.4238 23.976595585256135 2.512229380697708 24.06936696697238 0 0 0
1030 344 1 -0.8476 24.91108496475016 3.4148543465233523 21.313987360752385 0 0 0
1032 344 2 0.4238 24.97785701713073 3.1705861148042076 22.281389750807307 0 0 0
973 325 1 -0.8476 24.645765068448313 3.2489860968067186 24.166288844866123 0 0 0
975 325 2 0.4238 24.226474783205134 4.01893812028689 24.647289619829557 0 0 0
541 181 1 -0.8476 23.384499348514375 7.323706033274867 23.590855546852026 0 0 0
1018 340 1 -0.8476 24.13912832408309 5.877666043937598 25.79514069366745 0 0 0
1019 340 2 0.4238 23.37774398959983 6.175229296916602 26.371111613857536 0 0 0
1020 340 2 0.4238 24.99554276710679 6.243263127228176 26.159675656060045 0 0 0
868 290 1 -0.8476 26.617190380586507 6.965358902686848 26.342428499505147 0 0 0
542 181 2 0.4238 23.6880059517598 6.6343139840995615 24.24859085987174 0 0 0
869 290 2 0.4238 27.29222939292945 7.2251398683609525 25.651900799489276 0 0 0
976 326 1 -0.8476 20.978456583141252 2.7984390113700988 26.688705931002247 0 1 -1
1424 475 2 0.4238 5.914098562976858 11.462421208985255 22.948155572141808 1 0 0
1423 475 1 -0.8476 4.942097445366214 11.442040415975248 23.182230551541423 1 0 0
1458 486 2 0.4238 7.269031922002522 9.063048800647106 22.225144970964493 0 0 0
1476 492 2 0.4238 27.36258200097508 13.356741312632808 25.504413522425885 -1 0 0
279 93 2 0.4238 2.8926214345625736 8.51192997199714 22.551547983289886 0 0 0
277 93 1 -0.8476 3.7930504089011596 8.817779565737709 22.86086294372842 0 0 0
1221 407 2 0.4238 23.441217317320238 11.766379716043007 26.258760276561183 0 0 0
1425 475 2 0.4238 4.612608389032967 10.498254800806075 23.15579003297662 1 0 0
738 246 2 0.4238 7.9700906574961135 13.7605506046817 23.739970513698083 0 0 0
1456 486 1 -0.8476 7.471105460937683 10.0413116017499 22.27162874706991 0 0 0
736 246 1 -0.8476 8.05372970561777 14.60297532569625 23.207695063405367 0 0 0
1671 557 2 0.4238 8.575875480479638 6.637000171929252 16.295249888421303 0 0 0
638 213 2 0.4238 7.105267581411154 12.782194926571588 25.60655310337937 0 0 0
386 129 2 0.4238 4.687050431424783 10.020308757645502 27.353252006508953 1 0 -1
313 105 1 -0.8476 4.90534227486265 9.274981148137549 25.6582258884169 0 0 0
314 105 2 0.4238 4.350888640680619 9.486589947256213 24.85336881313087 0 0 0
315 105 2 0.4238 5.86845834485822 9.451722858903562 25.45534199516527 0 0 0
1118 373 2 0.4238 8.045274152061104 8.71233914289968 25.20581214052592 0 0 0
1117 373 1 -0.8476 7.427826469086973 9.492654030064763 25.106519155891462 0 0 0
481 161 1 -0.8476 3.853462517608654 12.90056764136594 25.10076332037187 0 0 0
482 161 2 0.4238 4.102240327336899 12.548645940131822 24.19840375533262 0 0 0
483 161 2 0.4238 4.682998520145146 13.068302489939029 25.633423695908704 0 0 0
1119 373 2 0.4238 7.720860102619663 10.053107962829118 24.33191299155169 0 0 0
639 213 2 0.4238 8.149422473371455 11.592113038827522 25.206489239949363 0 0 0
934 312 1 -0.8476 6.143372990281474 13.428561901985816 26.848899535523095 1 0 -1
637 213 1 -0.8476 7.749561804619564 12.460357363229408 24.912796183770574 0 0 0
39 13 2 0.4238 2.693956747755603 12.051336161531742 26.03379512617515 1 0 0
38 13 2 0.4238 3.0361386086475584 10.883329575332851 27.12249959192365 1 0 0
37 13 1 -0.8476 2.3255178543735564 11.26688262976059 26.532671397599536 1 0 0
1254 418 2 0.4238 22.565028604712737 8.952631523258884 23.727972263039703 0 0 0
123 41 2 0.4238 3.664535113344429 14.921753079742977 24.444366844229258 1 0 0
1379 460 2 0.4238 9.235484748287869 12.192493851973488 28.10231112852142 0 0 -1
1228 410 1 -0.8476 13.594260330980708 14.18309515587668 15.770820695750354 0 0 0
1219 407 1 -0.8476 24.218286124192304 12.382648213052668 26.13081777523049 0 0 0
1533 511 2 0.4238 16.887858238977607 11.886396275793011 27.845854446417285 0 0 0
1224 408 2 0.4238 26.482922549046002 6.155783496973546 27.86892901575279 -1 0 -1
1457 486 2 0.4238 8.46120121909281 10.17884400339553 22.243557653436305 0 0 0
244 82 1 -0.8476 16.37809756326656 14.500294595773072 20.938289818743 0 0 0
16 6 1 -0.8476 13.890668670771063 13.81865737753719 22.56908916670551 0 0 0
812 271 2 0.4238 10.87107991691332 10.741086576950703 21.403963583464332 0 0 0
1769 590 2 0.4238 9.948350603441495 8.602192200786074 25.019825498638298 0 0 0
811 271 1 -0.8476 10.321389981762424 9.993153559857284 21.7760259471279 0 0 0
813 271 2 0.4238 10.868098885130754 9.471543123308573 22.43102543516229 0 0 0
713 238 2 0.4238 14.225097017358893 12.646766486497501 23.63245803484827 0 0 0
712 238 1 -0.8476 14.445990285775041 12.142174049709274 24.467075453512074 0 0 0
714 238 2 0.4238 13.752942722454875 12.329600289999094 25.163170946005856 0 0 0
890 297 2 0.4238 13.556909234015619 10.557133296129104 23.83323985664572 0 0 0
889 297 1 -0.8476 13.46139185172148 9.62114241145579 23.49443380629475 0 0 0
428 143 2 0.4238 11.340279623510233 13.046529537848919 26.044938234152482 0 0 0
427 143 1 -0.8476 11.804770403271144 12.165532383659052 25.955023895306773 0 0 0
62 21 2 0.4238 11.274362589351584 10.643714686387872 25.328843421617975 0 0 0
63 21 2 0.4238 12.110215122230626 9.522041474674378 24.4863441740478 0 0 0
61 21 1 -0.8476 11.211218497458276 9.769286769858155 24.847822944616432 0 0 0
17 6 2 0.4238 14.74159769956443 13.98372505370648 22.07042646391548 0 0 0
429 143 2 0.4238 11.887756816809501 11.739030752327597 26.855691618364382 0 0 0
1664 555 2 0.4238 5.736553702007059 10.355116419256927 15.484783451143878 0 0 0
115 39 1 -0.8476 14.723914837898917 8.524925722889606 27.672790045385113 0 0 0
201 67 2 0.4238 21.04599304962443 2.4820186936105086 15.436135369140374 0 0 0
1352 451 2 0.4238 17.81793145927876 10.977751091750319 15.55011673126168 0 0 0
679 227 1 -0.8476 24.20141369570956 12.786742125866635 23.31328730550399 0 0 0
1220 407 2 0.4238 25.056882337763135 11.846305420136453 26.03550330748447 0 0 0
404 135 2 0.4238 17.846427045720823 10.87239210668377 22.357526564079166 0 0 0
175 59 1 -0.8476 17.026365178361523 14.939612407787319 27.06597577981848 0 0 -1
1465 489 1 -0.8476 16.988290169439914 14.369098307494944 18.178084580794817 0 0 0
1744 582 1 -0.8476 25.455216970857478 8.938093316268759 27.9903019921556 0 0 -1
504 168 2 0.4238 7.433377778113095 14.838177570156681 18.105048948061942 0 0 0
936 312 2 0.4238 6.835713183628021 12.904359515879667 27.344752334970757 1 0 -1
989 330 2 0.4238 22.175368990188304 10.1685499663202 25.583750663264276 0 0 0
553 185 1 -0.8476 20.75622758814461 10.85971132539874 21.605302774639426 0 0 0
554 185 2 0.4238 20.932896795445245 11.843974390265094 21.60796337883791 0 0 0
1081 361 1 -0.8476 21.498998812075612 13.408877508809512 22.50325604805907 0 0 0
1083 361 2 0.4238 22.41722906996653 13.213332262401613 22.84765216154686 0 0 0
1351 451 1 -0.8476 16.891579700176948 11.2053634277928 15.850211878835774 0 0 0
1276 426 1 -0.8476 17.466907846966482 9.406249346742932 25.025887742207196 0 0 0
1253 418 2 0.4238 21.48073159300059 10.03431293590977 23.161516665247902 0 0 0
923 308 2 0.4238 20.200423691707883 14.036774159162299 23.913012275459565 0 0 0
922 308 1 -0.8476 19.29081860263627 14.2536862626277 24.26735704630621 0 0 0
924 308 2 0.4238 19.379333871244178 14.778997680904563 25.11364619526185 0 0 0
1277 426 2 0.4238 16.91101863568988 9.578137780373002 25.83917342058451 0 0 0
1278 426 2 0.4238 17.73636310362744 10.277695969150964 24.616050327953054 0 0 0
1532 511 2 0.4238 17.03905470414399 13.239684219249865 26.9445457198335 0 0 0
1106 369 2 0.4238 19.99148716845061 14.240726003833663 27.005017256599437 0 0 0
1272 424 2 0.4238 21.11465318541231 11.742654573363017 26.712445712355382 0 0 0
1531 511 1 -0.8476 17.037094869216325 12.23993422468214 26.922419767502383 0 0 0
1198 400 1 -0.8476 17.582972865883747 11.770424556329916 23.863277182585946 0 0 0
1270 424 1 -0.8476 20.39174626099544 12.391699229852392 26.949384203376965 0 0 0
1199 400 2 0.4238 16.698628864371095 11.832933278237292 24.325901671523617 0 0 0
1271 424 2 0.4238 19.62278765180183 12.278459645054731 26.320200810600753 0 0 0
1200 400 2 0.4238 18.009033800747893 12.674675288476465 23.835070633824415 0 0 0
1042 348 1 -0.8476 21.342826744827747 12.930527267561143 15.368310439952824 0 0 0
873 291 2 0.4238 24.38182444977516 14.995164334972882 25.977462200501073 -1 0 0
609 203 2 0.4238 13.841231025068373 9.501878833203705 16.151572359832794 0 0 0
18 6 2 0.4238 13.858499840687466 14.406714668528968 23.37726355199524 0 0 0
381 127 2 0.4238 22.82642146772089 4.453220568006662 15.485936186486029 0 0 0
246 82 2 0.4238 16.613123985798453 14.711887119322915 19.98961535256165 0 0 0
745 249 1 -0.8476 23.916253150281122 13.677811318810488 15.407400122432813 0 0 0
1092 364 2 0.4238 10.357496437655518 14.792679594917379 15.36136172272071 0 0 0
1632 544 2 0.4238 13.849296413654795 1.8308647878619695 15.268365973213355 0 1 0
1394 465 2 0.4238 7.147387069129616 14.908017029353887 21.59793034993121 0 0 0
726 242 2 0.4238 2.481941361934639 6.656089660998951 15.230102983105178 0 0 0
1230 410 2 0.4238 14.236410030522162 14.187948138205739 15.004261998070493 0 0 0
742 248 1 -0.8476 4.843070734012354 16.960404686676995 4.053218462820443 0 0 0
743 248 2 0.4238 4.49600245565183 16.367844322753363 3.326301769283722 0 0 0
744 248 2 0.4238 5.226583525828218 17.791730045201184 3.6509646644767217 0 0 0
304 102 1 -0.8476 3.1628340997101843 18.344584693500167 5.615302626012793 0 0 0
305 102 2 0.4238 3.7982365462109353 17.830958974910295 5.0387214076374685 0 0 0
306 102 2 0.4238 3.675219128991685 18.839866820314597 6.31683672482299 0 0 0
1012 338 1 -0.8476 6.502039597369818 18.603720730761154 8.04410808773442 0 0 0
796 266 1 -0.8476 5.119638627912335 19.824251560462123 3.233657998880899 0 0 0
1013 338 2 0.4238 5.838789139026476 19.156297457048048 7.539380404513547 0 0 0
798 266 2 0.4238 4.801659482195987 20.365625805318686 4.011986666392385 0 0 0
1269 423 2 0.4238 3.0525668383910807 20.397005773553545 7.373565823465386 0 0 0
1547 516 2 0.4238 26.883102290368285 20.827280977334887 3.4602347688610373 -1 0 0
416 139 2 0.4238 2.567826963419378 16.06456050372158 5.144365596250649 0 0 0
410 137 2 0.4238 6.165895023510891 21.524970747240495 5.879833209168408 0 0 0
409 137 1 -0.8476 5.172363710178296 21.4301496584852 5.817409467883749 0 0 0
411 137 2 0.4238 4.844844021012898 20.853829240904375 6.566127068170362 0 0 0
248 83 2 0.4238 6.7647500744549705 20.23720994915859 2.6626017183907384 0 0 1
579 193 2 0.4238 3.8285388782021474 27.676618489575596 2.2713027071654093 0 0 1
1014 338 2 0.4238 6.027096588010151 17.859656455918184 8.513992423157738 0 0 0
247 83 1 -0.8476 7.603171621273739 20.653270089150695 2.310555487922863 0 0 1
1057 353 1 -0.8476 3.517951039536803 15.385859224165491 2.380412019934618 0 0 0
1301 434 2 0.4238 7.441776592777442 20.942148931202695 14.739952913695399 0 0 0
797 266 2 0.4238 4.397979637187624 19.19291908338375 2.949721377113713 0 0 0
1316 439 2 0.4238 8.873948167365612 19.70987661245151 2.188414195514982 0 0 0
1322 441 2 0.4238 8.225671357196788 18.226912799017377 7.427233479699964 0 0 0
418 140 1 -0.8476 22.659072534887336 20.120577170176567 2.4967447575911494 0 0 0
377 126 2 0.4238 10.128037335417945 20.015842698343924 7.287533931426248 0 0 0
376 126 1 -0.8476 10.883586325683856 20.593286398619213 6.978184011999451 0 0 0
1168 390 1 -0.8476 9.579805303965799 17.625023812350918 4.711181215695662 0 0 0
1170 390 2 0.4238 9.409463989788389 16.648149404415378 4.840379778777637 0 0 0
1762 588 1 -0.8476 12.492169490297211 18.465479534757854 4.859453266780985 0 0 0
1763 588 2 0.4238 11.536700572425309 18.19199474976513 4.970257405878888 0 0 0
1764 588 2 0.4238 12.535368673785097 19.434019669025616 4.614390036562405 0 0 0
1323 441 2 0.4238 9.558895714557922 17.827457361377284 6.5730941242369205 0 0 0
1384 462 1 -0.8476 13.897117135610236 20.785134479507278 2.484264660881509 0 0 0
1169 390 2 0.4238 9.589716151940245 17.835200951949318 3.733572205366417 0 0 0
1321 441 1 -0.8476 9.21190719071576 18.367338828275543 7.339983944125501 0 0 0
406 136 1 -0.8476 19.858342545006927 27.917414191577883 5.577350899004248 0 0 0
1116 372 2 0.4238 13.687578849913828 16.259538367562286 5.55849109912226 0 0 0
1114 372 1 -0.8476 13.450541788095988 15.359287456698084 5.923667432446182 0 0 0
1063 355 1 -0.8476 14.166591882196165 20.312656089612354 7.022969587694528 0 0 0
1339 447 1 -0.8476 14.513890265661257 17.84087282219791 3.1909926659776096 0 0 0
1340 447 2 0.4238 13.747756160796262 17.717618502435677 3.821737427588273 0 0 0
190 64 1 -0.8476 20.03373983763168 19.88790822810528 14.716701979130926 0 0 0
194 65 2 0.4238 11.014690229509187 20.792233791336116 5.327956579414126 0 0 0
195 65 2 0.4238 10.933503829503293 20.124095087671037 3.840137809966426 0 0 0
1065 355 2 0.4238 13.478798973948397 20.84981121939017 7.511229483963692 0 0 0
1064 355 2 0.4238 14.303263486678324 20.697036279949117 6.109971597787666 0 0 0
193 65 1 -0.8476 11.16217686011043 20.95221292277192 4.351920501502381 0 0 0
1767 589 2 0.4238 14.7476656551627 21.607066010355013 3.921537120140885 0 0 0
1737 579 2 0.4238 12.368018817327256 24.85934866525983 14.684976991411041 0 0 0
1115 372 2 0.4238 12.682580111440867 15.448523924064776 6.557910106171768 0 0 0
238 80 1 -0.8476 24.962090822785356 25.87062694947462 1.8624520201171852 0 0 0
1300 434 1 -0.8476 7.1694792035532044 19.9991285544128 14.931157276733781 0 0 0
516 172 2 0.4238 18.305679425467822 24.818581094468925 14.893988675095423 0 0 0
239 80 2 0.4238 24.62448675410195 26.618606307265694 2.433890909116764 0 0 0
1341 447 2 0.4238 14.531968743771 18.787613281241384 2.8695152795585868 0 0 0
320 107 2 0.4238 19.271405668186937 25.265224909036952 2.198130942429214 0 0 0
1052 351 2 0.4238 18.082600852333407 19.34738708703747 3.3371073229741577 0 0 0
657 219 2 0.4238 17.66557174634855 17.129353148549086 2.9836177830069106 0 0 0
656 219 2 0.4238 16.044972101224083 17.259639378300385 3.136220282029288 0 0 0
275 92 2 0.4238 17.13521203421947 18.760921761284216 6.787738709363568 0 0 0
927 309 2 0.4238 19.881426407704076 17.676569514880228 3.347503666622098 0 0 0
1595 532 2 0.4238 20.491363450463666 18.169644883800416 5.911147958954522 0 0 0
967 323 1 -0.8476 21.09985003067574 16.7790537973366 4.100852719633206 0 0 0
274 92 1 -0.8476 16.62783649005796 19.19956874469608 6.046016812558263 0 0 0
276 92 2 0.4238 15.713232645332244 19.444946107814793 6.367392775718846 0 0 0
1185 395 2 0.4238 21.370911913073634 21.387339961752453 5.402012749705117 0 0 0
1517 506 2 0.4238 19.856181833897935 21.470650193172787 7.466848894829941 0 0 0
1518 506 2 0.4238 20.7256047404385 20.36582231115083 6.63614775583224 0 0 0
1596 532 2 0.4238 21.546453928031845 18.211828969281697 7.156784325393871 0 0 0
1594 532 1 -0.8476 20.844713053897564 18.725755779986216 6.663396068579299 0 0 0
1516 506 1 -0.8476 20.33550490441084 21.286184963392962 6.608819728460193 0 0 0
1051 351 1 -0.8476 17.37096426884559 20.002700568282265 3.590345737897689 0 0 0
1053 351 2 0.4238 17.11286017676306 19.86169496012404 4.546113384108644 0 0 0
673 225 1 -0.8476 18.34105981762046 18.412307537575145 8.511265323892285 0 0 0
674 225 2 0.4238 19.171253851494946 18.026536859944173 8.108833822838115 0 0 0
87 29 2 0.4238 20.22830140438557 15.869610641044531 8.865793757606813 0 0 0
1239 413 2 0.4238 13.241257211361685 23.876612726187574 2.197303489706312 0 0 0
1765 589 1 -0.8476 15.117545555315727 21.805368869146754 4.829203178075995 0 0 0
655 219 1 -0.8476 16.806187036587097 16.620056849080438 3.029084570829445 0 0 0
686 229 2 0.4238 18.098395858214154 21.859129298132636 4.089534225557299 0 0 0
685 229 1 -0.8476 18.12336584913224 22.27860827458597 4.9969516235068125 0 0 0
1766 589 2 0.4238 16.113340892314184 21.878851403616295 4.774572529049262 0 0 0
687 229 2 0.4238 18.939813155370942 21.969533542435038 5.484680547283425 0 0 0
1293 431 2 0.4238 21.639199938120143 27.02514819822023 10.74873902758582 0 0 0
1672 558 1 -0.8476 24.703264716888008 27.89564310066349 14.283741429303278 0 0 0
1080 360 2 0.4238 25.93439752240777 21.20812260338333 11.150907919811958 0 0 0
925 309 1 -0.8476 19.136281417983405 18.178563386855814 2.908467025122343 0 0 0
962 321 2 0.4238 24.837752463123692 26.322006914449503 9.503306670987186 0 0 0
633 211 2 0.4238 16.605117455006344 21.020852471041678 14.961147908721236 0 0 0
837 279 2 0.4238 28.07316526861773 18.118611641116978 6.664686927501523 -1 0 0
1546 516 1 -0.8476 27.101117388706456 19.918265231995036 3.81541371858742 -1 0 0
662 221 2 0.4238 23.67264729785574 26.365540288407807 13.653947594623084 0 0 0
1548 516 2 0.4238 27.989351541468267 19.943840038165632 4.274083666640536 -1 0 0
559 187 1 -0.8476 8.060390201690776 16.129674469492784 1.9823959386957903 0 0 0
835 279 1 -0.8476 27.235318395718714 18.00463493968431 7.198554715661149 -1 0 0
1659 553 2 0.4238 23.8079312643463 16.679732475139744 6.404740091389536 0 0 0
1120 374 1 -0.8476 23.548950825619727 18.29484784591736 4.31978890927993 0 0 0
1121 374 2 0.4238 22.73659226925966 17.723434363143127 4.436207624039744 0 0 0
1122 374 2 0.4238 23.860698592698924 18.617067442075133 5.213645935376217 0 0 0
1657 553 1 -0.8476 23.26577403069121 17.228720897895222 7.040876989845029 0 0 0
1658 553 2 0.4238 23.45315502723482 16.9348284303804 7.978164767937344 0 0 0
113 38 2 0.4238 26.111983583482207 19.65339395597011 7.073544467829468 0 0 0
1644 548 2 0.4238 25.119175738956308 17.9514028001014 3.1142034232155087 -1 0 1
114 38 2 0.4238 25.03702394459362 20.27486404695903 8.134130122830758 0 0 0
112 38 1 -0.8476 25.753913606532443 20.497160865434765 7.473338595096444 0 0 0
420 140 2 0.4238 22.979522021684062 19.45346622525542 3.169254081198861 0 0 0
917 306 2 0.4238 7.55363739381932 22.492047538392377 13.448932249927887 0 0 0
1732 578 1 -0.8476 25.822529883576387 20.067315582199853 14.377149898593272 0 0 0
1643 548 2 0.4238 26.528528005150704 18.745656286061333 2.8917336134505467 -1 0 1
1709 570 2 0.4238 23.315188956370633 24.63710008139313 9.192637555598818 0 0 0
851 284 2 0.4238 6.805271862572512 16.45135692614639 14.130331959822476 0 0 0
1076 359 2 0.4238 25.723919978323003 15.33146008081065 6.5475154302885965 0 0 0
1184 395 2 0.4238 22.32336772467808 20.992710413584916 4.135638979723641 0 0 0
836 279 2 0.4238 27.13875828251868 17.04611421203862 7.466708811948518 -1 0 0
1527 509 2 0.4238 24.856601028012143 22.018688482503997 7.06920627611004 0 0 0
373 125 1 -0.8476 26.424944403021954 15.471700548205868 8.285247639565284 0 0 0
1642 548 1 -0.8476 25.91303503535407 18.053528751190022 2.5147455099204232 -1 0 1
1411 471 1 -0.8476 11.855102196812142 22.856244448451307 2.576359075651977 0 0 0
100 34 1 -0.8476 8.131413663883173 17.177428499674928 14.43848022950037 0 0 0
1433 478 2 0.4238 6.612256738243243 23.535736845502363 2.537122014804938 0 0 0
577 193 1 -0.8476 3.590445786514404 26.71282387884382 2.391319593622845 0 0 1
1434 478 2 0.4238 5.514857845737273 24.389807189317978 3.3932091794802854 0 0 0
2 1 2 0.4238 27.603292660346405 24.975444180940407 6.57626523052512 -1 0 0
986 329 2 0.4238 8.053217478737126 21.870957326827394 6.757598078112577 0 0 0
985 329 1 -0.8476 8.161584489742395 21.631833676018708 5.792679139697417 0 0 0
987 329 2 0.4238 9.044223650461133 21.18150575125936 5.657976082545496 0 0 0
109 37 1 -0.8476 3.971000784706001 24.939007769185196 4.419386968452715 0 0 0
111 37 2 0.4238 3.239043491370702 24.49125322870612 4.932949688672609 0 0 0
110 37 2 0.4238 3.573677480659904 25.582360214136358 3.7649973454333483 0 0 0
1040 347 2 0.4238 4.805530872747758 26.16826569530314 5.437412628343333 1 -1 0
1039 347 1 -0.8476 5.175831552237525 26.752932809134727 6.159239340531476 1 -1 0
1041 347 2 0.4238 5.277964360907795 26.220737688691806 6.999673336453648 1 -1 0
1 1 1 -0.8476 27.774275003953413 24.27921647074492 5.879110960004212 -1 0 0
771 257 2 0.4238 27.378279811258082 21.468394182419964 7.3067410245619815 -1 0 0
769 257 1 -0.8476 1.9592431529304708 21.83164239493511 7.178162291259589 0 0 0
3 1 2 0.4238 27.18132263534786 24.444082326982546 5.09093661454995 -1 0 0
969 323 2 0.4238 20.839870972016925 15.986385148133687 4.652286620902656 0 0 0
1432 478 1 -0.8476 5.774344493501429 24.078435627933573 2.479038970433018 0 0 0
370 124 1 -0.8476 25.893685868823383 27.82034724053019 11.965830050898902 0 -1 0
770 257 2 0.4238 1.903742083693475 22.76128380708053 6.813911664322484 0 0 0
1534 512 1 -0.8476 13.48418575060922 20.189070670778058 14.945865589757712 0 0 0
153 51 2 0.4238 10.32350121232521 28.094074061661708 13.573674921172543 0 -1 0
11 4 2 0.4238 20.94604315393925 26.895405851334537 3.327419553968304 0 -1 0
480 160 2 0.4238 3.4625650701792807 22.078756045732867 14.470611233541717 0 0 0
375 125 2 0.4238 27.09273351156056 15.1981233821042 8.977494189421032 0 0 0
486 162 2 0.4238 8.947353922786903 23.898089262130817 3.3785772198178625 0 0 1
485 162 2 0.4238 8.259069243386886 22.72860793123082 4.28697351264432 0 0 1
484 162 1 -0.8476 8.334869656650039 23.107732018440203 3.3647412790348046 0 0 1
378 126 2 0.4238 11.346917027651447 20.989040572518313 7.771087482925049 0 0 0
820 274 1 -0.8476 13.238756290872335 15.762823832477904 1.9414498952336487 0 0 1
25 9 1 -0.8476 12.70722115731951 21.666822183231943 9.018240704883908 0 0 0
1640 547 2 0.4238 9.463476916133548 26.201922545516737 3.326348849737178 0 0 1
26 9 2 0.4238 13.285973640519963 21.198332082102475 9.685739618795914 0 0 0
1176 392 2 0.4238 13.287051518709093 24.624541797993366 5.777031283611004 0 0 0
1174 392 1 -0.8476 13.961950222671605 24.09147137784695 6.287266269939205 0 0 0
1413 471 2 0.4238 11.485795776842654 22.30878580940235 3.3272877351801817 0 0 0
682 228 1 -0.8476 12.32523036128889 25.434675335128773 4.637672687309253 0 0 1
762 254 2 0.4238 7.10515917785786 15.140062419135639 3.4683203744963182 0 0 0
415 139 1 -0.8476 2.7905670111196215 15.165746290337806 5.521873196334438 0 0 0
916 306 1 -0.8476 8.392983232137295 22.383649787902932 13.981605336210825 0 0 0
755 252 2 0.4238 8.920941097291287 27.955334059661872 5.227862595425929 0 0 1
1734 578 2 0.4238 26.66562467301887 20.3259524565634 14.848627480069146 0 0 0
1651 551 1 -0.8476 8.090842457573174 25.143639064144267 5.950723155913254 0 -1 0
1652 551 2 0.4238 7.565342226835411 24.307351916157806 5.7943087378964275 0 -1 0
1175 392 2 0.4238 14.03142484377915 23.17563053266577 5.891790790156252 0 0 0
683 228 2 0.4238 13.012135496136757 25.577294583242875 3.9250626127541928 0 0 1
684 228 2 0.4238 11.444808932171467 25.22154466147621 4.214086253390066 0 0 1
1639 547 1 -0.8476 9.966810226836458 25.380215725057425 3.0590547290569985 0 0 1
294 98 2 0.4238 4.487857660849313 16.27083184734112 8.541249865743627 0 0 0
1653 551 2 0.4238 8.56831667322574 25.07828602564571 6.826930753302646 0 -1 0
501 167 2 0.4238 13.47684893960045 27.889004776935913 6.774798612893465 0 0 0
756 252 2 0.4238 8.277076917397 26.49574067814114 4.879105790398429 0 0 1
157 53 1 -0.8476 5.047601402874811 28.019450362220688 13.906312777223556 0 -1 0
408 136 2 0.4238 18.982600745666275 27.8097738258571 5.106732258418855 0 0 0
1727 576 2 0.4238 17.41721258370866 23.75483185568517 5.974115855807393 0 0 0
464 155 2 0.4238 15.011213903383496 25.466876219480838 5.830362903875387 0 0 0
124 42 1 -0.8476 17.407056165324633 27.573445687833143 4.133744606280958 0 0 0
126 42 2 0.4238 17.70941853767907 27.162356325054 3.2737593859726672 0 0 0
319 107 1 -0.8476 19.985848705179208 24.571733795761617 2.2910532889501676 0 0 0
1535 512 2 0.4238 14.153451481188888 19.469548995814527 14.760490362566545 0 0 0
463 155 1 -0.8476 15.36288314465211 26.284735885572864 5.374920792021565 0 0 0
465 155 2 0.4238 15.043089105025235 27.099290516181817 5.858889324556737 0 0 0
178 60 1 -0.8476 20.0262513014666 25.79734812474525 7.172791776312774 0 0 0
179 60 2 0.4238 20.2174116863388 26.447636836985893 6.437554167014353 0 0 0
180 60 2 0.4238 19.178754325154536 25.306238980113754 6.971414697528092 0 0 0
125 42 2 0.4238 16.622073718086398 27.065358568520985 4.488204895391824 0 0 0
1726 576 1 -0.8476 17.24742737040367 24.487123133274125 6.633597505432084 0 0 0
1728 576 2 0.4238 16.64889896578135 25.1743117454022 6.221859612698304 0 0 0
302 101 2 0.4238 14.850389031942393 24.072184937023316 8.040160812552488 0 0 0
1232 411 2 0.4238 17.541949945609293 24.61514625282514 8.34093784417091 0 0 0
758 253 2 0.4238 19.72500630347917 26.37197791504891 8.743893389172834 0 0 0
761 254 2 0.4238 5.9164944147624 15.53824436988556 4.51480627062761 0 0 0
968 323 2 0.4238 21.614492245390785 16.4734598898518 3.2997610861559608 0 0 0
1678 560 1 -0.8476 24.567663093189523 22.43799897766567 2.2896163628349333 0 0 0
22 8 1 -0.8476 27.107822842783932 22.80119551688935 2.7349814785102007 -1 0 0
1525 509 1 -0.8476 24.081120172328284 22.618011130648036 6.870626700563269 0 0 0
23 8 2 0.4238 26.780959279667897 23.381808819780446 3.480663026974474 -1 0 0
354 118 2 0.4238 25.501716262593717 25.167963274729594 3.297717436127712 0 0 1
351 117 2 0.4238 21.361129729696252 24.59838927740641 7.830234932495562 0 0 0
349 117 1 -0.8476 21.961229127104183 23.97317797244073 8.329218361307966 0 0 0
350 117 2 0.4238 22.259685927609965 23.239418128976645 7.718880476081962 0 0 0
1526 509 2 0.4238 23.404030922003123 22.11887943207531 6.329877470123449 0 0 0
1418 473 2 0.4238 22.150980128151126 23.489305750811674 4.163441933958696 0 0 0
1448 483 2 0.4238 22.93827914563566 24.995409212195902 5.186977784710013 0 0 0
1449 483 2 0.4238 23.82890339058332 24.249236667055108 6.334418527365982 0 0 0
1447 483 1 -0.8476 23.586251666130458 25.133742233713647 5.935968889933548 0 0 0
1183 395 1 -0.8476 22.030575948144126 21.736511185773487 4.736493006066745 0 0 0
1417 473 1 -0.8476 22.036146765243316 24.466506877293476 3.9848828685680915 0 0 0
1419 473 2 0.4238 21.21813617625446 24.60967220739642 3.4277882127339865 0 0 0
1315 439 1 -0.8476 9.643667861775935 19.078483520512833 2.0942523543502127 0 0 0
249 83 2 0.4238 7.764293213753537 21.52354459773523 2.776017365048416 0 0 1
1698 566 2 0.4238 23.869722011525916 26.77234562036282 6.718223001702293 0 0 0
1696 566 1 -0.8476 24.289813236522043 27.647752248790198 6.957343592105379 0 0 0
1697 566 2 0.4238 24.681720100917083 27.589633251593654 7.875506575268199 0 0 0
353 118 2 0.4238 25.365008091510575 25.33586032781666 4.91627441047593 0 0 1
352 118 1 -0.8476 25.828887828566728 24.838297741843697 4.183308449649005 0 0 1
10 4 1 -0.8476 21.403030298083124 27.165321095203737 2.4798933274135453 0 -1 0
12 4 2 0.4238 22.15699044182319 26.535664634762405 2.2926257656830344 0 -1 0
417 139 2 0.4238 3.001143762469283 15.2559329078744 6.495277699655527 0 0 0
24 8 2 0.4238 28.029588238912858 23.085146550708252 2.470948377980466 -1 0 0
1267 423 1 -0.8476 3.8882572417767034 19.90493281972111 7.617446618959193 0 0 0
1268 423 2 0.4238 3.883133264573146 19.704415259742724 8.597119265494564 0 0 0
292 98 1 -0.8476 5.320636053114992 16.402971483768642 9.078847886511946 0 0 0
850 284 1 -0.8476 5.91138735441092 16.007074504045285 14.070534893884375 0 0 0
1692 564 2 0.4238 26.970351886384655 17.011532827421462 14.501473307735896 0 0 0
906 302 2 0.4238 24.250608174755833 22.610371930898104 13.272712381391603 -1 0 0
293 98 2 0.4238 5.947854575473728 15.64170052986334 8.914357336837208 0 0 0
1647 549 2 0.4238 27.82875247183187 16.582803811120662 12.778440077503484 0 0 0
1084 362 1 -0.8476 4.802788015450783 16.795609571413628 11.5906883956546 0 0 0
1085 362 2 0.4238 4.934051361090106 16.505205557917307 10.642833271872453 0 0 0
1086 362 2 0.4238 4.116041812148249 16.213226431420853 12.02566199371029 0 0 0
596 199 2 0.4238 4.303683829496456 18.275274183327646 10.828386912887279 0 0 0
595 199 1 -0.8476 4.0287472326694775 19.15229855773373 10.434394310390372 0 0 0
597 199 2 0.4238 4.798073865033054 19.790083213766053 10.47126324399749 0 0 0
1026 342 2 0.4238 2.323370761742598 18.934637781657756 10.231995561500346 0 0 0
863 288 2 0.4238 7.72629367692111 16.364107900422894 11.082252884588968 0 0 0
862 288 1 -0.8476 8.419114096322602 16.982123528635075 11.453802057235572 0 0 0
1756 586 1 -0.8476 5.924179472861905 21.109984677029203 10.881852118990865 0 0 0
1758 586 2 0.4238 6.762376297378441 20.72164219267701 10.4989564818542 0 0 0
864 288 2 0.4238 8.117381090399785 17.324841130617592 12.343461642669588 0 0 0
1385 462 2 0.4238 13.24157199469704 21.531174039693752 2.6012158557178653 0 0 0
847 283 1 -0.8476 25.851555542958458 22.81062104854871 10.39874433864653 -1 0 0
1645 549 1 -0.8476 2.1955866736165763 15.901046728509348 12.59671637476953 1 0 0
605 202 2 0.4238 8.077761016924583 19.527047098287476 9.011541229144708 0 0 0
317 106 2 0.4238 2.7256075380124014 21.377613030015972 11.033615760237879 0 0 0
852 284 2 0.4238 5.271456098374216 16.608715587893787 13.592509741848282 0 0 0
233 78 2 0.4238 8.379871406266172 15.492845974069109 9.270792424373678 0 0 0
999 333 2 0.4238 10.921570577292211 15.389147271734021 8.318110671175972 0 0 0
1608 536 2 0.4238 12.773354943022845 18.964630756775314 8.10320530866122 0 0 0
524 175 2 0.4238 27.126064894872094 24.48212787099949 14.013102684375083 -1 0 0
1495 499 1 -0.8476 9.893926871440756 16.588075012334016 9.192587845589319 0 0 0
1496 499 2 0.4238 9.913448621829192 17.36326124019331 8.561163056419971 0 0 0
1497 499 2 0.4238 9.695180018947319 16.91552257050324 10.11631390142149 0 0 0
263 88 2 0.4238 12.993336684433098 15.4028414018086 9.053818678786579 0 0 0
341 114 2 0.4238 10.570395688728667 21.008539220200753 11.672404321989431 0 0 0
1406 469 2 0.4238 13.106062915116999 21.0537767213101 13.513381628196909 0 0 0
1606 536 1 -0.8476 12.460731526051005 18.267335365419754 8.748215318951832 0 0 0
1607 536 2 0.4238 13.194187816803842 17.606075010839312 8.90559630306392 0 0 0
1296 432 2 0.4238 10.212981076385159 17.0661027729586 13.002929262089047 0 0 0
412 138 1 -0.8476 12.547246331941844 15.134588575371101 12.195570866078828 0 0 0
413 138 2 0.4238 12.450791173496487 15.99825898436095 12.690305649649915 0 0 0
1738 580 1 -0.8476 16.372383493122985 16.50179443311142 14.491392439140752 0 0 0
1294 432 1 -0.8476 11.160169558785007 17.378550860309694 13.075058046325447 0 0 0
1295 432 2 0.4238 11.299510399562696 17.818060055237616 13.96241860028828 0 0 0
1422 474 2 0.4238 11.643609277616893 18.94058463351511 10.1885656236684 0 0 0
1420 474 1 -0.8476 11.006631810092413 19.175202360386663 10.922872286881821 0 0 0
1421 474 2 0.4238 11.222664091947088 18.635590984676625 11.736593158322451 0 0 0
604 202 1 -0.8476 8.44041575747736 20.10936702764242 9.739124802397086 0 0 0
262 88 1 -0.8476 13.617495498498098 15.686355138831239 9.781856129864494 0 0 0
264 88 2 0.4238 13.42083155338965 15.164101987725903 10.611656020407374 0 0 0
29 10 2 0.4238 14.53616909221469 20.64616655351383 11.585395917784636 0 0 0
28 10 1 -0.8476 15.308949054826392 20.306680400169732 11.049156869036079 0 0 0
30 10 2 0.4238 15.908796542830094 21.069857708591982 10.808874873952847 0 0 0
606 202 2 0.4238 9.283186617539961 19.70831965322838 10.098139195006084 0 0 0
369 123 2 0.4238 19.869522123771176 15.733611500391325 12.721538527523228 0 0 0
675 225 2 0.4238 18.14611697687323 17.95283831313364 9.377797301514422 0 0 0
1004 335 2 0.4238 15.635772185321956 20.101209720693802 12.577173694115467 0 0 0
1003 335 1 -0.8476 16.05798792213188 19.97257240903251 13.474491032850208 0 0 0
1667 556 2 0.4238 19.10836105901256 21.564869046820014 13.535234900551925 0 0 0
1281 427 2 0.4238 16.884275918759585 16.061180422486032 10.989385518061592 0 0 0
1016 339 2 0.4238 15.753221761599713 18.22955177881039 10.324176146433222 0 0 0
1015 339 1 -0.8476 16.088913603952225 17.291798628362493 10.235168405004188 0 0 0
1017 339 2 0.4238 15.355990428056941 16.70698649864331 9.887589630845762 0 0 0
1717 573 1 -0.8476 19.140492193751058 21.058112772198676 9.090090834612205 0 0 0
1718 573 2 0.4238 18.82048837601696 20.152085616396654 8.813135248492488 0 0 0
1719 573 2 0.4238 18.371602730585863 21.588345788926972 9.447377802999345 0 0 0
137 46 2 0.4238 20.622939908340264 20.773968733471648 9.967510873060855 0 0 0
1109 370 2 0.4238 21.320072742716228 19.384952871598294 13.461635930835843 0 0 0
136 46 1 -0.8476 21.520302226564645 20.577730277461157 10.362761916427727 0 0 0
366 122 2 0.4238 17.445839449894045 17.467788980093474 13.764782246817472 0 0 0
367 123 1 -0.8476 20.241570742603223 16.655984882702537 12.617619110803103 0 0 0
191 64 2 0.4238 19.209602729221714 19.45923057284923 14.346531425377515 0 0 0
364 122 1 -0.8476 17.9668978404395 18.151404240616095 13.253743673790755 0 0 0
365 122 2 0.4238 18.82774733107773 17.74950975580761 12.941636296116322 0 0 0
1739 580 2 0.4238 16.165628949425376 15.659151240901126 13.994203181985968 0 0 0
1337 446 2 0.4238 20.723298156979588 17.194950639734863 10.764707635428989 0 0 0
1110 370 2 0.4238 21.738653461296806 19.284259737878322 11.886435532343835 0 0 0
1336 446 1 -0.8476 20.835190971327286 17.437925026946658 9.801153654814419 0 0 0
1679 560 2 0.4238 24.150675110358897 23.244830244377432 2.7081093247075683 0 0 0
926 309 2 0.4238 19.505681488348664 18.749896179651337 2.175586069871198 0 0 0
1075 359 1 -0.8476 25.048621939139373 15.312648056614723 5.8102158315365 0 0 0
963 321 2 0.4238 25.214895999535607 27.706979128724896 10.281907944557963 0 0 0
523 175 1 -0.8476 27.837096971197987 25.116662615976885 14.31607353057773 -1 0 0
1625 542 2 0.4238 5.952397724520292 28.15922500668951 6.83198088941752 0 -1 0
1024 342 1 -0.8476 27.67149478390386 18.841295339037977 10.169796216262354 -1 0 0
368 123 2 0.4238 20.87374205722653 16.84695664467155 13.368539417907481 0 0 0
1690 564 1 -0.8476 26.136441268956176 16.99779438266399 13.949750984884426 0 0 0
888 296 2 0.4238 9.72397851757011 28.107662799897838 3.3393939714389003 0 0 1
1000 334 1 -0.8476 22.07881097578867 16.74197620310167 14.538490024138277 0 0 0
1001 334 2 0.4238 22.37541592003329 17.580990765968856 14.082340547450451 0 0 0
1108 370 1 -0.8476 22.07257279695105 19.21173117831445 12.826238451191736 0 0 0
1338 446 2 0.4238 21.61341179126881 18.058028392038864 9.70197521429916 0 0 0
1025 342 2 0.4238 27.423933986112402 18.5134104854979 9.258095907872203 -1 0 0
1235 412 2 0.4238 24.182785236968577 19.615209002719496 9.98569892417872 0 0 0
1234 412 1 -0.8476 23.839523769508837 19.880295629387334 9.084647858439201 0 0 0
374 125 2 0.4238 25.589575257211727 15.788177325168009 8.734683883263987 0 0 0
1079 360 2 0.4238 26.506428950700922 19.686016151412083 11.000650670772453 0 0 0
250 84 1 -0.8476 24.27171294562124 16.25729316204255 9.698966548372503 0 0 0
540 180 2 0.4238 23.421928553148277 18.63533835732825 12.205642327363481 0 0 0
1661 554 2 0.4238 12.03919014624152 26.42661911049681 5.847642047896057 0 -1 0
1733 578 2 0.4238 25.900788401344336 20.293455563471632 13.40620748201391 0 0 0
539 180 2 0.4238 24.92497190753994 18.814373260428518 11.592933250806892 0 0 0
251 84 2 0.4238 24.157779319433935 16.982902837788814 10.377569370330395 0 0 0
538 180 1 -0.8476 24.132075727613277 18.207389752381225 11.646586844311727 0 0 0
1236 412 2 0.4238 22.9769248354225 20.37530175697418 9.188977532037807 0 0 0
1078 360 1 -0.8476 25.914253435474812 20.28636660419521 11.538144458955635 0 0 0
252 84 2 0.4238 23.91581947746785 15.398158666617848 10.066689014880588 0 0 0
478 160 1 -0.8476 3.8854079043969154 21.395001960288624 13.875904262212172 0 0 0
1662 554 2 0.4238 12.017261477594818 26.266867507939857 7.472635523431643 0 -1 0
101 34 2 0.4238 7.901648483569429 18.126634834606264 14.653439124835199 0 0 0
848 283 2 0.4238 25.26441672446797 23.588124441679632 10.173469942510701 -1 0 0
393 131 2 0.4238 21.60876496080629 24.740525832233793 13.372455664852804 0 0 0
1660 554 1 -0.8476 12.088720231133017 26.918087262882025 6.717123438479357 0 -1 0
849 283 2 0.4238 26.665989034156574 22.82891612855999 9.818782735709748 -1 0 0
1429 477 1 -0.8476 3.7807818975364564 27.35883361839246 9.60022437157304 0 -1 0
1519 507 1 -0.8476 7.980289349223388 22.354542464437372 8.439887761317433 0 -1 0
1520 507 2 0.4238 8.233165841611699 21.560987429962978 8.993345926946809 0 -1 0
519 173 2 0.4238 25.58862260339494 15.658457198880813 13.525752156202218 -1 0 0
961 321 1 -0.8476 25.23695648884822 27.23319999369634 9.401545088953956 0 0 0
1284 428 2 0.4238 27.74023659612981 26.75799196005631 7.459037408125431 0 0 0
371 124 2 0.4238 26.624217893823932 27.18437472827354 11.717125461590882 0 -1 0
426 142 2 0.4238 5.84361223602832 26.985841634057607 12.606167959920738 0 -1 0
1431 477 2 0.4238 4.296219390475972 26.748363719035282 8.998855987884891 0 -1 0
676 226 1 -0.8476 5.594790237218039 25.71399439658314 8.366048767767234 0 0 0
677 226 2 0.4238 6.587943002879358 25.8307866049284 8.365517641877211 0 0 0
316 106 1 -0.8476 2.4319529312827086 21.958046906093827 11.793125835849592 0 0 0
1539 513 2 0.4238 4.797327563214105 22.3867675203107 9.36215720826678 0 -1 0
1757 586 2 0.4238 6.134966322854517 21.5759804488185 11.74116001678119 0 0 0
424 142 1 -0.8476 5.810851229498834 26.292869465843694 11.885953859334162 0 -1 0
525 175 2 0.4238 1.8476374507330462 25.622934475561337 13.528970954688198 0 0 0
678 226 2 0.4238 5.373097792061396 24.74583184644498 8.4822690510881 0 0 0
318 106 2 0.4238 27.85113003310377 22.299682012802798 11.614166536500425 -1 0 0
479 160 2 0.4238 3.4479797133324857 21.418880626208036 12.976972410392284 0 0 0
584 195 2 0.4238 5.2635313770801515 22.402955611536996 13.163143719448993 0 -1 0
585 195 2 0.4238 5.657119565900388 23.826959669911318 12.46750965627788 0 -1 0
583 195 1 -0.8476 6.011486430498352 22.946296462947004 12.78191226604703 0 -1 0
1537 513 1 -0.8476 4.468969253169396 23.09142017783077 8.733159778399783 0 -1 0
1125 375 2 0.4238 2.5986987019653554 23.890464705447854 9.145899117816011 0 0 0
1123 375 1 -0.8476 27.971230442583007 23.98782497847092 9.371760981512725 -1 0 0
1460 487 2 0.4238 27.865201551460608 25.333459849371224 10.728765138789795 -1 -1 0
1461 487 2 0.4238 2.5018193478633717 26.638867057257066 10.800855763304995 0 -1 0
1459 487 1 -0.8476 28.066172714882157 26.176661491253803 11.22737760043174 -1 -1 0
1538 513 2 0.4238 4.232686215019662 22.67195560068923 7.856682752680338 0 -1 0
1124 375 2 0.4238 27.592167510248323 24.773113329005845 8.882243918626397 -1 0 0
425 142 2 0.4238 5.152277719233842 26.57010139301103 11.186371541108757 0 -1 0
1708 570 1 -0.8476 23.86231086827565 25.020236252535092 9.936852818630244 0 0 0
1283 428 2 0.4238 26.392855113029206 26.466362146441256 8.334320457285518 0 0 0
661 221 1 -0.8476 23.175941833422712 25.57617754283492 13.293139894505197 0 0 0
1311 437 2 0.4238 12.870826964674823 27.097864465696915 12.287854479883645 0 -1 0
1309 437 1 -0.8476 13.513562521162301 26.69818117228776 11.634297555650065 0 -1 0
1521 507 2 0.4238 8.07266007425986 23.186044625988536 8.987668585211418 0 -1 0
1735 579 1 -0.8476 12.998612553667774 25.514639717864277 14.269119209846789 0 0 0
27 9 2 0.4238 12.529556095919778 22.600745672361533 9.328424846076922 0 0 0
342 114 2 0.4238 9.554344350286149 22.003804836090325 12.474708373217938 0 0 0
340 114 1 -0.8476 10.346504379240228 21.963786121128123 11.865714420976168 0 0 0
1407 469 2 0.4238 12.317044052650042 21.893467476446666 12.356240661246026 0 0 0
1405 469 1 -0.8476 13.185902516533575 21.465895826980507 12.605759910739037 0 0 0
1005 335 2 0.4238 16.818132335048148 19.327605737882514 13.395810714685911 0 0 0
1736 579 2 0.4238 13.797598314491577 25.029188533930544 13.914222643662837 0 0 0
143 48 2 0.4238 8.61350469824519 26.598493232193796 8.805329842111203 0 -1 0
1703 568 2 0.4238 9.051569475380285 25.26954914722952 13.798366190544591 0 0 0
1794 598 2 0.4238 7.48101293401952 26.01593746913248 11.793385891375605 0 -1 0
144 48 2 0.4238 9.09045166027748 25.156368687277016 9.404832665093158 0 -1 0
142 48 1 -0.8476 8.467863894843937 25.609898149798035 8.76711207611562 0 -1 0
152 51 2 0.4238 9.53246658982913 27.486134432593296 12.280895183684855 0 -1 0
1793 598 2 0.4238 8.83210819186817 25.16341102896922 11.455233314150872 0 -1 0
1702 568 1 -0.8476 9.27677287226042 24.713787597271647 14.598619012908543 0 0 0
1792 598 1 -0.8476 8.398380676387145 25.77899248453005 12.113209395151362 0 -1 0
904 302 1 -0.8476 24.859669347390643 23.38005245259636 13.081326416213088 -1 0 0
169 57 1 -0.8476 10.048733956042364 24.255769372831878 10.479267212145466 0 0 0
171 57 2 0.4238 10.89023800070485 24.53247603382635 10.015266763613072 0 0 0
170 57 2 0.4238 10.206372705524739 23.40100847068239 10.973762793976128 0 0 0
754 252 1 -0.8476 8.654897580596431 27.335645703014606 4.489486512194767 0 0 1
1210 404 1 -0.8476 12.379658169285259 25.389546765988662 9.31214464338531 0 0 0
1211 404 2 0.4238 12.440653816901019 26.187761153539782 9.9114153373393 0 0 0
1613 538 2 0.4238 14.223834062676534 22.89628684194622 12.551597423413924 0 0 0
1212 404 2 0.4238 13.280190079322749 24.96185127778228 9.233972302782831 0 0 0
1612 538 1 -0.8476 14.556208394709778 23.830146250287207 12.41958655120664 0 0 0
1343 448 2 0.4238 14.460530767103197 27.70713727604528 10.282125443286954 0 0 0
1310 437 2 0.4238 13.764892448201353 25.77793415409385 11.934249846913989 0 -1 0
1342 448 1 -0.8476 15.013833971665154 28.133513283770206 9.566547977515723 0 0 0
1666 556 1 -0.8476 19.020161132355533 22.378573657395336 12.960693678775 0 0 0
1668 556 2 0.4238 19.76194931495916 23.015919505222946 13.169338474636534 0 0 0
138 46 2 0.4238 21.862871998079164 21.39146645674535 10.832305760845086 0 0 0
1089 363 2 0.4238 17.886436838608617 22.109824105110455 11.478264625055935 0 0 0
1087 363 1 -0.8476 17.157112966488903 22.304947120700724 10.822515510573826 0 0 0
301 101 1 -0.8476 14.900737988821259 24.179958993782066 9.033056769738447 0 0 0
1710 570 2 0.4238 23.271190940034472 25.212983540033605 10.72006272629408 0 0 0
159 53 2 0.4238 4.874214159221891 27.30217127276204 14.581175447761412 0 -1 0
303 101 2 0.4238 15.840214827562777 24.397824416251446 9.297463420968587 0 0 0
1691 564 2 0.4238 25.651341404114085 17.865618854341015 14.057227527191497 0 0 0
1641 547 2 0.4238 9.903504140490519 25.258000372352534 2.0685758249752397 0 0 1
1233 411 2 0.4238 18.137302480648103 25.492528692580223 9.582855977697543 0 0 0
1231 411 1 -0.8476 17.532006945267863 24.736604573798296 9.333480576912851 0 0 0
1614 538 2 0.4238 15.504471962972833 23.80482707381318 12.103125826297545 0 0 0
357 119 2 0.4238 21.957359148849918 23.172928020298997 10.220332888412093 0 0 0
1088 363 2 0.4238 17.354620701563107 23.163935571299213 10.350157060324026 0 0 0
1694 565 2 0.4238 18.43961789486118 27.956291702380156 10.015812579379357 0 0 0
515 172 2 0.4238 18.038398582343483 23.44748150387386 14.04826267619913 0 0 0
392 131 2 0.4238 20.082912109266303 24.98365428394012 13.900912718627339 0 0 0
757 253 1 -0.8476 19.350513199322485 26.6209020652434 9.637080797326199 0 0 0
905 302 2 0.4238 25.113360580909855 23.371840543814557 12.114079908076196 -1 0 0
355 119 1 -0.8476 21.901690734193217 23.19958702391739 11.218422533860375 0 0 0
356 119 2 0.4238 21.220284291023688 23.876693509153725 11.496279624214026 0 0 0
1471 491 1 -0.8476 19.320793486426105 26.453967000147706 14.368269290252428 0 0 0
391 131 1 -0.8476 20.74764838777009 24.293567739620315 13.614733931349923 0 0 0
759 253 2 0.4238 20.00609422585118 26.37921361376977 10.352477379428136 0 0 0
1292 431 2 0.4238 22.108904966923262 26.11850291877274 12.02309249321949 0 0 0
1674 558 2 0.4238 25.205033562658237 27.765536228252117 13.428585102329384 0 0 0
1291 431 1 -0.8476 21.478110458841485 26.174495156201814 11.249170523285022 0 0 0
663 221 2 0.4238 23.774627484745857 24.77521029099686 13.297498758554276 0 0 0
1282 428 1 -0.8476 27.10958060935271 26.049345006936292 7.775398891144453 0 0 0
918 306 2 0.4238 8.724887065431211 23.282656997215597 14.26729410473584 0 0 0
514 172 1 -0.8476 17.660935022954412 24.071439001159824 14.732507621042235 0 0 0
1472 491 2 0.4238 18.846598736805298 27.25638688839109 14.005979279771756 0 0 0
419 140 2 0.4238 23.390951765103964 20.772794098071678 2.299365467798488 0 0 0
1344 448 2 0.4238 15.983042007223261 27.978278119827543 9.757675840209973 0 0 0
1680 560 2 0.4238 25.56266518328261 22.53777951781565 2.292214471814331 0 0 0
821 274 2 0.4238 14.065677663062328 16.284882181516274 2.150372706875787 0 0 1
1646 549 2 0.4238 2.149445915126053 15.179928646774522 13.287984990176147 1 0 0
85 29 1 -0.8476 19.81331596193221 15.155338044811506 8.302238717597113 0 0 0
1059 353 2 0.4238 2.541856028388775 15.587692208449258 2.460997438853818 0 0 0
1142 381 2 0.4238 26.940904941619806 16.86158749496869 1.96519565858196 0 0 1
328 110 1 -0.8476 2.150590451400657 28.11991778257488 6.748881448756728 0 -1 0
1279 427 1 -0.8476 17.114566708377687 15.168075191853614 11.375806655655934 0 0 0
133 45 1 -0.8476 8.95734306071152 28.134672371995524 8.560283866830723 0 -1 0
86 29 2 0.4238 18.86255732105566 15.020795652872907 8.58143133610488 0 0 0
1245 415 2 0.4238 11.881965236398779 19.591030409464707 14.983398650620257 0 0 0
972 324 2 0.4238 4.151791224327038 23.298884679327713 1.8719100450034176 0 0 1
1347 449 2 0.4238 16.88665777702687 20.606022904934314 1.9060204065509296 0 0 1
527 176 2 0.4238 4.908085992957535 20.39187849383744 17.01461223869935 0 0 0
502 168 1 -0.8476 7.470539044387166 15.763804986531238 17.72845238329291 0 0 0
503 168 2 0.4238 7.917607686165913 16.37258749495855 18.383819098264063 0 0 0
526 176 1 -0.8476 4.886681982556828 19.872961161864197 16.160060360138445 0 0 0
528 176 2 0.4238 4.255926413880373 20.311217327369548 15.51969164160713 0 0 0
1720 574 1 -0.8476 4.112638832082221 19.68610108203451 19.040456743314124 0 0 0
1721 574 2 0.4238 4.307555397200103 18.70579223862712 19.00892635343203 0 0 0
43 15 1 -0.8476 4.219281896409764 21.569017260548932 20.79189617698752 0 0 0
1112 371 2 0.4238 4.848353930904146 16.503256879563857 18.23010980023151 1 0 0
44 15 2 0.4238 4.081184383142557 20.935474504286113 20.030617837939225 0 0 0
45 15 2 0.4238 5.197918866712905 21.660711845565835 20.97589037643887 0 0 0
853 285 1 -0.8476 4.6091165745097005 17.07313557751909 16.23703347678834 0 0 0
854 285 2 0.4238 5.304876128600226 16.587223176811367 15.70807178091722 0 0 0
1374 458 2 0.4238 6.628378266617152 20.054193237104776 21.16644573731144 0 0 0
855 285 2 0.4238 4.7643886466519305 18.058464568807608 16.166251099826045 0 0 0
1111 371 1 -0.8476 4.790105835373209 16.805740957864412 19.181479006521762 1 0 0
1113 371 2 0.4238 5.444849696843475 16.291489088825312 19.735417993465077 1 0 0
1774 592 1 -0.8476 8.456999456432811 17.61954563505602 19.561014597565382 0 0 0
1776 592 2 0.4238 9.289266800481712 17.939428012576805 19.10824654139612 0 0 0
1775 592 2 0.4238 8.668976258076633 17.359382959059744 20.50301989034589 0 0 0
102 34 2 0.4238 8.828493392657911 16.850507899090026 15.07659841458374 0 0 0
1610 537 2 0.4238 7.588204264591927 19.451646047440946 16.717266657528725 0 0 0
1611 537 2 0.4238 7.649920374241587 18.77833455750151 18.203688095612414 0 0 0
1609 537 1 -0.8476 8.012701244458684 19.50562546295425 17.62108146115819 0 0 0
1302 434 2 0.4238 6.191510192705372 19.969975558724634 15.137846378983863 0 0 0
1139 380 2 0.4238 16.16034075518695 27.832527404778986 16.280375408233176 0 0 0
1383 461 2 0.4238 3.257635514611046 27.578664774610033 18.71655067620607 0 0 0
1373 458 2 0.4238 6.5760078524570815 18.531052471682777 20.580011622039578 0 0 0
865 289 1 -0.8476 28.083176293377434 20.969220511384464 16.08661508150953 0 0 0
447 149 2 0.4238 7.214250059987566 27.602573556669277 20.537915691676083 0 -1 0
1742 581 2 0.4238 9.763618002844524 19.530200128431318 18.062359318341528 0 0 0
1243 415 1 -0.8476 11.106280151900615 19.02531888292979 15.263175645911076 0 0 0
1522 508 1 -0.8476 13.598706199038881 19.190309699643777 18.6488349294779 0 0 0
1523 508 2 0.4238 13.864944877798644 19.983944886566228 18.101794571091823 0 0 0
1723 575 1 -0.8476 10.25768191048088 16.629877436650183 16.261349269864194 0 0 0
1724 575 2 0.4238 10.964713367011152 17.329178648618672 16.156103061488956 0 0 0
1725 575 2 0.4238 10.379228986070384 16.162109846338907 17.13679881259329 0 0 0
1524 508 2 0.4238 13.28046758423507 19.49570191824175 19.54630538879573 0 0 0
1741 581 1 -0.8476 10.617394804261643 19.499030232778928 18.58205775541596 0 0 0
1743 581 2 0.4238 11.389511440939511 19.645756960206583 17.96375420522164 0 0 0
1331 444 2 0.4238 15.327114985946068 16.916495882762106 18.049188559937804 0 0 0
1260 420 2 0.4238 14.0045488549457 17.738859797574182 19.186853759851722 0 0 0
1258 420 1 -0.8476 14.341363270299501 16.833636336015363 19.445926374126287 0 0 0
544 182 1 -0.8476 23.972010042941854 15.24483852657871 17.675079982534058 0 0 0
467 156 2 0.4238 27.004452724773785 15.066921378966036 20.83544842028592 0 0 0
1536 512 2 0.4238 13.764187773415745 20.704018002526418 15.756063191745854 0 0 0
1386 462 2 0.4238 13.68547063049271 20.28391662115905 27.987040228731367 0 0 -1
1259 420 2 0.4238 14.59447813567787 16.836482335107913 20.413354318868784 0 0 0
1330 444 1 -0.8476 15.987238679190094 17.012282341509508 17.30416929103989 0 0 0
558 186 2 0.4238 13.0406842241381 15.841078951992987 18.652472853859848 0 0 0
1244 415 2 0.4238 10.417006668795244 19.599651105749295 15.704805122531987 0 0 0
1056 352 2 0.4238 8.03594421660545 19.16042894914859 22.394078950618443 0 0 0
261 87 2 0.4238 15.878652202739184 23.735164695764396 27.83108118234464 0 0 0
176 59 2 0.4238 16.551206916556424 15.492964836171081 27.7500940176974 0 0 -1
66 22 2 0.4238 19.338293914920456 28.12546245404502 18.19094415614027 0 0 0
737 246 2 0.4238 7.5603349989087 15.339731542709131 23.670019598444398 0 0 0
589 197 1 -0.8476 17.31532805449349 19.37375627785709 17.41644566202539 0 0 0
590 197 2 0.4238 18.271275253827348 19.09610337455304 17.321230808864993 0 0 0
591 197 2 0.4238 17.16493164824951 20.22740693095917 16.917793931460633 0 0 0
1332 444 2 0.4238 16.402916537701856 17.92100572004844 17.341928891700146 0 0 0
843 281 2 0.4238 23.44838630893925 18.632207500121254 17.08466107987288 0 0 0
1467 489 2 0.4238 16.6042963773357 15.180765670241087 17.737928073970537 0 0 0
1156 386 1 -0.8476 20.144036355852748 18.83489936639741 17.401002947714744 0 0 0
1157 386 2 0.4238 20.19402034991436 17.983881394099036 17.92374799234333 0 0 0
1158 386 2 0.4238 20.63292575868406 19.55643161137828 17.891280313018846 0 0 0
192 64 2 0.4238 20.297923137749926 19.42629491130051 15.56352749490415 0 0 0
782 261 2 0.4238 11.337093529750835 27.869882198844017 18.988018130387033 0 -1 0
1656 552 2 0.4238 19.713888081816037 16.731625997056504 19.95259586940046 0 0 0
13 5 1 -0.8476 21.33817375783819 20.856471125905784 18.80634304018149 0 0 0
1654 552 1 -0.8476 19.563092135031376 16.168360239308782 19.140201246362956 0 0 0
1274 425 2 0.4238 17.290039426226464 19.513611486779105 19.45912001055732 0 0 0
14 5 2 0.4238 21.7083259241955 20.460518493081317 19.646700683421287 0 0 0
631 211 1 -0.8476 16.968033638486702 21.42179793754468 15.802294643425189 0 0 0
81 27 2 0.4238 19.088209609884224 18.85608085210459 20.61540774297591 0 0 0
1273 425 1 -0.8476 17.699732731130634 19.704180319565594 20.351211355043034 0 0 0
79 27 1 -0.8476 19.860730787693548 18.30574408839562 20.932160850199942 0 0 0
91 31 1 -0.8476 22.789296466099444 19.888445358584477 21.01027851633952 0 0 0
600 200 2 0.4238 19.972709073128506 21.86906132412144 20.05571496886379 0 0 0
1275 425 2 0.4238 17.945757123300766 20.67193955179051 20.405119815357374 0 0 0
80 27 2 0.4238 20.246959974434816 18.717360959196967 21.75762472522078 0 0 0
946 316 1 -0.8476 19.234700167275506 22.725591035735157 22.988092618423607 0 0 0
1655 552 2 0.4238 18.65401038194456 15.75425265452363 19.18578015882641 0 0 0
1597 533 1 -0.8476 15.02629714999815 22.03508736047717 20.83222757537191 0 0 0
809 270 2 0.4238 10.245108209672486 15.33079687738755 20.85216790840318 0 0 0
1225 409 1 -0.8476 23.027735066961448 24.60441055370447 26.582696751214556 0 0 0
1412 471 2 0.4238 11.211252756448284 22.84991910592241 28.15304803291501 0 0 -1
1722 574 2 0.4238 3.137393253538412 19.837383322725977 18.879205877455234 0 0 0
1494 498 2 0.4238 21.4045879381626 19.79832257133245 27.734623280225456 0 0 0
1470 490 2 0.4238 2.8611105850869896 16.89474671341044 15.81775930410164 1 0 0
93 31 2 0.4238 23.438242074851416 19.128439127351697 21.04566803654062 0 0 0
1182 394 2 0.4238 23.924956548056826 23.444126329868794 18.088227445999102 0 0 0
15 5 2 0.4238 22.01622333052093 21.468593122843608 18.3994677610402 0 0 0
1180 394 1 -0.8476 23.37933177886982 22.608159505909867 18.146922822003525 0 0 0
1181 394 2 0.4238 23.396658908834496 22.13624730924328 17.26545207417835 0 0 0
1468 490 1 -0.8476 1.995920648666381 16.476449397693365 15.541234826268706 1 0 0
32 11 2 0.4238 27.4255458856804 17.167020658487985 17.192357717784823 0 0 0
31 11 1 -0.8476 27.18494849446909 17.4200709771587 18.129411968702833 0 0 0
33 11 2 0.4238 27.307843482923133 16.630030137483928 18.73001637376766 0 0 0
1144 382 1 -0.8476 27.82172552030204 19.684893223950922 19.102244423503045 0 0 0
1146 382 2 0.4238 27.519928902585562 18.752305709398165 18.904276164346825 0 0 0
1145 382 2 0.4238 27.341520347824726 20.026168318800906 19.91028299411311 0 0 0
817 273 1 -0.8476 3.498361800670306 18.188185250634305 27.850152668999726 0 0 -1
360 120 2 0.4238 23.45201834620285 21.357689726344375 20.995570877696792 0 0 0
841 281 1 -0.8476 24.150971422708785 17.934285301782317 16.945841440928344 0 0 0
842 281 2 0.4238 25.056038215566893 18.350032050920802 17.035289086588087 0 0 0
545 182 2 0.4238 24.03561403092082 16.226600924454768 17.495942993037474 0 0 0
669 223 2 0.4238 3.9333996629800505 16.420801094956353 20.97101400693561 1 0 0
1002 334 2 0.4238 22.610696273914456 16.611579753745275 15.375202016148219 0 0 0
1348 450 1 -0.8476 23.378081551763252 20.914344249493126 15.793854666394514 0 0 0
819 273 2 0.4238 2.843517754516225 18.531181735016503 27.176709706718313 0 0 -1
1706 569 2 0.4238 13.792037106443269 27.680539376334593 27.925912402400506 0 0 0
149 50 2 0.4238 10.872229183685723 22.803946082761 16.13986134979161 0 0 0
867 289 2 0.4238 27.919605868875514 20.582284929967884 16.99409383943869 0 0 0
439 147 1 -0.8476 26.732571317245856 25.22095788903745 20.132207647891896 0 0 0
441 147 2 0.4238 27.417275765966565 24.49393790612205 20.183339729195467 0 0 0
89 30 2 0.4238 2.5743949202370215 22.347900747685507 20.795151826279607 0 0 0
88 30 1 -0.8476 28.082853474195666 22.808295556926446 21.10101842637838 -1 0 0
1444 482 1 -0.8476 28.08019618526599 27.442739174101938 16.242345103733584 -1 0 0
395 132 2 0.4238 5.181180116378304 25.305066450094913 16.190723544039773 0 -1 0
225 75 2 0.4238 2.453558329265094 23.968554351159923 15.212719468631827 0 0 0
701 234 2 0.4238 6.228280751698809 23.25560662317124 17.254611806545086 0 -1 0
1445 482 2 0.4238 27.771826384489422 26.665058254552655 15.6945194923487 -1 0 0
223 75 1 -0.8476 3.0558426423506626 23.239608888173898 15.538117953262336 0 0 0
1101 367 2 0.4238 7.540502826668453 21.287811576192837 17.72159263824281 0 0 0
260 87 2 0.4238 16.79985119612655 22.4760585486083 27.348743757133555 0 0 0
224 75 2 0.4238 3.851017513005859 23.64189837858732 15.991827249856156 0 0 0
394 132 1 -0.8476 4.750367254421125 26.021233793592714 15.641635304330919 0 -1 0
440 147 2 0.4238 27.18006440829261 26.084523131017498 19.89983400260069 0 0 0
1446 482 2 0.4238 1.9812885638061761 27.128524299530284 17.160092395930075 0 0 0
1382 461 2 0.4238 3.956546582813309 26.128130925684935 18.988728974649433 0 0 0
700 234 1 -0.8476 5.423738291061057 23.84265308881816 17.164723447098062 0 -1 0
702 234 2 0.4238 5.137657441665876 24.156958834539104 18.069909447850577 0 -1 0
1381 461 1 -0.8476 3.3236350901829503 26.632068890241598 18.40096780844256 0 0 0
908 303 2 0.4238 2.6819728539154033 26.372113671089032 21.878199959765055 1 0 0
1238 413 2 0.4238 14.021027032583719 25.19075914708246 27.96327853473027 0 0 -1
1530 510 2 0.4238 18.03280972403997 27.985698869332566 26.40177759074875 0 0 0
188 63 2 0.4238 9.471929179147974 25.801508625080203 17.515660575090884 0 -1 0
1346 449 2 0.4238 16.081497018688943 20.345528788798298 26.851240001431997 0 0 0
1399 467 1 -0.8476 20.855391240195615 27.216260930488346 24.484799245771377 0 0 0
445 149 1 -0.8476 7.287995775317564 26.625166671101304 20.33985157579672 0 -1 0
446 149 2 0.4238 8.144089381567563 26.44705648935289 19.854699498673043 0 -1 0
1704 568 2 0.4238 9.11045674581636 25.243890546375475 15.430076697018146 0 0 0
477 159 2 0.4238 13.178446115083101 27.18942644809011 20.02866256277855 0 -1 0
921 307 2 0.4238 13.764822385971527 24.409322090721332 17.660460777495437 0 -1 0
919 307 1 -0.8476 12.960941479389254 23.89866929604765 17.965421864826332 0 -1 0
1677 559 2 0.4238 13.86218452068084 22.398399912887285 17.397991373096737 0 0 0
1675 559 1 -0.8476 14.402304915806237 21.574286222640964 17.227406674409497 0 0 0
1676 559 2 0.4238 15.285980524021944 21.83013371156759 16.83542204119994 0 0 0
1216 406 1 -0.8476 9.735781629222757 21.524521406024967 16.194397544971558 0 0 0
475 159 1 -0.8476 12.27492286226691 26.765495343921543 20.091273870145415 0 -1 0
1217 406 2 0.4238 9.24646488440623 21.69055682321231 15.338246412818467 0 0 0
1100 367 2 0.4238 8.069584320363813 22.283812769871332 18.902549838871785 0 0 0
1099 367 1 -0.8476 7.70660553127848 22.241669144217155 17.97170990025679 0 0 0
572 191 2 0.4238 14.517841868926885 27.54075676903463 21.629717505354506 0 -1 0
452 151 2 0.4238 10.682447143434272 26.210181259688632 19.463778539897135 0 0 0
1218 406 2 0.4238 9.198415464713094 21.87907776439974 16.95959060218231 0 0 0
453 151 2 0.4238 9.970705416658298 24.746768849365623 19.599620542213373 0 0 0
168 56 2 0.4238 13.68664158165887 23.10172965435587 21.056798871463123 0 0 0
167 56 2 0.4238 12.697664411961547 23.81401125134304 19.969975823057993 0 0 0
451 151 1 -0.8476 9.817820473296125 25.7129381933092 19.39193078456762 0 0 0
166 56 1 -0.8476 12.880830791397491 23.68311162614902 20.944299901364964 0 0 0
1345 449 1 -0.8476 16.88742317789979 20.77211693628012 27.261724615253826 0 0 0
920 307 2 0.4238 12.337198869738414 23.767680363366402 17.194851230502103 0 -1 0
476 159 2 0.4238 12.129746682304404 26.425922291984904 21.02057794255606 0 -1 0
710 237 2 0.4238 16.438764765565605 24.516716208547578 20.894687134441988 0 0 0
815 272 2 0.4238 24.503748466028632 22.56878877761288 24.448574497208327 0 0 0
187 63 1 -0.8476 9.169843088187069 26.320206425120638 16.715855191440365 0 -1 0
400 134 1 -0.8476 10.678748881788593 28.07568191420627 15.323387737568906 0 -1 0
1631 544 2 0.4238 13.144719689588731 26.69960950293489 15.284369374448984 0 0 0
189 63 2 0.4238 8.47964133157609 26.98854125990453 16.99323965572535 0 -1 0
148 50 1 -0.8476 11.279093904656337 23.68211382777215 15.888316952547415 0 0 0
632 211 2 0.4238 17.34485941857103 22.326738529996824 15.60461479618494 0 0 0
880 294 1 -0.8476 16.568970678273022 23.61058708728943 19.31669073253711 0 0 0
881 294 2 0.4238 17.54152407687907 23.510822928997655 19.106501723902944 0 0 0
882 294 2 0.4238 16.08605872544105 23.947111890356204 18.508272654679914 0 0 0
950 317 2 0.4238 15.850076375390143 25.550471876149984 17.284908004569544 0 0 0
949 317 1 -0.8476 15.562362877494156 24.68793053758985 16.868690674291173 0 0 0
1166 389 2 0.4238 19.630736672168048 23.400451095884286 18.075460846821066 0 0 0
1165 389 1 -0.8476 19.424939126614106 24.246008234897204 17.582842818830166 0 0 0
778 260 1 -0.8476 15.97807435799069 27.07799926295918 18.269968051944296 0 0 0
779 260 2 0.4238 16.954132515304984 26.91380824502339 18.412599939792635 0 0 0
1103 368 2 0.4238 18.86365413566834 27.36605706869765 22.209924015674055 0 0 0
1167 389 2 0.4238 20.162028191415878 24.442979003986082 16.93639539499302 0 0 0
1097 366 2 0.4238 19.015380933423394 25.900199944709932 18.42739487928118 0 0 0
1098 366 2 0.4238 18.977765370412712 26.70540350353008 19.847548931337805 0 0 0
1778 593 2 0.4238 20.70266760664144 23.353635880031213 22.058463966942597 0 0 0
1096 366 1 -0.8476 18.67130379671105 26.714008820816133 18.895708973788423 0 0 0
285 95 2 0.4238 20.120461367066028 25.11153138198963 21.559419642922094 0 0 0
598 200 1 -0.8476 19.038729842146246 22.120407939053564 20.309683330404404 0 0 0
951 317 2 0.4238 16.07115063203389 24.54112365967216 16.020412672019326 0 0 0
156 52 2 0.4238 22.322894908581794 25.681906922322597 16.702173198698247 0 0 0
1777 593 1 -0.8476 21.319073749649192 23.870150254536632 21.464116164804587 0 0 0
816 272 2 0.4238 23.703343649212883 23.76800444960574 23.681867683683073 0 0 0
284 95 2 0.4238 18.489802828607452 25.157087013661673 21.633467063931853 0 0 0
711 237 2 0.4238 15.940482136308264 26.041336395568884 21.201042558096724 0 0 0
599 200 2 0.4238 19.00664068846079 22.34263929169034 21.284145654798166 0 0 0
283 95 1 -0.8476 19.313848360722183 25.691537946292613 21.445574641180137 0 0 0
1107 369 2 0.4238 20.44774437506579 15.777818130504414 27.31450456329538 0 0 0
154 52 1 -0.8476 21.620224963357508 25.12031047198404 16.26530165281178 0 0 0
359 120 2 0.4238 23.776919259329134 22.591235933875303 19.97605707281165 0 0 0
1240 414 1 -0.8476 18.04062983189843 15.956492716202488 22.300126625864365 0 0 0
818 273 2 0.4238 3.548112675006658 17.19130248936091 27.788980771545184 0 0 -1
90 30 2 0.4238 27.404601388785238 22.124993433314863 21.371322736305018 -1 0 0
844 282 1 -0.8476 24.007630402898826 26.836004003754837 16.846417234224127 -1 0 0
548 183 2 0.4238 23.657550705926184 25.420406950647234 20.655778973483294 0 0 0
21 7 2 0.4238 24.968866001940533 25.445121971591128 17.702981891629506 0 0 0
358 120 1 -0.8476 23.650547587789276 22.33588273860437 20.934606505817285 0 0 0
19 7 1 -0.8476 24.824223568472405 24.746693080218662 18.403887242234582 0 0 0
992 331 2 0.4238 25.736549929719054 25.886474543837124 22.8817349573794 0 0 0
1193 398 2 0.4238 24.768299309344286 23.432968674488663 21.854968746301495 0 0 0
1192 398 1 -0.8476 25.051607832081807 24.37623327751757 22.02811672801478 0 0 0
1779 593 2 0.4238 22.191223342764616 23.38689639798816 21.387866053262307 0 0 0
1194 398 2 0.4238 25.700472970421707 24.6640039298279 21.323734630650456 0 0 0
547 183 1 -0.8476 22.81804246011199 25.96300779320096 20.684103257402512 0 0 0
549 183 2 0.4238 22.03529211515994 25.358505243190933 20.83199041492726 0 0 0
846 282 2 0.4238 24.16396439008198 27.29797621872563 15.973414260898565 -1 0 0
20 7 2 0.4238 25.423776095341125 24.927665225753955 19.183489002068185 0 0 0
845 282 2 0.4238 23.630781403916806 27.487079018429085 17.50526350324813 -1 0 0
1372 458 1 -0.8476 6.622046385075964 19.084703961714382 21.411481861484297 0 0 0
1312 438 1 -0.8476 6.695169761266894 22.194896298845883 21.42921619625713 0 0 0
220 74 1 -0.8476 26.042625165128356 21.525164726980996 24.20533319083357 0 0 0
560 187 2 0.4238 7.662020050345999 17.00279727578218 28.043224592579193 0 0 -1
177 59 2 0.4238 17.99690523462749 15.18040668708406 27.058090391203415 0 0 -1
563 188 2 0.4238 3.3773998709079045 20.07394748875805 22.161221545549175 0 0 0
734 245 2 0.4238 5.470313869412502 18.170103534512123 27.45995596136146 0 0 -1
909 303 2 0.4238 28.08859174653513 27.51917344195568 21.18807072304147 0 0 0
122 41 2 0.4238 4.753506367743245 16.128692950473926 24.28930760099741 1 0 0
121 41 1 -0.8476 3.7937739484229014 15.874549783356713 24.16965178614975 1 0 0
1482 494 2 0.4238 6.658023124620465 17.119348603578324 22.72662471922405 0 0 -1
312 104 2 0.4238 4.720217042314138 22.705844208037846 24.604646862760106 0 0 0
1247 416 2 0.4238 2.788729946824608 21.174298704512964 24.135480513359006 0 0 0
1682 561 2 0.4238 6.595008868079738 21.18576843068739 24.54762940851952 0 0 0
1480 494 1 -0.8476 6.338010716585479 16.93800736185303 23.656517245997776 0 0 -1
1246 416 1 -0.8476 2.6647887543466835 21.852822409975893 24.85952212818598 0 0 0
1248 416 2 0.4238 2.2571201721838667 21.414692082994343 25.66067142200292 0 0 0
733 245 1 -0.8476 6.441278770784502 18.321689235090872 27.274911443733096 0 0 -1
1481 494 2 0.4238 5.889404669300714 17.754562270409398 24.01981244309048 0 0 -1
735 245 2 0.4238 6.561447975090465 19.210197073853017 26.83207291904884 0 0 -1
1681 561 1 -0.8476 6.91543585333421 20.276615864571248 24.813637774349473 0 0 0
562 188 1 -0.8476 2.898005211957216 19.92299438846006 23.025736496487575 0 0 0
1469 490 2 0.4238 1.8761598999534979 15.608592154032447 16.023389594833716 1 0 0
557 186 2 0.4238 12.17192121248267 15.673689971116437 17.279943442796984 0 0 0
310 104 1 -0.8476 5.581447625638926 22.746741099474406 24.098088141905436 0 0 0
1314 438 2 0.4238 6.646348255135459 22.42357779158369 22.401488672137233 0 0 0
578 193 2 0.4238 3.215881051905738 26.35310799432507 27.87855393273452 0 0 0
1683 561 2 0.4238 7.699938785089794 20.021163611149476 24.248578930252172 0 0 0
203 68 2 0.4238 8.074931283282677 17.44219595561416 25.806845360360505 0 0 0
564 188 2 0.4238 2.33153726675294 19.102059349455146 22.953818763153315 0 0 0
556 186 1 -0.8476 12.152024805907168 15.580191255358999 18.275360014747548 0 0 0
402 134 2 0.4238 10.028811436431278 27.54463207686105 15.867041526685137 0 -1 0
259 87 1 -0.8476 16.777528218088484 23.46648741723216 27.48492156038113 0 0 0
739 247 1 -0.8476 12.431747528671757 19.296835974443674 27.079794292979138 0 0 -1
1163 388 2 0.4238 11.584310162826563 18.45787962972213 22.19292724751302 0 0 0
565 189 1 -0.8476 2.706222556036952 25.539876387551892 26.55382685457981 1 0 -1
777 259 2 0.4238 10.476561544011387 16.65415421586269 26.591057063156 0 0 -1
775 259 1 -0.8476 10.68359439867041 16.16576649648467 27.43876390419463 0 0 -1
741 247 2 0.4238 12.324952805874133 18.518364136450643 26.46127303439677 0 0 -1
1190 397 2 0.4238 13.171811122915253 16.47069708656923 25.545370066402384 0 0 0
776 259 2 0.4238 11.641904949243177 16.313751713238958 27.683167928100637 0 0 -1
1055 352 2 0.4238 9.53820053502219 19.721131063450635 22.70302100276598 0 0 0
1054 352 1 -0.8476 8.828505367763423 19.081707806960843 22.99876321872034 0 0 0
1589 530 2 0.4238 15.539911010882028 18.525543485184052 25.05157351005409 0 0 0
204 68 2 0.4238 9.28909391899948 17.85422436780452 24.79558523395825 0 0 0
202 68 1 -0.8476 9.02202743186595 17.758841096666984 25.754527482743413 0 0 0
1191 397 2 0.4238 12.42527270993646 17.417064977721235 24.443701463012005 0 0 0
1287 429 2 0.4238 14.87523740369761 17.15615219920361 22.946450539727373 0 0 0
1290 430 2 0.4238 13.812079927136296 19.447064647216266 21.937704100682993 0 0 0
1288 430 1 -0.8476 13.301345913773112 19.89835225804991 21.205937540868206 0 0 0
1289 430 2 0.4238 13.743042084491721 20.765854739913756 20.977166904229 0 0 0
1285 429 1 -0.8476 14.35188962553746 17.008181697973804 22.107281891835846 0 0 0
1286 429 2 0.4238 13.392350810861991 17.23957387729983 22.267706003386998 0 0 0
642 214 2 0.4238 10.415973334828179 19.934377829723097 25.52484132851606 0 0 0
1588 530 1 -0.8476 16.05246318392785 17.769176163978713 24.645136792996077 0 0 0
1189 397 1 -0.8476 12.503472590936099 17.20347427949863 25.41748619107615 0 0 0
1784 595 2 0.4238 10.211896382020308 19.988247516809096 20.64078026657497 0 0 0
567 189 2 0.4238 28.05353333201191 25.568906646815265 26.45321912996088 0 0 -1
266 89 2 0.4238 15.306470077426809 16.157702482258152 24.7341748282796 0 0 0
1162 388 1 -0.8476 11.766158328974335 17.55882824669824 22.591210927788126 0 0 0
641 214 2 0.4238 9.073886921076683 20.556221200277847 26.216737365899654 0 0 0
1785 595 2 0.4238 11.487904742023389 20.628508546701667 21.433543701231216 0 0 0
1368 456 2 0.4238 13.743371378836652 19.582864035095845 26.02370394478134 0 0 0
1783 595 1 -0.8476 10.490458195398977 20.56042057642682 21.412152005714084 0 0 0
928 310 1 -0.8476 11.349462943159923 27.45591248997645 26.93475666702907 0 -1 0
740 247 2 0.4238 11.551799075834918 19.507338487265685 27.505671563712887 0 0 -1
1242 414 2 0.4238 18.26183236024704 16.931682722184398 22.292006504187647 0 0 0
810 270 2 0.4238 9.368215846033234 15.542555799184184 22.213352482584874 0 0 0
1590 530 2 0.4238 16.761071945658852 18.133420565964023 24.04082586256353 0 0 0
422 141 2 0.4238 19.512364346923654 18.92017883757697 26.066644790198602 0 0 0
947 316 2 0.4238 19.982279165711347 22.29611944153845 23.494720569270356 0 0 0
510 170 2 0.4238 20.50400274175668 21.61386329693981 25.360535190359016 0 0 0
1304 435 2 0.4238 21.05597563225418 18.668744751054128 23.818151508229704 0 0 0
1303 435 1 -0.8476 20.894189972005904 19.385339273870954 23.139690202079017 0 0 0
1305 435 2 0.4238 20.954413181708205 20.281086070883767 23.580147786442943 0 0 0
421 141 1 -0.8476 18.821721023804344 18.474299332521213 25.497262688553754 0 0 0
423 141 2 0.4238 18.00690459476231 18.287898840744944 26.04619001944142 0 0 0
805 269 1 -0.8476 17.64468986807607 19.339712384514684 23.21756446335342 0 0 0
806 269 2 0.4238 18.560539080597692 18.96487940279421 23.361483210669448 0 0 0
508 170 1 -0.8476 21.095379233062786 21.896871893083514 24.605437799508714 0 0 0
807 269 2 0.4238 17.491083267542255 19.47795692168321 22.2391545367949 0 0 0
948 316 2 0.4238 18.555285842859575 23.078142871301836 23.631595112417543 0 0 0
92 31 2 0.4238 22.077283789355313 19.75110681668732 21.698877761404503 0 0 0
1366 456 1 -0.8476 14.477703649508427 19.96763995990362 25.464511988283384 0 0 0
1367 456 2 0.4238 14.251742954183005 20.910761664821145 25.22067751530121 0 0 0
384 128 2 0.4238 16.25268361388659 20.97779877695376 23.483524993679232 0 0 0
382 128 1 -0.8476 16.07435973272174 21.941906293442038 23.286828057768012 0 0 0
1599 533 2 0.4238 15.458274102640098 22.15945708035536 21.725491352869795 0 0 0
1617 539 2 0.4238 27.94410940798621 17.440034950260436 21.85897630891199 0 0 0
396 132 2 0.4238 4.003788049613076 26.436219571811364 16.161634165376583 0 -1 0
1141 381 1 -0.8476 27.263747501006883 15.97852429734752 27.966470406523783 0 0 0
668 223 2 0.4238 3.438468931885974 16.071701760280753 22.487516407299218 1 0 0
1143 381 2 0.4238 27.317388337541033 16.00561772932175 26.96828172564593 0 0 0
1540 514 1 -0.8476 26.67416897546537 20.61987788569065 21.608915766229053 0 0 0
1615 539 1 -0.8476 27.23551065307715 17.981367604148957 22.311567546608558 0 0 0
1541 514 2 0.4238 26.829110274119735 19.63405682741677 21.673274886158424 0 0 0
1066 356 1 -0.8476 27.983228353266398 19.258219896374158 26.156568463912635 -1 0 0
1068 356 2 0.4238 27.01842438382093 19.430478494378484 26.355244940955465 -1 0 0
1542 514 2 0.4238 26.329143048655 20.960844082607316 22.483382023957773 0 0 0
1067 356 2 0.4238 28.105134786513645 18.298648566204896 25.90288803969429 -1 0 0
699 233 2 0.4238 24.60058765966619 17.58233169377146 27.311981872772627 0 0 0
697 233 1 -0.8476 23.930863080303688 17.659719685626207 26.573421028898515 0 0 0
41 14 2 0.4238 24.982826471959804 20.729793829303645 27.02856589355133 0 0 0
698 233 2 0.4238 24.10569884113916 16.95154513448422 25.889379088953056 0 0 0
1798 600 1 -0.8476 25.224022451646377 15.55741557705623 22.174508924349503 0 0 0
1800 600 2 0.4238 24.5293328315824 15.308423712680797 22.8493432993793 0 0 0
229 77 1 -0.8476 27.803297728930247 16.865547716418526 25.1365697501923 0 0 0
230 77 2 0.4238 2.1877311198875584 16.24022787913479 24.851019655768724 1 0 0
231 77 2 0.4238 26.977573347001346 16.683351472931236 24.60273831115679 0 0 0
42 14 2 0.4238 24.765407313025726 19.227442567978485 26.426672755248212 0 0 0
1022 341 2 0.4238 22.74068933456013 16.766894807712493 27.411827795681596 0 0 0
40 14 1 -0.8476 25.386853239968794 20.010002219902013 26.46407070956031 0 0 0
1616 539 2 0.4238 26.50574279684433 17.376067862060214 22.629440410734283 0 0 0
667 223 1 -0.8476 3.135993362454721 16.302756091121562 21.562791777430874 1 0 0
1241 414 2 0.4238 18.714873970954443 15.466363244090278 22.852539949765102 0 0 0
388 130 1 -0.8476 13.249047336858816 27.753378802605802 22.90219142994293 0 0 0
1754 585 2 0.4238 3.455508161762322 27.323937116442025 23.614788315662167 0 0 0
443 148 2 0.4238 17.347584913445264 24.998047066471237 27.964276353112112 0 0 0
1023 341 2 0.4238 22.765585716454154 15.302721872819253 28.134451329856915 0 0 0
966 322 2 0.4238 26.17148092096795 27.906559132646557 19.670907441490158 0 -1 0
1313 438 2 0.4238 6.884251327995368 23.02279069976575 20.901171554801422 0 0 0
907 303 1 -0.8476 2.166568682314242 27.213150369786348 22.042542392383744 1 0 0
48 16 2 0.4238 4.706127573488286 24.525617363964642 20.434342115591782 0 0 0
46 16 1 -0.8476 4.959843379351055 25.014857582119966 19.599917298079177 0 0 0
1753 585 1 -0.8476 3.937589859443954 27.13269635086617 24.46978350826233 0 0 0
47 16 2 0.4238 5.771375195759484 25.572558175891864 19.774214547228226 0 0 0
311 104 2 0.4238 6.0551945620741945 23.600402920170183 24.31446424268453 0 0 0
1490 497 2 0.4238 8.283134288892693 25.697049467628197 21.5813749136732 0 0 0
74 25 2 0.4238 5.793155000296026 25.84236278276971 24.1574006920344 0 0 0
613 205 1 -0.8476 3.5415633039523415 24.731111334905833 22.28375009409595 0 0 0
614 205 2 0.4238 2.8628919310899956 24.10650779517524 21.897398407557176 0 0 0
615 205 2 0.4238 3.831455311642016 24.39538756723597 23.17998901657709 0 0 0
971 324 2 0.4238 3.3098770561777346 22.37454159622768 27.16330265172637 0 0 0
1179 393 2 0.4238 8.24129412500476 25.860182412647845 26.87050409587237 0 0 0
73 25 1 -0.8476 6.573870707308582 25.258345160119497 24.37965828948468 0 0 0
1630 544 1 -0.8476 13.389586419408142 27.493653677001262 15.84072019805935 0 0 0
970 324 1 -0.8476 3.2486539664368066 23.125299512266025 27.82103090763981 0 0 0
75 25 2 0.4238 6.847311221348838 25.414373984083767 25.328803918023993 0 0 0
1177 393 1 -0.8476 7.2435994374488955 25.853505326716878 26.803029472964162 0 0 0
1489 497 1 -0.8476 8.709950724318837 25.14193082463973 22.29528255551402 0 0 0
1740 580 2 0.4238 15.861835023343424 16.515342711993668 15.35113020975853 0 0 0
566 189 2 0.4238 2.9630162412066765 24.741127883769494 27.09793253678069 1 0 -1
785 262 2 0.4238 6.79163850813658 27.719698266681235 25.26752283910995 0 0 0
808 270 1 -0.8476 9.914347793572915 16.003589772552395 21.513937981572624 0 0 0
561 187 2 0.4238 9.017592622266395 16.092306708139 28.03722100646649 0 0 -1
1755 585 2 0.4238 3.416297552204406 26.46790318531758 25.004851006169112 0 0 0
127 43 1 -0.8476 9.796590913101568 25.468421234455313 26.560061039816112 0 -1 0
128 43 2 0.4238 10.374362949438169 26.255800483553244 26.345106533196116 0 -1 0
536 179 2 0.4238 9.127579029247606 23.6226761654029 21.419431081491126 0 -1 0
535 179 1 -0.8476 9.426841276857768 23.04696943186738 20.658512721325273 0 -1 0
129 43 2 0.4238 10.279452777666542 24.62575254161196 26.321846928156916 0 -1 0
640 214 1 -0.8476 9.944810212538734 20.779078892477997 25.77876557884975 0 0 0
537 179 2 0.4238 9.772583461784711 22.178422143229888 21.013591388282236 0 -1 0
241 81 1 -0.8476 13.752393344365732 22.896679079944803 25.513629054150336 0 0 0
1148 383 2 0.4238 10.663093133312726 25.551091716014554 22.671639733216857 0 0 0
1147 383 1 -0.8476 11.64387405166903 25.669544706108482 22.516624539722756 0 0 0
1149 383 2 0.4238 12.03739853818254 24.80740849948804 22.197482406525374 0 0 0
1491 497 2 0.4238 8.160591374197644 25.19179314194239 23.129375328487477 0 0 0
431 144 2 0.4238 10.582190801152576 22.29683783468542 25.950265341177605 0 0 0
242 81 2 0.4238 14.241313182218041 23.436492014669376 24.828390814950033 0 0 0
430 144 1 -0.8476 11.061280529906783 23.155599570894374 26.13190617917705 0 0 0
432 144 2 0.4238 12.031886306574563 23.047748007026215 25.916767809698108 0 0 0
243 81 2 0.4238 13.996385526486522 23.21919341619038 26.42820237097466 0 0 0
390 130 2 0.4238 12.655708357247995 26.94930242455642 22.864746922754293 0 0 0
1705 569 1 -0.8476 13.974444340308214 26.83543858312735 27.42339442216597 0 0 0
321 107 2 0.4238 20.18705340968075 24.178198339170407 27.7358462865159 0 0 -1
943 315 1 -0.8476 15.749700777546071 27.41943408798899 25.261506545011734 0 0 0
915 305 2 0.4238 20.602723587369148 25.384841330376112 25.21811193405118 0 0 0
1350 450 2 0.4238 24.34778487708102 20.928420462603427 15.54999023612416 0 0 0
221 74 2 0.4238 27.025644463366476 21.68742669365019 24.29098458683942 0 0 0
1598 533 2 0.4238 15.636118637566742 22.375925942815847 20.11672854014521 0 0 0
914 305 2 0.4238 21.573563980685975 24.59178738277938 26.264601118022533 0 0 0
913 305 1 -0.8476 20.665524385309325 24.609150394319357 25.84608619883297 0 0 0
51 17 2 0.4238 16.59995671042254 24.27320996096485 24.280102585459154 0 0 0
944 315 2 0.4238 16.74514056534545 27.35140882644086 25.328321744286022 0 0 0
509 170 2 0.4238 21.852278225401136 22.44451422600558 24.962066211314003 0 0 0
49 17 1 -0.8476 17.430253627729257 23.904704311931518 24.698196684675608 0 0 0
1707 569 2 0.4238 14.766020016180926 26.966754677938745 26.82660628416381 0 0 0
444 148 2 0.4238 17.675685506397443 26.420526871196977 27.23249330137253 0 0 0
50 17 2 0.4238 17.545046503918527 24.29519144669429 25.611615776400875 0 0 0
507 169 2 0.4238 15.589058952092318 25.11908301272809 23.2339892801007 0 0 0
505 169 1 -0.8476 15.098768948078234 24.875230363366498 24.070735146324772 0 0 0
506 169 2 0.4238 15.128846583172317 25.64319918479942 24.71050952720524 0 0 0
709 237 1 -0.8476 16.35342698582743 25.22190850744549 21.598543971919895 0 0 0
1711 571 1 -0.8476 19.36061511912945 21.797621781316444 26.478302521208704 0 0 0
1713 571 2 0.4238 19.249803321085523 22.790322569374716 26.525820123591792 0 0 0
1021 341 1 -0.8476 22.269332022054 16.167598996056004 28.058867167887854 0 0 0
1226 409 2 0.4238 23.851625113630014 24.967410482678538 27.017930926291022 0 0 0
1529 510 2 0.4238 19.128385344590257 27.284068398860676 25.41484597701821 0 0 0
1528 510 1 -0.8476 18.21525211528448 27.198032301457445 25.8133149611078 0 0 0
383 128 2 0.4238 16.564400006994212 22.512680625024352 23.9456677567974 0 0 0
1557 519 2 0.4238 23.27981033337325 27.43366382524261 19.97396558090564 -1 0 0
56 19 2 0.4238 9.085749800563523 27.29583894152794 24.207288181195572 0 0 0
1601 534 2 0.4238 26.390914916420634 27.56424290820363 26.44138710831006 0 0 0
240 80 2 0.4238 25.669234382433167 26.21567711367706 27.587106716962033 0 0 -1
1602 534 2 0.4238 26.252387405521517 26.373950533467315 25.332054229204886 0 0 0
571 191 1 -0.8476 15.188025016925778 27.63831129167587 20.893966377179922 0 -1 0
721 241 1 -0.8476 23.08963916031928 27.092903221489728 23.088863166624748 0 0 0
993 331 2 0.4238 26.86826018632827 27.022657125224804 23.189836841481522 0 0 0
991 331 1 -0.8476 25.984781877676305 26.651613912826832 23.47581878155264 0 0 0
245 82 2 0.4238 16.97460764526909 15.016795616266183 21.552614273061835 0 0 0
723 241 2 0.4238 23.94725090440928 26.84251022596726 23.538082316622578 0 0 0
722 241 2 0.4238 23.064826408187542 26.694301790951982 22.172078181596873 0 0 0
1493 498 2 0.4238 20.05894773949356 20.562658983957306 27.213425109045673 0 0 0
1227 409 2 0.4238 23.28659881891749 24.027706570387913 25.80784482920422 0 0 0
1600 534 1 -0.8476 26.58430585252811 26.602525069700313 26.247245942350688 0 0 0
222 74 2 0.4238 25.752604344061865 20.86319830882855 24.896477489989863 0 0 0
1400 467 2 0.4238 21.62201593512483 27.252122065761995 23.843712128573216 0 0 0
1237 413 1 -0.8476 14.087865374422687 24.205492315729757 28.120680420281786 0 0 -1
814 272 1 -0.8476 23.66158590848722 23.107743272490076 24.431737025201883 0 0 0
155 52 2 0.4238 21.977776356698236 24.744500134887616 15.41036554664354 0 0 0
929 310 2 0.4238 12.257411178009976 27.05106115139435 27.04300381008308 0 -1 0
871 291 1 -0.8476 24.778332918443013 15.514017187211387 25.22012159021378 -1 0 0
1178 393 2 0.4238 6.866371896168702 25.24504618194723 27.50121919319006 0 0 0
964 322 1 -0.8476 27.156893910458244 28.04569208082421 19.768863051214275 0 -1 0
265 89 1 -0.8476 14.689554619508565 15.373043868025649 24.67319722470372 0 0 0
150 50 2 0.4238 10.624981400132068 24.209377168339337 15.345986533425338 0 0 0
1164 388 2 0.4238 11.213784323282791 16.86902733003756 22.123183437670008 0 0 0
401 134 2 0.4238 11.602771123815673 27.9373100400771 15.679797927562419 0 -1 0
780 260 2 0.4238 15.533816448620193 27.233503890769 19.152263508782603 0 0 0
1393 465 1 -0.8476 6.836757478352536 15.265748149253305 20.717288683344 0 0 0
1712 571 2 0.4238 18.491954418114965 21.35431027685165 26.6994258765121 0 0 0
1492 498 1 -0.8476 20.48718793378437 19.67059351401125 27.357721990900835 0 0 0
466 156 1 -0.8476 27.43750307674781 15.60291154306351 20.110759520749596 0 0 0
872 291 2 0.4238 25.58352940692577 15.033619888885092 24.87245921460935 -1 0 0
866 289 2 0.4238 2.3139777156256778 21.78476392761386 16.170269392647285 1 0 0
930 310 2 0.4238 11.113145458637243 27.969727333102853 27.759462917667975 0 -1 0
1401 467 2 0.4238 21.091105603654256 27.721666367925337 25.314857150207196 0 0 0
786 262 2 0.4238 5.311365721329436 27.969197245685777 24.624756951562482 0 0 0
1317 439 2 0.4238 9.517231566029277 18.5185667788139 27.61722203859118 0 0 -1
468 156 2 0.4238 1.979232630072391 15.944353791989585 20.431333166087377 1 0 0
1349 450 2 0.4238 22.855880253333154 20.481304701564298 15.059160965035996 0 0 0
1105 369 1 -0.8476 19.692756200079288 15.195017323741885 27.0139582096252 0 0 0
546 182 2 0.4238 24.454489908983696 15.028970448890695 18.5239655625209 0 0 0
442 148 1 -0.8476 17.70854933738671 25.920964431139268 28.098142985264516 0 0 0
1473 491 2 0.4238 20.01456929718222 26.74583793161078 15.026660358528197 0 0 0

Velocities

940 0.005454487191110251 -0.0010226878957861234 -0.011149925953776913
941 0.024546468719100913 -0.0026529245028755833 0.0018015173328820267
942 0.008009959810284926 -0.001585935049133018 0.008787614901429801
838 -0.0032965502945793597 0.00023072817066097329 -0.003740479034068476
1335 0.005509451107196471 -0.014893022104443503 0.0025311603385589844
343 -0.002216138075219783 0.005194960894746783 -0.0010204194797712148
792 0.01745012459355041 -0.0022158929553460064 -0.013295232273723845
790 0.005137065009656044 0.0024764766232571005 -0.003861544455052105
791 -9.858993881709248e-05 -0.009343003300740475 0.005799327656089818
996 -0.009323932653728275 -0.006407115143532592 0.0024189806597788607
1334 -0.008574442996267926 -0.010685575893555949 0.003384130851324922
433 -0.001645293296541726 0.00023750386038508598 -0.0008717465394604896
1626 0.012219673817230523 0.00032020603137496016 -0.0016337142289944153
1624 0.0005306197847410857 0.005529111264898848 0.006200692877111197
434 0.005401647391967603 -0.008253960056827641 -0.0046684941411262205
1333 -0.004949284700891529 -0.004826240225882295 -0.003370064336497909
995 0.004486905622221189 0.010338454135301047 0.0011640212433761722
994 -0.0035480317148513366 -0.006105481158041412 0.0032253001373580476
344 -0.000516791661181889 0.004973479518039503 0.009729063015318788
902 0.013224970084534816 0.0072802630261858525 0.009385261677097103
513 -0.026533780087782805 0.009432152169639815 0.01115797776303523
269 -0.02233616437441534 0.010211722317818788 0.014837262242309137
840 0.025435451979356663 -0.0014712555933009924 -0.027067807291439046
1673 -1.8976549718845296e-05 -0.007455370775565866 -0.015887183711195477
839 -0.008534117331718695 0.007739258465616025 0.00030771399912834916
903 -0.0007591760364066721 -0.006547762798356123 0.0023433865705503056
517 0.0009642942571465735 0.002907703544624617 -0.0007451189730419391
690 -0.014443108286148188 -0.01801151558534653 -0.01889666982728965
345 -0.006501986929398031 0.0056176454491189695 -0.005012747919362376
511 -0.0032543787214377477 -0.0034496053905404365 -0.00010415543064363407
1008 -0.006859428482261269 0.006947363519291214 -0.0022971219366527146
200 -0.006455958459102472 -0.0029542640541622904 -0.017463243851936396
725 0.001304127699305375 -0.0027767262761571993 -0.022507320266033408
1195 0.006020854799550708 0.000498952920318653 0.008136259667079825
500 -0.001745039113783634 -0.004324166076100145 -0.0038909309114411603
644 -0.020290293649212553 0.0014854177231906369 -0.011492073392638668
645 -0.0018384439989334493 0.02525484708540413 -0.006022423142354617
643 -0.002880568386802987 0.005477464038080316 0.0020192001471398815
183 -0.014863588712039218 -0.00580201549841432 -0.0017359689723456847
1369 0.0019478711819806377 7.646934872078084e-05 -0.0036496226491681124
492 -0.005169255916394038 -0.0020516280091111565 -0.008668700724635547
886 0.002974490550277712 0.0047088768105121295 -0.0012851408576780544
1371 0.01759783917082751 0.006468586591842189 -0.01225249634552687
1062 0.0012805429959795087 -0.004056690733162268 -0.003989088037059815
1060 0.0044323970768607585 0.0013813790840101156 -0.0010345734791062798
899 -0.014997867421821425 0.010386552137424652 0.04016657309513045
1197 -0.006420861168329542 0.0069538345367787975 0.00012951613716736404
1746 -0.025145198266867206 0.015610850759249508 -0.0066357520285179016
1571 -0.009518683858206207 0.003055927577897911 0.00331987759532058
768 0.0017581317614557875 -0.00496431352831065 -0.0014047482933157941
1006 0.0017129405182329182 -0.004241122755264154 0.0012974754201946254
181 0.0015119345316383344 -0.004926052203440358 -0.001968107661399728
1307 -0.006982711892734344 -0.009714203062474934 -0.024747300048767084
1714 -0.00794463358585764 0.003162336512870933 -0.0033536770169450393
997 -0.0019146585345175223 -0.0044961760379878995 -0.005028808933992819
118 0.0011357671270783454 -0.004177203493303292 -0.0008091900698700007
1061 0.00817235218390013 0.002843524912944386 0.0031694306857744017
766 -0.004291892446316691 0.0012393210132328294 0.003430106319329391
1133 -0.01982090745428245 0.01316504504550499 -0.01156797550739755
1071 -0.009872861524812109 -0.005871676924037803 0.0029511810490028397
116 -0.005063506608370245 0.010312353739630709 -0.0018300822030655759
1498 -0.008488543843517929 0.00488789471231604 0.004298762141730768
665 -0.006397689990492988 0.0027910541649579794 -0.0007598309110356594
1306 0.005188010565293065 0.0050580054497800404 -0.002275605255150765
1308 -0.005186852554738384 0.015076302977443824 0.01094329297496044
1364 -0.009270236495898974 -0.0001612166454092098 0.010419884805976982
884 -0.002937798727987786 0.009824881561878206 0.006991641956128357
1363 0.00515086511910608 -0.0056494346194014425 0.005159339699059647
1009 -0.006508717122702491 0.0030659131891940007 0.002220786828713251
885 0.007024281840031689 0.01533728279819111 -0.012048202881003865
1781 0.007549336574214696 -0.004295359326669167 0.0019606883049141425
1782 -0.013342194333300816 0.008107857320316767 -0.008368919579031788
883 0.001093034556657953 0.004633485570946075 -0.006145565057135211
1365 0.003072610396173572 0.007700990358204269 0.0009065542783798998
1780 -0.007001779945852612 0.0020247817269808087 -0.0012503482378850668
1011 -0.002972860549750793 -0.006220171469795669 0.008958081524112574
1463 -0.030264627813026173 0.01202231116825092 0.005049771033714744
1464 0.010271994723927869 0.025711026163589598 -0.02073707261103105
1462 0.0006261882530072102 0.0022096658054546986 -0.0017519947264030807
695 -0.00648227492955765 -0.0005900554290037158 0.008898377039882855
54 -0.014180053509874703 0.02091378151426967 0.0018211364216215188
52 0.0007909434986812764 0.00035070626452128145 -0.007103747559903939
693 -0.003444336305152825 0.004994848883981101 -0.004822833258954971
407 0.007415608466475056 0.0016479824045851454 -0.005451956330079688
664 -0.003860721974276565 0.0014244028158732088 -0.0016099387369967466
1046 -0.0015729828788840195 -0.006031032599207231 0.007704035405152304
1568 -0.00014964205265888367 -0.002360289271438224 1.4896901081180824e-05
1010 -0.03563960370279354 0.012668934062845926 -0.017610920112714527
1567 -0.0004924165567906879 -0.002206089787059433 0.00035634543539783345
53 0.002195002612789108 0.005787235284187179 0.01847950259461241
1559 0.027723567132977023 0.0441494594342602 0.004870575566573886
689 -0.010623676698903963 0.004987772180413805 0.004101691421980293
95 -0.006861540773394356 -0.013584694368410257 0.00655798810397743
1027 0.002435131958105384 0.0006632199233491183 -0.003877819860613034
1222 0.005912252269680722 -0.006298873626585796 -0.0013489118218797534
94 -0.006238720257501037 0.0014261317642301759 0.00027335415504479944
1501 -0.0008577621202017677 0.005166937748780721 0.0005988304758292772
1502 -0.0019201555754164467 -0.006566296354275223 -0.012111196398388022
1503 -0.0011070404972564002 0.007624472241035536 0.007359827536681094
96 0.0077107856985195984 0.0027904351103352626 0.0027252415776800056
336 0.007991701131263474 0.013465473278756584 0.0019006129211399678
334 -0.0009160395465212601 0.004249277059155984 0.0007732042001823934
335 -0.0029226652184597174 -0.0004260189632711586 -0.00425035998020371
1029 -0.0022663638128262607 0.0450266831891927 0.03228554906367843
268 -0.007541031596808805 -0.003284612739028928 0.003678064103035411
1028 0.01171355324202719 0.012056918320223405 -0.0031514272498496974
898 -1.707590739626934e-05 0.0031059023927052136 -0.002444197578767389
1150 -0.000988524365227604 0.0004327090768755563 -0.006114206989689298
1151 -0.0073939858085159205 0.006102383552273033 -0.006470549091247237
1152 -0.014115383193005943 0.017162290715655525 0.0008799639025753763
732 -0.003512248602663107 0.006163916544299627 -0.011602749536897116
1223 0.005624250260777002 0.008403936376180822 0.005878461457254227
1007 -0.009301481872325353 -0.00826326061872258 -0.011797565876308232
730 0.0038924123645500217 0.001013386551233819 0.0019315141239235074
270 -0.016000891691429115 0.008796114060127957 0.011699344944279436
694 0.009491014886514043 -0.002176080252230243 0.0006740467539579701
529 -0.0039012082878889837 0.0019391556613074451 -0.0028949242805947025
731 -0.0021376127145270357 0.004285137340610084 -0.00436817226118559
1484 -0.026734166748114168 0.002659019819890435 0.012771123671927754
1047 -0.004113221487994618 0.007884856908470907 -0.0025693928496759544
688 -0.0004371191786885181 -0.002083289264800094 0.0013662593394119613
666 0.0011688105453879203 -0.0011297459263887452 -0.002891910491301677
1256 0.002410340643860263 -0.00495656844648393 -0.015840953055552047
216 0.010585820273245623 0.0185595287957027 -0.01767464984950995
214 -0.00238705920549599 -0.0009655713264579663 -0.0038318284887882375
215 -0.010259861465468081 0.032910180198534734 0.003837936262009769
551 -0.00403080563905471 0.0030603950788915244 0.01125177545185173
552 0.006828415096022194 -0.002769861380831034 -0.010372901834485982
876 0.0051444166022067755 0.0009412905935138046 -0.007077170725716435
568 -0.003920344784761803 0.0037156047403245685 0.0034584337534099645
550 -0.00670403897813708 0.004277536997978654 -0.0007000779599756169
569 0.009109236445128845 0.007573292277456904 0.010544750333630597
570 -0.009389703555467635 0.00039055505106751096 -0.004904211158212227
488 0.001510317019731223 -0.014959038534114536 -0.013246913924002804
875 -0.0005670888033646763 -0.0022677279549299448 0.004115356274461347
874 0.006285012948839575 -0.0025972566573064042 0.0002315739154175946
892 -0.0038660795112388014 0.0020957714186964262 0.0021870280270823244
1388 -0.04763005210102462 -0.002379882626525481 -0.0009177811082304098
1387 -0.0013082234230835353 -0.0029280036841276454 0.0004165206864890929
1389 0.02145398179122571 0.010750483322134139 -0.0008022650767467692
893 -0.02480081714170975 -0.0019682439560110418 -0.0134256731547084
487 -0.005641337410864032 0.004641908396449271 0.003364131279321319
1478 -0.0027076668489921063 0.013346703491922225 -0.00026964589107941755
1477 0.006111217236675154 -0.0032298040491170452 0.004436674548667991
1479 0.0029485205322156193 -0.016130839634641833 0.0067119105373470555
887 -0.00971512271704282 0.005772639113988243 0.014749545731188436
1058 0.0027053245127192354 -0.0035553410929479545 0.0010363487836374443
234 -0.003073863585975628 -0.003624134242548395 -0.0038076005379850952
387 0.008867980658561606 -0.012248633944552596 -0.0068418073667623905
760 0.0035043698874998707 0.005429357634972013 -0.007985619623962614
1070 0.006660413032655287 -0.00648279590173679 0.002359656125953176
332 0.011114226987756125 0.01665068757870874 0.019459250249108224
575 0.0038988361418089337 -0.01042233871348341 -0.0033741355119810694
160 -0.0008811347699247098 -0.0024191633394278797 0.0005948903674411815
1693 0.006502772210063915 2.0983053908807464e-05 0.0014325021371350767
1636 -0.002370677647052512 -0.007355737441184735 0.0016339313567881946
1638 -0.009287152674531542 -0.0033335416008258177 0.0012203336412566906
1355 -0.003496690203120643 0.013532383269219418 0.002901233283823075
1637 -0.018528044221925503 0.006097783317227483 -0.001580427454350679
767 0.003022985060242781 -0.0040456631509482935 -0.003867869412063115
616 -0.00511487539132129 -0.004267070053505085 -0.004727773746664094
162 -0.01825149749798919 -0.024883166352496842 0.013013298229020311
617 -0.02687247504481605 0.0059792013714342306 0.004324107238209684
618 0.004250471462132438 0.0006312917927228769 0.019516119589277976
1797 0.020224642951565536 -0.022428037607578926 -0.020366596471595968
205 0.00044606117558567424 -0.002150081251933645 -0.0003684931873107884
206 0.0008865398958793811 -0.0019050111947567384 -0.01671682696008685
207 0.012397644880054503 -0.010688973641148737 0.0069974828516027945
1795 -0.0004609293064723218 0.0005096366201006736 0.00253720400657069
1796 -0.0011255485615345316 -0.0020903820959144196 0.007788442788288448
877 0.0036336788953972095 -0.002062153837525407 0.00372449191577045
878 0.004967517481247672 -0.009783528153589535 -0.014264277046130522
879 0.00871424835168452 0.0025006115641420684 0.004837374291164928
619 -0.006813882444370079 -0.002902912906310285 -0.004532038456100775
621 -0.012471599258410815 -0.012191853544362556 -0.0005140833657804319
998 -0.021318759777377305 -0.00592356811060078 0.014528583296617843
793 -0.0021840863236839594 -0.0019247598925876432 -0.00309846408831303
1073 -0.004063615337486494 0.013835351153924584 0.024167257261280568
795 0.008152328304523344 0.0042903321426476715 -0.006697602931814856
1090 -0.005871595724570688 -0.005331088268113717 0.0025610937950131794
1161 0.004906007095882104 -0.017211794297133706 0.0011500969740403158
1560 0.0011055823940962434 0.007104341981542379 0.0010976418733679267
715 0.0014616556721984205 -0.004639060512941927 -0.0027853798249365376
1786 0.0026234956320538767 -0.0022085148627235115 0.0019580975441647
1788 0.004971982956450074 -0.0019712852045902594 0.0030694607724371307
1787 -0.027524016923754162 -0.009954294623086274 -0.0268298741756872
1486 0.007404517871588152 0.0021863234363692125 -0.004882531272318007
1297 0.003423856451968915 -0.0013403579688904357 -0.00024778251468419283
1298 -0.00848717984980903 0.0058766615420223975 0.0012353535860544743
1299 -0.009401237308195589 -0.0027010450924600314 -0.01884132667771109
1437 0.0036501072336226534 0.0149261921342288 0.001073483588346826
1435 0.0002979738897961161 0.005428275779555388 -0.0030356003742984376
1436 0.004054010393194303 0.014490322690256697 -0.009655753678112543
1137 0.016782302290551727 0.007294243483489099 0.01544734594314204
1409 -0.023039659522035055 -0.02624521846319044 0.015544220897204258
1410 -0.003292359716325437 -0.008118803369113022 0.0029099464727240236
1452 -0.013394352865262261 -0.0005321909217152838 -0.0078095922188386535
1450 -0.003586194997995592 0.0010802325848429306 0.0003671511872242967
1451 0.0007049534707739447 -0.004288998695507546 -0.005605162280620833
1487 0.010716940414665782 0.005637971397101158 -0.006908330355325568
1572 -0.015528337930870785 -0.02514356533866528 0.018419096247393366
1508 0.00401092471707304 -0.007178695790848167 -0.0005048983281907678
794 0.0094567126967076 -0.010284847345018777 0.013433043101335154
1570 0.002313316098351492 -0.0020434403821016694 -0.003877073032269735
130 -0.0021186542532913594 -0.0047964291057366005 0.0016831704444054125
651 0.003640509310361669 0.011585117954488982 -0.006969046246126379
462 0.0006413107145691293 0.009899595950067201 -0.004571120603309988
649 0.006563548134368013 -0.0030229779367213425 0.003227853824665448
717 0.013824193580308734 0.008839465156950752 0.019186650546231858
1257 -0.01255715000257589 -0.004440134084866866 0.006738584183596623
1362 0.004056993563999907 -0.007372489620691535 0.0029743947505362313
620 -0.007670110161814253 -0.006953609256115953 -0.0015437643875359517
696 -0.0039080266801123625 -0.0009455020545219144 0.00803497681545482
895 0.001967085374993494 -0.002874509475371305 0.0016458585297808906
1136 -0.030499618941591828 -0.028740594981036295 0.006843757087654079
1135 -0.00015828607518942887 -0.0021297185051627684 -0.0017431375749860736
1255 -0.004807680209889652 0.002286966799001756 -0.0009452689360314934
1507 2.936514987986698e-05 0.0003971665126232947 0.004908801563792073
910 -0.0027627485494945104 -0.0014252433209057367 -0.00272049172662707
911 -0.012212178443808726 -0.004262899447956723 -0.011099734706474202
912 -0.005488148156390192 -0.007501603608896766 -0.001510839745566053
956 -0.007042478612851691 0.011204186430893487 0.01946649718353591
955 -0.006247920108795647 0.006473080713623758 0.005270688626702429
1360 -0.0014209532765347718 0.0016104172310703636 -0.002561549509992993
1361 -0.012661692823876412 -0.0014052917320128654 -0.004626827730954744
957 -0.013393994693011243 0.0007893979563716098 0.0032003647164301203
1575 0.00910650033634729 -0.004860409308488521 0.008737026556122428
1573 -0.003627610683204472 -0.003060454656705499 0.000969915368969014
1745 -0.0008047057541446188 -0.000829395131016152 0.007537729369472734
1509 0.002267606156414702 -0.015759138128835146 0.005224451678639123
158 -0.037496248222788436 -0.031660444177097916 -0.025824296037951
282 0.015005026690481376 0.009457328996922565 -0.0023527352070626052
894 -0.022769921204171675 0.009601470991055384 -0.014525694190391607
630 -0.0012760843857879082 -0.004133436852299351 -0.0007583702649277273
1438 -0.00023833949233018672 -0.0022799045016189306 0.005501741365502127
1069 0.005487582576810228 -0.0023940405439790992 0.0014635884250718025
1356 0.004395520071677675 -0.005320624738387213 -0.004271458388319074
1500 -0.011063977011974636 0.016723502187354997 -0.009405605384752066
1773 0.005003279293519855 0.008551279386484657 -0.016814493940516415
237 0.011865654505028836 -0.005817214585361891 -0.0011857805334334484
901 0.0017174402400140544 0.000824000026416382 0.005402530589072164
1562 0.003146076278438121 0.020347176384153808 0.0007297668883183662
68 -0.006667324700330249 0.004383603782854708 0.01972483127987747
69 -0.002665335979466183 0.0026812337389290684 0.03082168922278089
99 -0.01014219229110704 0.02114326916062727 -0.013984930789865886
67 0.002878299793406467 -0.005305829864941304 0.0035569855231690033
97 -0.0013592514721605402 -0.0017564221281588484 -0.00023439700066860635
98 0.002315804612682708 0.0015143792928625735 0.003867394645998123
288 -0.020172685687453257 -0.0031612537131845597 -0.008277863106447998
1261 -0.004832882686624712 -0.005233142162472565 -0.0007477135595602287
1262 -0.006517280847742648 -0.001121378904721019 -0.0020534633174925294
1263 -0.0007718423439479027 -0.009778649542716747 0.00825460631498556
1214 0.006471383756049541 0.005818591742430344 0.004678312099133874
1213 -0.0020446350652224 -0.00020043792734652935 0.006905222045448461
1772 0.011705697678972482 -0.003248822853128886 -0.0011488220913535444
1215 -0.001847954783837886 0.003045021916264009 0.01158119408827872
1771 0.005466435961561468 0.0005248990696157566 0.006712422922047383
1427 0.010265620016926309 -0.0032210261627258654 0.003719794902745193
1488 0.022605057663404853 0.0032256547348642325 -0.0007176276691100915
724 -0.0011062530589101866 0.002328980528536853 0.006385020424979199
235 0.004864116738490019 0.00027223225433069194 0.005646599480600172
330 0.026392197111506376 -0.017108296056515333 0.00762731225134699
135 -0.007742826149234686 0.0018553180413110335 -0.0025123219833982574
454 0.0006593300563150765 -0.0018043777342571312 -0.0012537767182571509
672 0.012027618003260415 0.006126087539651273 -0.006234285847559277
534 -0.005366731986550937 0.0048167283785160745 -0.0006808376423143236
1592 0.02223141983164625 0.004320953921212368 0.007809029626399792
145 0.0009706270147117819 -0.00019525126462758963 0.0018928426792047955
1370 0.009407610060977083 0.0029716736700663 -0.013880222096697785
146 -0.01652873906477808 -0.02111471318263654 0.018847365994773765
1593 -0.014780120666228585 0.0017507409726073453 -0.006214914531811731
182 -0.007638726811561563 -0.016087915359635854 -0.009013200518579319
533 0.01129826853169966 -0.020315648455698256 -0.0052466868284343
1398 -0.001945988147522986 0.0037620181439492785 -0.0027342483231425295
1426 -0.0033088284513089566 0.0024872600772826814 0.001073565393861981
1428 -0.015713832269678513 -0.025594818131655348 -0.021552474812970315
652 0.002354729818603043 0.004584299335324422 -0.0006775580051576978
654 -0.008724897543192908 0.01341057890812792 0.005321751427106015
671 0.004737621259697839 0.006695634388574159 0.021322080226327544
653 -0.002640351458439648 0.011031152169412023 0.01109463929201877
435 -0.0019221695288769924 0.008363994920614837 -0.010428649564394772
670 0.002732936591739509 -0.003780998463682895 0.00590481967004103
1397 -0.017491820933494683 -0.02960399950223019 -0.006587250483540528
1396 -0.0005272885091761288 0.00027645476827599955 0.0045609727928385335
147 0.018268433923868423 -0.010937410804391643 -0.017509931710418675
532 0.0036416768074722145 -0.0018476754469314188 -0.0034316163401540145
185 -0.008365767550193973 -0.004929296139194328 -0.0025926255922205416
184 -0.0015178781389912272 0.003599086095766377 0.001964914849827158
134 0.002649764888936995 -0.01055319589262114 0.0016613739304176896
456 -0.010397007583794011 0.011256319462004484 0.006963224543104098
1591 0.000756705493883548 0.002271953611627694 0.0012882598406907546
232 -0.00027772592424452796 -0.002352071757188794 -0.005168674617215746
1695 0.002166914519340902 -0.002707847286390585 0.003178662406341157
1250 0.005054737731463082 0.00990960445933173 -0.0004633472848074947
705 0.01575874275548692 0.006842052850464205 -0.00777962794527693
186 0.006932055144406222 -0.0023211992337924007 0.012641374802600325
659 -0.0018191897898762828 -0.00469131494583882 0.004379517403533017
704 0.027312682037097667 -0.020735456051678383 -0.012476569057089593
703 -0.009585564071010891 0.0053696009634019975 0.0022084315775024108
1485 3.0533050143945034e-05 -0.011701572596293801 0.0048728746576165854
272 -0.006443399985348572 -0.0033992385439768763 -0.0055620966280257745
325 0.0018776938129451927 -0.0008287774321056236 -0.007976664464787833
326 -0.0020101847494395668 0.02722470525265331 0.003555317412434221
327 0.016395407440042267 0.000973378317323594 -0.013037920940655182
1204 0.006405435772716162 0.0017271594341621227 0.009196674328760215
1205 0.01789664541278719 -0.02082362338626842 -0.006255206243988933
1206 0.0034127186192858677 -0.0006610460000374135 -0.006247406904999955
658 -0.002342281528573008 0.0023265205870114884 0.005516164148176887
271 0.004633750684204593 0.0022830431653550723 0.0011362580026539942
273 -0.0013312112181358732 -0.0007674432308699639 -0.00014700499852039623
1554 0.0026343401541442015 0.014600541037945195 -0.007085913785890647
228 0.0028143349103194153 0.00793236550141356 -0.01676115858607601
626 0.0064231976723046515 0.021030068685221476 -0.012570632094166631
1050 0.0048087674373767314 0.008466370853777595 -0.004428421469912134
226 0.0007195006985452383 0.0018214742898303553 0.002718616611712346
1354 0.0015387022396662268 0.0021744921459311115 -0.0016355742283240388
984 0.01123448831427432 0.01083718953300498 0.005118849283427451
983 0.011372351681185557 0.009096229935990961 -0.00800339316558303
1569 0.0003508474609083849 -0.0025209707146076473 -0.0004392323257903216
982 0.0009702900757955035 0.0046859628477812455 0.003916305343677745
1716 -0.0018725616340805034 -0.011892051391160317 -0.015289153482067868
1483 -0.001748217534078599 -0.0020647414095277816 0.003459035336607481
131 -0.026002639273937176 0.006745617800689283 0.005800637552050381
329 -0.0034777283980740935 0.021641741312313625 0.027128140392946015
296 0.00374701470293413 0.017510267728271554 0.0362759282518956
333 0.004559261116008912 3.7359023892220334e-05 0.005721572578878351
119 -0.0004184287021947897 -0.010397286573006165 -0.008122913903260578
625 -0.002626389405800175 0.0017615682292732992 -0.0010154446561106247
627 0.005373450513766902 -0.016741293403774234 -0.011212128763546858
295 -0.0014447916804055 -0.001758658543895639 0.00210032968704972
379 -0.003458387209771739 -0.007623895952438433 0.0002597873863929632
380 -0.01718953987789819 0.004924590650530997 -0.007173363567286944
372 0.01443385991884517 -0.0055413923353104366 -0.0026830794944806033
1561 -0.00969556273231562 0.003127257609214236 0.0013992664035797529
1584 -0.008802387857048868 -0.016294638393565444 0.013116380241482069
1558 0.0021516770779237324 -0.00036901798116592663 0.003477698716741675
1563 -0.021687788399138243 -0.01012630119521716 0.0006940323686267428
1404 0.00541995480270886 0.018801919028662142 -0.013854953595842745
76 0.005493894114591213 -0.0027119191639919864 -0.00030682508214942896
78 0.00017846090894665763 0.006435525388227548 -0.0011793773405707846
1583 0.014882535942396984 0.003130480461362106 -0.014160640721626754
1582 -0.00043858203902539015 0.0026483392474696017 -0.0026790849749619735
77 0.012765183891965837 -0.0008946449342437746 0.00019194914626171082
1402 -0.00032782906098920075 0.0030141132437777633 -0.0013359864909542932
1403 0.0019466580480212905 -0.023864417926114344 -0.013515007934472708
227 -0.0052752437933041765 -0.005657800602267103 0.023938464088554497
297 -0.009178449917800213 -0.01285621213277207 -0.01728867133296014
1159 -0.002555324865445902 -0.003389626598320619 0.0037233257390347305
490 -0.0054122236687917805 -0.0007521842308894591 -0.009259742188591534
461 -0.010070201616307953 0.008352485426936675 0.004301835965232471
489 -0.009014350276085926 0.007044934306130899 0.003492881135520043
1585 0.0011332707996025114 -0.006693219036159228 0.0033652066203249996
286 -0.005281518202014713 0.0003960773020476407 -0.00028099153780193777
287 0.0070062918721104 0.007644993568564234 -0.01162026977876532
1249 0.0008923012786529832 -0.004587458496001251 -0.00014483460074062008
1586 -0.0023992466160279464 -0.0065011001780375 0.000904736973248434
933 0.007481935298591305 0.017116310298500442 -0.016928980342079607
932 0.015111962792854308 -0.019335065163819564 0.0013491419680521286
300 0.015024545741590652 -0.008026965619235604 0.01054261052401017
931 -0.00399473891263143 -0.0031911717432236294 -0.005361043998575757
1564 -0.003359011100075378 -3.2756995835414425e-05 0.0020566340646751926
1128 -0.000565407017009509 0.01000511622834022 0.0113395654125157
1565 0.0049789074697329985 0.010354096760923416 0.0035195118386839104
1566 -0.006170291907936271 0.005097608249670633 0.014786874241604615
1587 0.008380364752603701 -0.0015434233661600237 0.011038488358733264
1126 -0.0007472625605062365 -0.006373528315784935 -0.0002319710543910137
1127 0.011645608673486223 -0.0018957400357481075 -0.017214996915009443
900 -0.0010421183620225659 -0.00917291939814732 0.01567630732925631
298 0.0034393691454579715 0.002124604897061028 0.0013551043108950315
299 0.01922891259536187 0.005781031799298302 0.0005150789362768659
1251 0.0063061887900218985 -0.012426634083518264 0.006409905209156112
331 0.0027340315778844656 -0.005003579233610445 0.0014730798962181426
822 -0.01005615686873487 0.0053274079430449105 0.012808765268407688
165 -0.01881867181908808 -0.0015048277483413358 -0.03644696953483664
1091 -0.003559488946980573 -0.011573815042875961 0.003987861960951756
323 0.0014029353458507206 -0.020829937264557376 -0.0010748385059540645
322 -0.0013414366390875857 -0.0013333220414576891 0.001685348663122281
324 -0.007494869288635133 -0.0011549533200473985 0.010462180894692976
804 7.900290472187778e-05 -0.008118475756322765 0.009229031862243347
831 0.007195682563539437 -0.006516403217734486 0.016125951317834383
1748 0.001087019624577088 -0.00013211211851441495 0.004196998680355949
1749 -0.0031751140115617825 0.007309172001830922 0.004709385326234302
830 0.006539080570743012 -0.0016555706503979697 0.011359592403768961
802 -0.0045897341245774 -0.0024015658511992353 0.005607591787161399
163 0.0019626092464373602 -0.0003523035753018191 0.007995293463786014
164 -0.006902790972955961 0.00029065135511156033 -0.02099997613508122
1038 -0.015521329206034641 0.007714403027922889 -0.011543723679566853
1036 0.0017391853187753335 0.0016465622111826474 0.003858786393232774
1037 0.010245534562856318 0.0232653315071002 0.01442315454275842
859 0.004992924793809251 -0.0036549715766510584 -0.006439783656591565
860 -0.02097940018976862 -0.013397012052571326 0.007030561384058992
495 0.0028474474290159143 0.008290005556796843 0.0029451865146029503
1155 0.004938686433207749 -0.001395791764476781 0.012461738395220549
803 -0.008513827220235465 0.0011472694163302416 0.006773553895941691
1747 -0.003108061004930561 0.0015817977643869882 0.00398963802351117
1074 0.004766837112931429 -0.006364548231195611 -0.015713485053683043
829 0.004170166940678561 0.0026695763979610685 0.0046987201309963995
691 0.0014592903377327376 -0.003254814650888431 -0.005716999954369814
199 -0.005218736943772401 0.004063566588727154 -0.0009736421465806788
1072 0.002696225276489786 0.0004762001677402684 0.008325191081442153
1408 -0.0010806491100765626 -0.002098033218502177 0.00451037038421701
36 0.00579734148082389 -0.004951104703659358 0.01553235720288177
140 -0.006969233480670196 -0.005553325111956745 0.0035801889311027684
139 0.0008242607300202938 0.004027622496569091 0.004759508105420693
1045 -0.006287192835830735 0.0029550127765312234 0.0016899457241257726
141 -0.015795010396308262 0.0038879072387296753 0.016530632806972662
414 0.003260907845318661 -0.004842687654313755 -0.0004030847153147139
236 -0.005942913295918194 -0.004856316584945063 -0.000738479638992679
660 -0.005537870303007304 0.009268608257039514 -0.005277234102139162
499 -0.0017233346579265995 -0.0019716604355839097 -0.0038028085888571527
1196 0.0006974015117743597 0.0005682704675537788 -0.007025415089377625
1153 -0.0004033275894537227 0.0011296672292689127 0.0030416044428432532
35 0.0029273473218044354 0.012541943860087472 -0.0034690387305731786
958 -0.0001596736704219242 -0.008111077359245175 0.005605035396361992
161 0.0009092678593896113 0.01330923818639743 0.015992128904660403
1154 0.016213569264082565 -0.01586036698691473 -0.012476658588805803
1414 -0.004235517103084187 0.0050206783990595005 -0.0004568278521412079
1415 -0.004008745098057529 0.021616121977176363 -0.003979365089722437
801 -0.0030303884426001906 0.003822763768217021 0.004532454101978894
799 0.0040546738919014285 0.001884312393921127 0.00026830046334210743
1440 -0.002260332412716539 -0.008686907627112104 -0.003239453223554011
800 0.00635493792631825 0.005477182231194159 -0.0019730287831825886
1416 -0.0055289295257852185 -1.784386859250237e-05 0.002617194021748248
1453 0.0036795802169223156 0.003474976887727625 -0.0013024490284768292
1454 -0.0064137360069577935 -0.014122859413933642 -0.01324584120931491
1455 0.017564489701086327 -0.017711799615107365 -0.01823399987086586
960 0.005138773661695018 -0.016827689868002475 0.013515014664773376
530 0.0006224949367025288 0.02271612399858788 -0.022462490251258967
105 -0.016145663988208363 0.006671766277870834 0.0052729823491008635
747 0.02125167571730755 0.012984602052366507 0.011092220327636543
628 0.0005604072427079825 -0.0008535051173202422 0.0001733917188623749
629 0.02033145326724486 0.012435698274943731 -0.008770654127725437
518 0.0044792455763141845 0.006060691491330356 -0.023857553201705226
289 -0.003525054357535718 0.002434004423303292 -0.0028897060862071674
1049 0.00870918578821821 -3.250594677571463e-05 0.007399881364310261
460 -0.00667088855665417 -0.00205835145271663 0.002417073617873003
290 -0.012667331967806344 -0.0005926639292389302 0.018082553702136045
1048 0.0054174262084201 0.00192215891957575 0.000413771981656374
1160 0.02449385490284216 -0.006083414915775758 0.02329979441686733
291 -0.002132176187898543 0.008371738106299279 0.0103850212296968
531 -0.029283189417573248 0.008776318990808505 0.011309658083954087
132 0.01623913626470405 0.016207020355175232 0.00455092332431141
34 0.0033710010641020685 -0.008976131244454726 0.004361925356870521
959 0.009089488235779866 -0.015528327580011398 0.010001096868231339
1280 -0.005023944823734631 -0.0012642855774423736 -0.008763536963308357
576 -0.0017338646239211618 0.007153483235955187 -0.004284395681721286
574 -0.0015559226549176942 -0.0034197042470023964 -0.0013363649497555282
491 -0.008300436449876299 0.0010215530660796447 -0.012689071786678026
1499 -0.01204204355142942 0.0145020425125905 -0.002080712005912442
151 0.0028582934309419315 0.0014814385094792418 0.00909055854394216
1430 -0.016690506673432557 -0.0012975357223201115 -0.0076921185569109206
861 0.021298260275559623 0.030831493529904257 -0.010875691384961628
1552 0.003328081754518376 0.005411888002768981 -0.0017627147250753542
512 0.018550782955077727 0.009785316055341279 0.0025966051173264603
1077 0.014845130792457119 0.0018599658250210633 0.0019215326082892288
650 -0.021873931574819292 -0.012494659158520662 0.019552886664926113
896 -0.011627487049695939 -0.010375708357098133 -0.010886569024674136
1043 0.013538024901153236 -0.0013059993082163881 -0.015221756858249369
363 -0.023352276329724354 0.017491724256477697 -0.004061138780579655
438 0.0021922915436412694 -0.0012082459894007676 0.005780295834291873
437 0.0031397046424893418 0.002047618654237245 -0.008968505912054956
436 -0.005235196773585383 -0.003933963522392314 0.0040364738975859175
1264 -0.005893764663716668 -0.0005679394179361835 0.000842748347558477
1266 0.007659324794586962 -0.033074976321883644 -0.009350574638112319
593 -0.003134999431749538 0.028019708175917545 0.01784320937615655
753 -0.006695237667542005 0.004502190552742445 -0.016298160823233123
1623 0.021474744946448764 0.0103421258046991 -0.002189372835177581
1265 -0.004240433107805648 -0.009279197018140208 0.008907278238785076
361 -0.006485188274502736 -0.006826224196866525 -0.004032821190737417
450 0.01503667849573919 -0.001874469994332984 0.005808966170608681
752 -0.027918719669847263 -0.007031818392504115 -0.01578468019011796
751 0.005368720553437344 0.002060513154706481 -0.0049219762024039606
448 0.0017453432450900263 -0.0028470606375494167 0.004697586971515028
385 0.004729714710355078 0.00041525001292053594 0.00045531260817783164
362 0.006157300531853359 0.020429576464612846 0.02416588958636817
1327 0.0029625079911636556 -0.0010972354573466582 0.0064750456079887995
1329 -0.0003646786285080415 0.00033212820840979637 0.004020599308368657
1621 0.005943300308989939 -0.001848160279016385 0.0016215006266187295
449 0.0348442649293942 0.00024716630897806183 0.006790855828786872
1328 0.0031341702280630558 -2.064143879534855e-05 0.004311278581671441
787 -0.0036170765727877754 0.006787415517243864 -0.0007313866876408055
945 0.003007996543288724 0.012705636802709485 0.012953307319727865
1687 -0.001198023578024808 -5.565065181389205e-05 -0.002783977704579163
83 -0.002978113970255697 0.0019413627709711943 0.006642598673008207
1580 0.012296066501237286 -0.0038663179408540767 -0.03497894863167536
84 0.006341260081262871 -0.015868177690236705 0.0011345617890262249
520 -0.0024142196500653436 -0.00544514854988743 -0.0019545995068463527
521 -0.0064272034487696085 -0.005926933033074106 -0.0013601060136328223
522 0.001335254611231564 -0.0034272581498954193 -0.002929156459627561
1574 -0.0011448502216512102 -0.008852802466651065 0.006724041520453694
82 0.012143128778206448 -0.0001856075944207722 -0.001252729234925177
1209 -0.0038272827701037 0.010080439782735238 -0.017080673988093223
1208 -0.0062434818601519474 -0.015224634317377706 -0.0088342062933628
648 0.01000937487099307 0.023468334122805055 -0.009057745427036298
1207 -0.006288488902187645 -0.0015239990478902567 -0.0006876303993461187
783 -0.009751895587048406 -0.016014393096712615 0.032937899900340094
781 -0.005277266959092442 0.003351436047404473 0.0010066239461353835
493 -0.0036549947253807337 -0.009597268045875589 0.004101245453818203
253 -0.0012412749994917282 0.010014705244253626 -0.001831727387066539
254 0.0024997238634888136 -0.012043031291407777 0.008549701025635185
494 -0.005504343907297785 -0.027959598914632542 -0.008536421365977206
213 0.0031804894330778955 -0.0010396163421476368 -0.0012303978872491884
646 0.005737853983272304 0.004783193905269477 0.00197442986220726
1670 0.0023353636402484775 0.005572162230439131 0.015389620729802454
211 -0.0022302940269365358 -0.004148964013405891 0.0012690962147437184
647 0.004241153076354431 -0.005881070035623287 0.003864668150726815
580 -0.0008830601844990361 0.000827770724199659 -0.00023587348274763434
748 -0.0017407005678865175 -0.0028860258477046616 -0.0007386323441020838
749 -0.0003418563113552739 0.015674198776119176 -0.008370454994588076
750 -0.016075611040665957 -0.004153318308592923 0.011745368301163663
1799 0.010482979429145205 -0.014906437863503368 0.011794194738411526
897 0.015706603618526684 -0.009744270198746975 -0.004619009301394023
1466 0.017012220218612442 -0.02306003383331097 0.0010252802089309673
1620 0.001820532424664926 0.0030474652300565685 -0.0010526193838894492
219 -0.002454949436873697 -0.003686269190772349 0.009321934686150193
5 -0.0023208886727582173 0.009622122328810833 -0.010201985895750054
1318 0.001352303337697446 0.0027109350102109825 -0.0022632730920334743
1504 0.004555347574019018 0.0037693916070635843 0.0005181429657507351
1505 -0.0003975315179583836 0.00045474896673428213 -0.004135549802600385
1506 -0.008338038641032523 0.01667681971271552 -0.003316809069881269
1515 -0.000509029750755111 0.001972825751586805 0.003736496896533862
497 0.014441970896180191 -0.0021703477194453084 0.004847739114864054
217 0.002472589339831951 0.0028008543456943687 -0.002567140767986717
496 -0.0003049545290789031 -0.000720037244722583 0.0021808598993532263
218 0.015250498375849643 0.007431819334639332 -0.003956887190458132
1320 -0.0004878051405970131 0.003042315111264202 -0.004034662604375035
1578 0.0033717723061104164 0.0082088126862055 -0.003911472996836831
1576 -0.00782801211660716 -0.0018920828476225117 -0.0015707923989529064
498 -0.0010768447641485023 -0.008620342954558095 0.0025535443154003656
1577 -0.015564067176911946 -0.000382623989275441 -0.014357379042310717
470 -0.018890157838179607 0.01232896268710913 0.008981058970134768
1513 0.005951035327231945 0.004822318810264122 -0.0002728855490352781
953 -0.005394189320476042 -0.014345716582609358 0.006667507855801927
952 0.0019521642021568713 0.004012566100438008 -0.0029216212703603067
954 0.0028597341232180474 0.018721924990256725 0.012469290473268122
1140 -0.007366632249271045 0.011600590702623684 0.011228444924189045
1553 0.014035202004982966 0.014897150274551088 -0.006924990002438546
64 -0.004601788713297709 0.0020558559435027196 -0.00030007085513345807
212 0.015195608694620553 0.010580876869684102 -0.014961426887896525
1319 0.0018306337243915716 0.007508361103729467 0.007419423495057617
65 0.0009781534217045435 0.01380218772935715 -0.00867906248222656
1510 0.00629044858705611 -0.000244361722625076 -0.003551681710953338
990 0.008893759764389693 0.0007730840472196887 0.008537517118687731
103 0.008162426967060576 -0.0009088615099006234 0.00045658047083311257
104 0.007314232731307268 -0.005843050296739522 -0.0152693977998774
610 -8.115517220802052e-06 0.0003572781174314882 -0.00210784600827465
612 -5.0702372161864304e-05 -0.004371410820796505 -0.013287453539614646
635 0.002904711228933115 0.011992453427964764 -0.004647025333010029
636 -0.004777983867954348 0.0020228838749605086 -0.00836307599301141
594 -0.022915108976855267 -0.018837552805929726 -0.002662190455150232
592 0.004177496871099368 -0.0006945051925876872 0.0013520665688155908
729 0.0006367443432560645 -0.005758655719898155 -0.016056785743705955
198 -0.015706796047435793 0.011541943659137724 0.013349947303231637
197 -0.010097349484490025 0.012967196822501924 0.003719382541661115
727 0.0038414188800803685 0.002123302269250105 -0.0006546476858841475
728 0.004863270680215134 0.005745700961041785 0.0065830789104013
965 -0.0014656124198026014 0.009654595514244635 0.033112883041370944
1358 0.03607317832455999 0.006996648889793637 0.004501204313325436
1359 0.00582529610846182 0.004390223644110618 -0.009533685368789424
196 -0.0005015784923595457 -0.006158908154442779 0.000468388238989108
1556 0.01953462701621419 -0.010678097475185232 -0.006426609149697048
1357 0.0004859252284724021 0.0020609651784918785 0.000719242409879319
634 0.002015773629464936 -0.0005566986984335568 0.001591456175817166
472 0.0016697777529260387 0.0007974630279714713 0.0026624573294731666
1665 0.004430005639300514 -0.000835479716482833 -0.0033383816938965414
1555 -0.0009664237039026805 -0.0025294521224093593 0.0005688821117537045
337 -0.006000783467360088 -0.0016212333124287523 -0.007528785253258928
339 -0.004746386899596171 0.003943566755402927 0.03638086981758137
338 -0.006068897301530857 -0.0003657239152810724 0.014036631232017439
1442 -0.014604210841458323 0.013246830545116665 0.004123379285213793
55 -0.0004440345832955626 0.0036093972663669223 0.002763195596643151
1031 -0.019774781191037687 -0.0030804291155074656 -0.01681311783183374
581 -0.016831856489144138 0.005943691023766994 -0.009792716290535098
611 -0.010400671349421051 -0.0007975178196353977 -0.007792081034134566
399 0.00043638251960889006 -0.014223065335225807 0.003856949194356926
397 0.000940495878342578 -0.001466443956079253 0.00526827851234015
398 0.00692812905998426 0.007284515854576031 0.004889998890645706
939 0.00924846626793311 -0.007540576163276236 -0.024890097320401833
602 -0.002418144002347852 0.018584971115983572 0.00879753737709004
603 -0.005311317534553997 0.012636946435417188 0.007240071917072789
938 0.003294902263551104 -0.0036114154636539353 -0.00882506798078157
1439 0.009297878723746034 -0.009935725007387108 0.004828440647599867
937 -0.001679091132760772 -0.002423176859514375 2.5719350025075194e-05
601 -0.002576337506717368 -0.0006490373376710829 0.00709493435625758
1663 -0.005927743020995746 0.0012151584651934116 -0.004690773371506065
573 0.004866677799348368 -0.0074103517233060036 -0.0017150511421297745
981 -0.004417172999984433 -0.0024053742765441986 2.736479903663367e-05
979 -0.0026972172437645554 -0.004294634174375445 0.005695031028066769
823 0.00047410920502021707 -0.002167360853287595 -0.004237550363823007
824 0.0248832033272786 -0.00048289822027891354 -0.010969866619574447
825 -0.014262370957301054 0.006143559097221819 0.003983069949103903
772 0.0024610432202102706 0.0032231906890242664 -0.004473260613870274
773 0.020389877309545137 -0.013471998648783599 -0.006607455267343331
774 -0.013700999282042714 -0.006600213245392219 -0.02013143172489149
988 -0.003055575228607571 -0.0006586427755001133 0.005273192233316573
980 -0.0020130084364537114 -0.00444731225603229 -0.006310698975431634
267 -0.004591823849950501 -0.0013775222147049905 -0.03034562571508154
582 0.018879023675360554 -0.0116291602031627 0.012049954284653643
1512 0.005882041029744505 -0.0030028944610262765 -0.0011158002683794137
1395 -0.009125014519700138 0.0012173890536859003 -0.0028154683338639003
1138 0.0018122593769927002 0.009652322098633424 0.0004190146255903073
4 0.003304417348976643 0.002188599300346647 0.0036957833070809278
1475 0.0007112699365410167 0.010634181983235853 3.582598151328756e-05
1034 0.010370464755826342 0.007725959037915613 -0.006878754480698352
255 0.008677038301636056 0.014945746876794884 -0.004753329256532117
1229 0.0012322652557697066 0.014942749443861786 -0.0017071299641045572
1669 -0.00300723879129401 0.008045490363128155 0.0030337417204418576
1130 -0.01861857153161326 -0.001581310419030517 0.0026678158734276263
607 -0.004921888617865837 0.0020593001799459843 0.004804112721347713
1376 0.024273177759691164 -0.005730036660014083 0.007122204987111526
1129 0.0002082673872454848 0.008074364590967902 0.000548966805123419
1131 0.005239921708821253 0.008535847544494456 -0.007653454587844015
1604 0.014069535079456824 0.008896394059894027 0.010253374844813748
1603 -0.001363670362856219 -0.005652933918612198 0.0003272616876173361
1605 -0.0037089734316366565 0.025043503727530295 0.007109321284175039
586 -0.00019749026271374782 -0.004683876820647361 0.001811527196960323
587 -0.0064202535861324055 0.003912701874801231 0.0032920974776273885
588 -0.01739042737322079 0.019202904143236558 0.011438263761854786
258 0.0017464319061772382 -0.013113533149772878 -0.01122524063721584
256 -0.0024054422573223755 0.00040307873056172897 0.0012842929673014475
257 0.003773529450482227 -0.0081376234936117 -0.0056340710356195985
1634 0.00445232568705765 -0.0009929179237817272 -0.0002624086394635138
608 -0.004333127881909961 0.010184957655727528 0.0033785825382945524
1375 -0.002222124114771686 -0.0013604160694272937 0.008176339863293362
1635 -0.006797827583375495 8.586469485808871e-05 0.009294068606015749
891 0.0018519881221090626 5.693831927571326e-05 0.0030178664716858424
1186 0.004742349847021841 0.0050791882086910186 0.0033683220451756926
1187 0.024942308695065526 0.0183231181860893 0.01158895704498632
1188 -0.014472521397291282 0.005171002881837344 0.022130378023756773
1633 0.004040303432402392 0.0012168267932201708 0.0017566303396196466
1391 -0.012457380068645933 0.009111358084782304 0.012673007945825761
1618 0.0007887837266578703 0.00346410112348063 -0.002929589673487744
708 0.0010241125136914123 -8.99537314455526e-05 -0.001031382209320328
57 -0.001535310467070945 -0.007581822533992021 0.0028810895846259625
1514 -0.014676276968648904 0.003520966669010938 0.007740458541185741
469 0.001654481843489649 0.006541271084331931 0.002294728002060868
1650 -0.001591438860842467 0.018942895008148223 9.055033512841946e-05
719 0.009350398542821752 0.0017329720813803122 0.01456509793822033
1102 0.0039712775425164715 0.005058770568739557 0.010426178172650239
720 -0.0053388361585781285 -0.013136527915507729 -0.012536697475850017
471 0.01633611495265392 0.022534818090925553 -0.0006518520729901621
718 -0.0048414728226565335 -0.000297448257462944 0.0013108262822138592
1648 -0.003726340562276526 0.0033841444964821943 0.003547525906075466
1649 -0.00712703683099165 0.0046032653692216225 0.008520088261741093
58 0.0042113491653001925 0.003076200763827563 0.0074251918072943505
59 -0.03370080559228167 0.015238805094292976 0.0005763800258525702
60 -0.016822585341565652 -0.023889382080071225 0.012461983576321105
1132 -0.0016482873911875104 0.0006512943936702733 0.0042101117134957285
555 0.0037184186021924815 -0.009528820396360256 -0.012918854781027077
1579 0.0049237470310423 -0.0038667550891782446 -0.002898821202299055
1082 -0.007561396247186289 0.0006745070164141801 -0.0025366881562184735
624 -0.012371936162207666 0.0018285423130065391 -2.6079808946638302e-05
623 -0.01321761316940078 0.00556906708893803 0.0032103993020984843
622 -0.005310013026870159 -0.0037801689646492467 0.0022470125956206596
1581 0.008947277608717627 -0.020839065600317026 0.015042858477489403
405 -1.4714333642604442e-05 -0.003451364762678649 0.005280486346513023
403 0.0017858275471153166 -0.0033667030378175555 0.002338437053053254
1380 -0.012857741403770627 -0.0060210485219337135 0.0014541836744519266
1715 0.003419434123078718 0.0099091455292635 -0.012666486746725132
1689 0.002385957373391275 0.0008222300732443155 0.017623513154058364
1377 -0.006397399785933655 0.020405162831041816 0.0013873039638905803
1353 0.0055344971500121 -0.005012324183387212 -0.00267895610509109
1474 -0.0032522938587487057 0.0028481940404893173 -0.0010970927861082736
692 -0.011667678946608667 -0.004443294081287164 0.00853300217573727
108 -0.019022874557516934 -0.01201358532985534 0.014649783054170556
473 0.002549757962685074 0.004018279345032863 -0.001121732863466137
1688 -0.0009589607150929298 -0.006624504388491748 -0.006949297848900919
1628 0.008651652746136001 -0.0020330302757101144 -0.0009318863981068044
107 -0.022324336839232604 0.020930104520151364 -0.007346589877423266
474 0.021149720963340123 -0.008230469903691202 0.024897456159424704
72 -0.0005591548592676776 0.0013483458838883231 -0.004429880196739417
1685 -0.015970937474116875 -0.02344444485507545 0.002727372113854355
70 -0.0005212761962433355 0.003425490427674395 0.0015641877760986002
71 0.0027355465844193716 0.00039973301999971124 0.011850608665840983
1684 0.004106510107074264 -9.035042782157206e-05 -0.0003038365485753411
1686 -0.009347307459634966 -0.010171239101922512 -0.005094679522659064
1730 -0.012622404585525696 0.0447407272383663 0.007419967203157082
1627 0.010390849377743344 -0.0024521563276412132 -0.0012678532936287743
1629 0.01114786100967676 -0.001016140279617242 -0.002163680308454921
1729 -0.002514640765995402 0.00028446429705857897 0.00013541553373728018
1731 -0.0017848657962694838 0.005634112628101789 -0.005764289521107395
174 -0.00333492500762132 0.0029195583339564463 0.0004264561600355442
1172 0.003906702454701987 0.025592507425720775 -0.004084642837374334
106 -0.006420464330863827 0.003504047949269436 -0.0006210303464939083
746 -0.03037656399673752 0.0028182769199662752 -0.0004467942486949762
680 0.0005343232489205221 -0.010026146696721798 0.007008670239200581
6 -0.007851369571691838 -0.0015150704505193667 0.006830640909181237
1173 0.008231430287511854 -0.008071533107880854 -0.006684297305454445
172 -7.017379240374288e-05 -0.00032075563675441893 -0.0004211368005968295
1171 0.0006217969527522603 0.002576002979463623 0.0010300790356766363
1378 -0.0010321282986352682 -0.002672766014749085 -0.0004960109358142301
858 -0.0138072975396092 0.008923284304070064 -0.003447165959700404
977 0.00520916713100089 0.005832564141922687 0.015901377667542897
389 0.009367514518953093 0.010374198300800637 -0.017866372026590065
280 0.008518450211881417 0.002137994351255057 0.004954857658888917
309 -0.0058320658619602185 -0.010753002479919732 -0.0016368002929479848
706 -0.00041612911137191007 -0.006339094091260703 -0.006445653481646615
707 0.0019103499419302734 -0.0014413892258506207 -0.00638362131579856
1134 0.01981366452715992 0.009172540513910275 -0.019004746522611467
1201 0.0014254979848640956 0.00943150108805531 -0.0014277054229328897
1203 -0.002403251980927483 0.018817909705530083 -0.007084514329980676
764 0.025144835225784 0.009098202355447569 -0.018670110095737446
765 0.003725865949672215 -0.004013692592733742 -0.00246484112537809
763 0.0017851696849580912 -0.004792223628291143 0.00037569873367552663
1202 0.0017967730423082335 0.0149702519807832 0.0045002810896907
788 0.0010180984881172704 0.004346277514687197 0.006223774868360982
307 -0.007037808567960112 0.004304508824865441 -0.004016907422291581
278 0.004450707255096504 0.003419838098814213 0.01227026078546706
1622 -9.664013884898043e-05 -0.005893280352075542 0.010002657011772043
281 0.0019222571314252723 0.019604686288185263 0.0008049464155563543
308 0.0009036657732438705 0.00880286765561914 0.010263566853686932
856 -0.005532343650762511 0.0007075665168591077 -0.005238153849386344
1759 -7.502887296350406e-05 -0.0007406682026814842 -0.007573116020629015
1760 -0.009975940035391347 0.004895788039377677 -0.0109067884190048
1761 -0.030161192641188925 0.0044149332928760535 0.017112800825118787
1544 0.005670293918467632 0.003357883927573401 -0.0006305197817571721
455 0.008409901725059581 -0.011338066252585698 -0.023052666165594468
120 0.009519060935204214 0.0017016989062378029 -0.0024512801148107843
210 -0.007094051638326101 0.01291191885462666 0.006324882454920427
1044 0.00827745183964559 -0.004473253418058681 0.007542620211873571
789 0.002937922520392254 -0.010284898635239898 0.01199096313669814
1619 -0.003113006162681023 0.008249005946781993 -0.0062119700245378455
1750 -0.006224082311835797 -0.001629914694942471 -0.0028974731266186585
1751 0.005908693923234579 0.005179157359094085 0.011585661623161192
1752 -0.015581051910802423 -0.01139143141386161 0.005394910315665482
1789 0.0009038684527873168 -0.0006049662848524996 0.004792216413585526
1790 0.015076425191357117 -0.021016919244460662 -0.014089518478297904
857 -0.008289227194243274 -0.008386590772804941 0.0159223041669866
1791 -0.014949894614817136 0.027941132287793855 -0.004554492897480926
458 0.007379821391709762 0.00036546606234786526 0.011734326930064811
1443 0.01010703995947361 0.01037236984645565 -0.008544800328149513
1252 -0.0032882763975429024 0.00033477858134641793 -0.0055725090416023455
681 -0.022269935458556354 -0.030863341203004314 0.0033994383927864035
459 -0.0036105349818071437 -0.004649934506737702 -0.0004030463265048696
457 0.0073031495227898575 -0.0076489190786829435 0.0009621786664988763
935 -0.0056905481048188135 -0.000601500954644474 0.011641378600044874
9 0.031014239545177083 -0.02063215322363413 0.00631298155573968
8 0.016094892406701998 0.03761469614120429 -0.03094440720317319
1392 0.012274114492100894 -0.010676770344921215 -0.020494934265967005
117 -0.00570541233790692 -0.007718697974218363 -0.0012499756074678264
1770 0.012848046494745682 -0.0004949345337432815 -0.016818064148859852
1768 0.001633638483429286 -0.0019176583192617848 0.0008479681373013033
1441 -0.0013174153478538323 -0.0017075123025833082 -0.00306370913526785
1390 -0.005453330765060537 0.004155162343535668 0.0006943610188419745
173 -0.01287140123353169 0.002442431003033992 0.00199222465907955
208 -0.0011917628478294044 0.004491871816368448 -0.0004341252421097968
833 -0.009653009114071381 0.007399144945629774 -0.01372933687932747
832 -0.0030153777872770075 0.00532857230039443 0.0016750890682247514
1511 0.003411050134505076 7.510689550184817e-05 -0.0052971764590546725
1104 0.0048223065323018625 -0.007381873823986494 0.016247083782068027
1551 -0.012445340929344018 0.0071592476937758585 -0.015105703483359609
209 0.004302910212253215 -0.0012828379469513058 0.006049993414157984
834 -0.007359663548164495 0.009574427838283918 0.00912237158609625
1033 -0.0025885573108944534 0.0010948505377136762 -0.003104909998674655
716 -0.027386307645313218 -0.0011840791997691834 -0.006401302389602634
1035 0.004591534289316553 0.0074916095777393665 0.014182351360120263
784 -0.0015736393803504633 -0.0032083109971935576 -0.0023125917848506165
1699 -0.003549244470930444 -0.0019025429549169557 0.0019191024500707719
1701 -0.022542152242308506 -0.004307328664354954 0.0023426410755833208
1550 -0.009632680158883314 0.022824370237248353 0.0015072922716474698
7 0.0011761303057904204 -0.0023330460118561494 8.895261835357436e-05
1325 0.02390105874016475 -0.006471769224632211 0.02243203043629571
1324 0.0017830056666226692 0.003176936017994232 -0.004061999793488838
826 0.0002966341895040498 0.0017667988496280341 0.0001764382015365211
827 0.001257286035246954 -0.0018575500331914068 0.009279984269188482
828 -0.00881413979676257 -0.0006276109746574305 -0.0032137567838201684
1326 0.01841852815920826 0.02559278593469543 0.0019506912228263841
1700 0.005396845079703191 0.0025997870946809468 -0.0011423350348064615
1549 -0.004176911168913724 -0.003742139819220696 0.0001693390242723647
348 0.00044165555769672913 0.0009962745517328733 0.005626926533280952
1093 0.00538556464951459 0.0038480106223998194 0.002217499490617162
870 0.021569565686085125 0.008563404708206646 -0.004669337299872784
1094 -0.0003424354462476175 0.0018542114492245978 0.0026265521788842745
347 0.005782386458550615 -0.010585886024685773 -0.006007604603614927
346 0.0029556250820487622 -0.0044316634536658295 0.00014397556715611178
1543 0.0028962460723647968 0.003527907304782737 -0.0030006735750790826
978 -0.006481727611072763 0.0047928733874331225 -0.009758717422241997
1545 0.004874121530036418 0.0028362953579127155 -0.0005291171182302765
1095 0.003517890874127335 0.007103112868101914 -0.003985392544576929
543 0.0049454349096160165 0.0023288128024641 -0.004780470334066124
974 0.018008891372674647 -0.017340691512919018 -0.001424852378318287
1030 0.005758935248827666 -0.000245336195996564 -0.003770781837545809
1032 0.008792220025112936 0.013973481242205361 -0.00039163845341636287
973 0.004837036961485522 -0.0036933413314049765 -0.014170902148684284
975 -0.00690314413772525 -0.005469494735255916 -0.021525945070555712
541 -0.00019350094641654706 0.00012866552304045394 0.0022149089358033903
1018 -0.001839628625770228 -0.001560063421042144 0.0053230920340919426
1019 0.0048738371888668785 0.005393344052739816 0.010609546017738992
1020 0.005967599525694578 -0.023955415231402478 0.009479008141917513
868 -0.004386662154570978 -0.0005724916998684198 -0.005175558943496191
542 -0.010826382531630797 -0.0003180480308256106 0.006650015605661406
869 0.014837825814509297 -0.0237681771577374 0.004911085295627711
976 0.0009963375818041087 -0.0024737817920516304 0.003749330739662491
1424 0.0005343759988375612 -0.005593582289494793 0.00927022256568561
1423 -0.001753495907054727 -0.0007851204528578906 0.0001904564329041972
1458 -0.00931161814728721 0.0030354291668856035 0.021082036965913837
1476 0.005675144609209622 0.009645656815219023 4.5628905114845335e-05
279 -0.00048033449341181565 -0.019230717282100376 -0.009274179605786494
277 -0.0081755784501306 -0.002460471074526047 -0.0033743073900768515
1221 -0.009481670080949117 0.01574407887571434 -0.010473874113171983
1425 -0.013988195404528317 0.0045307081069896425 -0.035079765068341116
738 -0.02099124963004504 0.0016177703267340022 -0.007865497454106415
1456 0.002369399270558365 0.0017992982405960229 -0.003687685813655351
736 -0.00044902604252856356 0.005525696084307217 0.001513554851134977
1671 -0.020255206280076377 0.011752389328670976 0.011640016182995344
638 0.0014473561894501404 0.0033051350417509034 -0.0020628483811847794
386 -0.015003524821985297 0.003633713363395327 -0.010761215658691913
313 0.001632333674901985 0.0009680290943486876 0.0010208163323748472
314 -0.0031329068530052597 0.00718856690459348 0.005928528994247066
315 -0.0013177546756316808 0.018228288676284732 0.002003292168054061
1118 -0.006249865681994243 -0.0035273535834489927 -0.0004280208493579934
1117 0.0014758900132052677 0.0026558810680494963 7.055370249831577e-05
481 -0.0044085510883310735 -0.002907856568439315 -0.0017228607143833505
482 -0.008164334612628029 0.016503188234582324 -0.01039779729487271
483 -0.0019068660723858958 -0.008217275782001371 -0.003945657798328411
1119 -0.003951922354919765 -0.009867627976152605 -0.010999226786116081
639 0.017859731024208323 0.013845475750154296 0.00942846543428315
934 0.005595399964993329 -0.001870751379866023 0.005748233010164658
637 0.003926139684352039 0.004175579273674674 -0.00016916667763462677
39 -0.004116946083713954 0.008332254044592407 0.006459744333534851
38 -0.0015407698475588326 -0.004534644935070195 -0.008108616173907695
37 -0.003108557203451257 0.002790743952857218 -0.0014617193335656883
1254 -0.0024432063359633776 0.0048017111519238365 -0.014006944503616366
123 0.0030075750734762925 -0.005235928026526023 -0.016235297107934685
1379 0.0016631621532689769 -0.01611235214025596 0.008718846401417452
1228 0.0012723672285373364 0.003158243427609619 -0.001297747238439993
1219 0.006360195948188151 -0.0025954629200685268 -0.002721347650259137
1533 0.017047149215687347 -0.00670560058133158 -0.0014774343542670893
1224 0.006850093141560253 0.004583097544352346 0.003239382667174535
1457 0.004870281373026746 -0.012028991850303159 0.01572465530148324
244 -0.001968757772771283 -0.00013366358541242712 -0.0024731746558491062
16 -0.0025545988508266122 0.0016969563670088113 -0.0086874785606314
812 0.0036887957440000464 0.006953318001527889 0.011186016369665232
1769 -0.005498289010323414 0.0026183018435987243 -0.007234336748634268
811 0.001419206392509086 0.00011347154606949369 -0.005925647614235729
813 -0.01132430092125396 0.004672658365400913 0.008335077879075002
713 0.013150567803317732 0.011278859670692249 0.00244081304857761
712 0.001075074555394871 -0.0009552055337165048 -0.0017597804338655863
714 -0.004753952915973229 -0.00503283262775869 -0.006457824284519414
890 -0.01824319063723166 0.0012221370845377775 0.0013636610257208987
889 -0.004002247176412273 -0.0005452319412654833 0.002126944810590086
428 0.004642691647413618 0.0007106568814421713 -0.0016610975205405222
427 0.0052792585083273275 0.0008552077997399625 0.0001748557197625078
62 0.01861059385200317 -0.00021683022389705728 -0.0018457600010999928
63 -0.006165780286871594 -0.02027588322215148 0.0003037227983598936
61 -0.0005951465228345409 -1.954166052731808e-06 0.00029158158292849867
17 -0.004158365272770604 0.008231856248851812 -0.009249483708392648
429 0.007848591535624212 0.003949896710467027 0.0013995166972189668
1664 -0.00887693053926049 0.0005052829485332633 -0.003733296907297413
115 -0.004031205983299438 0.0006935138775895781 -0.003989776097797131
201 -0.002698453646538993 0.025242974790633217 0.002050505998259024
1352 0.0038294717216526817 -0.009525443911109092 -0.005588247947168237
679 0.00038645713051511834 -0.008057991651151755 0.004576836104793909
1220 -0.006930394538467512 -0.02282461412701431 -0.006011019739275473
404 -0.0001451593454816318 -0.018175704499090208 0.005348693877543192
175 -0.001287931923537898 0.005127086599082014 0.008308245591686463
1465 -0.0003813151235002057 0.0003490641870338243 0.005724776608555005
1744 -0.0045769305505881435 0.002667092115309017 0.004195740010318054
504 -0.020636766416717637 -0.0035485381247876715 -0.0010995469024492148
936 0.00640858369796381 0.0031401417238614677 0.009915859942639365
989 0.009850290785928967 -0.0078014628098520625 0.0059673966253822805
553 -0.00106673163118469 -0.0013871720858152769 0.0015949371012184028
554 -0.00844091504706328 -5.014873002794351e-05 -3.05120515564659e-06
1081 7.905515306105665e-05 0.0002511859960832192 -0.0021924102235506976
1083 0.0014383779038335237 -0.017436577424616732 -0.015873908628381794
1351 0.008785519232630174 0.000823819832024005 0.0018466451748522443
1276 -0.002008440632769103 -0.0030454086984641276 -0.0003229657209264568
1253 -0.013401073811313719 0.00046946390508431683 -0.0013492347587535987
923 0.006979597152505483 0.009282873478953407 0.002974612479341437
922 0.003362105803364856 -0.0022065788816485097 0.0007474349893051401
924 -0.00539173661496955 0.014606888470466678 -0.00876303791101692
1277 0.0175563421269666 -0.01033954181259825 0.014610695486526059
1278 -0.021413885606525223 0.000513831128627389 -0.005449063325899132
1532 0.0003238822552146754 0.0037270039298025475 0.011391251805978202
1106 0.007936741184092733 -0.0006081063810122866 0.03492473374960579
1272 0.00600197912749201 0.007367324618340629 0.0032400217449388676
1531 -0.006015086629947183 0.004006777786055266 -0.0011164818266364341
1198 -0.002003979499085587 0.0038457393144213582 -0.000492564413297032
1270 -0.00011917020959284513 0.0009293480193679355 0.0022267433610346755
1199 0.007889424837160309 -0.010873916032523806 0.020421938287006277
1271 0.009511820139462394 0.006973675503286818 -0.010652057637756715
1200 -0.015096862616528985 0.009877675064685738 -0.005445935577380082
1042 0.005671059722971438 -0.0008183718989043064 -0.0039031156886424373
873 -0.012128460181076306 0.011470552939097744 0.0009751602901808375
609 -0.008644358558801205 -0.043422981234868666 0.011407346160249132
18 -0.003803531708779186 -0.002850061628323141 -0.005410441411622462
381 -0.02841940554931365 0.013495858271847131 -0.014264348857354931
246 -0.011021116599268509 -0.022295001849469347 -0.009666604440591663
745 0.005178084482727251 0.004138197089486651 -0.004943787033907229
1092 -0.01707906094083002 -0.019821009860595467 0.0064042557896104
1632 -0.009241737767342294 0.00018366960529031645 0.009055223231878164
1394 -0.012053197218532891 -0.008012907681297527 -0.001296828349790261
726 -0.004337966349072578 0.01109092263695602 0.016806481048341614
1230 0.0016784913508155908 -0.005160115535972865 -0.0010204824707103152
742 -0.00659429749296154 -0.0010502776572689607 0.005738997367931278
743 -0.010482244547749004 0.004040550222814708 0.003441897050979305
744 0.016770213103289966 -0.010936639396714222 0.007653234398313865
304 -0.0013703263242430368 0.001520853617217728 -0.00043644764632222135
305 0.008311985433149358 -0.006346512745158523 0.017259271948960406
306 -0.01178245344944092 0.02468110919850051 -0.009198453658458844
1012 0.0006936766251260496 0.005167518980956498 -0.006135111600185332
796 0.005372799143414053 0.0018347171297963063 -0.0033364117053319526
1013 0.004396463217197962 -0.004026565111874523 -0.021086337533448643
798 -0.006436871254357447 0.011829434385202044 -0.015118524865885953
1269 -0.00955893416923823 -0.0205885030430003 -0.004374203840141296
1547 0.008885040679247691 -0.005891823045295603 -0.004312493175050198
416 -0.016408814179062363 -0.010396769300327714 -0.009838923458489782
410 -0.0018702513440782352 -0.0016228997584677072 -0.023269196139689932
409 -0.0027216911078800786 -0.005113846091563506 -0.004499621476488877
411 0.01313884771481714 -0.0040642101872274145 0.003256909182929863
248 -0.002426372008246541 0.003938439128073726 0.0025510606826580342
579 0.029431230115561476 -0.014651738555742023 -0.005336069944565423
1014 -0.004189916264777549 0.020522514276485257 0.013276504454346659
247 -0.0008143676212060574 -0.0005223269045407271 0.0011173222596636203
1057 0.0035905029765379358 -0.0027169248347423806 0.007030759541394168
1301 0.0017432752221530632 0.003999366132148162 0.007027991692857311
797 0.012872728090673205 -0.008016258680859987 -0.0006276167008892728
1316 -0.0007909123185478765 0.0018471981323274261 -0.011466983783236724
1322 -0.004862314265599783 0.004316318793022026 -0.01715466393459069
418 0.00046556040426901145 0.00036973285520453425 -0.0007478917119247171
377 0.003713268733959661 0.006625656784855875 -0.008906095402429422
376 0.0061374653990374775 0.003661881940236879 -0.00855750981105337
1168 0.0021098380506868668 0.004296157642523345 -0.002870055645689722
1170 0.003405096792379735 0.005582046035574241 0.008652386970283624
1762 0.001970039489736134 0.0020336604749913523 0.0035780785056296503
1763 0.0069816043332897116 -0.018241520743996025 -0.00319383007435902
1764 -0.01724201326793889 0.000808733276671335 -0.004707049093478823
1323 0.0053264731916 -0.009147546365899088 0.004980632291230722
1384 -0.008888363022177515 0.0031464009176061744 0.004580330526237671
1169 -0.002515601570666202 -0.0064453702892832195 -0.0052364402050207185
1321 -0.0022651287563800583 -0.004397030224071662 -0.0017652110629731797
406 -0.0004309233386723191 -0.003886887083270394 -0.0024594443172537457
1116 0.00868170521990555 0.006436710326805948 0.01719527387641702
1114 0.0011561271758182528 0.003882470207946484 0.0060010116620318
1063 0.0005517952857651019 -0.0011789618650909885 0.006443699733153625
1339 -0.00018516987458959327 -0.0019107492663949708 0.0033926886470072764
1340 -0.007174060890293941 0.009590671920362193 -0.0028452242807900457
190 -0.002937526912567911 -0.0021584590831015393 0.0022285300463460414
194 0.013309796374068298 -0.0211280198123306 -0.006604940266771534
195 -0.010660963627639046 0.003040236321645801 -0.016112846797147355
1065 -0.005503275972440839 -0.006698257722087806 0.004021077600143449
1064 0.011033163494347058 0.008456323045664581 0.012091920280573003
193 0.003432501179807052 -0.007236611375103688 -0.005814026829319217
1767 0.00878825020667989 0.01669329230628802 0.0016349791358788667
1737 0.005024291757187554 0.006578867909876662 0.0074744528009449696
1115 -0.012519092685318027 -0.000681487841424745 -0.009885201164947392
238 0.0036433199906818394 0.0029545824160928523 -0.005254969922953343
1300 0.0034431762726778305 0.0014104040366350486 -0.0032433244176697617
516 0.009652675358659817 -0.00946180700493865 0.011947688079751682
239 -0.004457996430658751 -0.0037059688239034455 -0.0012961601162676047
1341 0.009374995849107672 -0.005242263724461842 -0.005881865493366798
320 -0.00843560209760119 -0.017406741645378376 0.013280822806610049
1052 0.0007548400651318201 0.0016635761966801645 -0.0017337573305565392
657 -0.01086660647746841 0.009143663649063563 0.0005484343595921773
656 -0.010417007326839657 -0.0060600628027519836 0.018129296046577998
275 0.005333508056893191 0.007846652461640635 -0.0014717500887534295
927 0.009453479360942395 -0.005120851539531534 -0.016383655528993735
1595 -0.013523811248108347 0.006447349781074014 0.004169444620250272
967 -0.005382210602508143 0.0022523657272658713 0.0022607603539416296
274 -0.0008465954055341784 0.0002267133858217722 -0.0017481483827605372
276 -0.0035555445179513002 -0.010485557661344586 -0.0012514712650681195
1185 0.00039788355127683855 0.011929817204521766 0.01213707116157864
1517 0.0034412876861840366 1.0757389318504058e-05 0.0022120825966592144
1518 -0.007519440101846595 -0.002240678564011383 -0.0062483217426065425
1596 -0.0030590775205680738 -0.0002027207784125048 -0.004471480074403074
1594 8.666187678522502e-05 0.006346407206058321 -0.0021382119236509757
1516 -0.0032863235513913842 -0.0003138690336073641 -0.0014832915059527667
1051 0.0010532394484689238 0.0012008904205592981 0.0003175493054421521
1053 0.002161292476713199 -0.0005794728902007128 0.00035804612114296637
673 -0.002535495088093287 0.0008038485111510737 -0.000351001878889452
674 -0.004897443691206417 0.01482168836092829 -0.018694095603177016
87 0.01317024885168482 -0.0006457860029565011 0.0009995319368357415
1239 -0.004330905477997642 0.008021123872399713 -0.0031117535620445677
1765 0.007387213247299898 -0.0011028778833243064 0.006122946098213529
655 -0.006500855710695541 0.0017159444970799836 -0.00027177487397940937
686 0.015455148694709936 -0.01662326602624614 -0.0008370632084056617
685 0.008856165432772343 -0.006662439105646368 -0.005265399861630875
1766 0.006291150145569063 0.014121301851759338 0.006461508779501244
687 0.014646205656972732 0.012694561676941439 -0.0026760671101191346
1293 -0.006928325779763876 0.016203504887846693 0.015322194515753921
1672 0.011341665184424518 -0.0029427346409126275 0.0054086195183973415
1080 -0.0011704746029150984 -0.008100968164691804 -0.015355912626400608
925 0.0042016326633694005 0.0026255541613889218 0.0013501430309592211
962 -0.012900724129423951 0.003928941417358188 -0.008284015802184469
633 0.019742529850962497 -0.009567828276433068 -0.0057307983131640915
837 0.006482990922198289 -0.009902635785374167 0.012880225367058469
1546 0.002157985228963297 -0.003048926088925338 0.007100174436680564
662 -0.014160596386301582 -0.005497577489832832 0.035262501492146166
1548 -0.003922527916377646 -0.0006895346588044322 0.018739028737507216
559 -0.0018205344098146847 -0.006118092632234371 0.0022265106999888678
835 -0.003139436055782285 0.0024497197571102572 0.0004530663093054658
1659 0.0013162622017773963 -0.007779648125842839 0.013652547581034836
1120 -0.00032631263434644315 -0.002475963784626948 0.0036469406119162165
1121 0.008605926148723105 -0.016029566879497834 -0.0005579452985668305
1122 -0.00212095103135927 -0.008664952623998756 0.006502706169163808
1657 0.0005601567878875465 -0.002214793633033243 0.008208487769426249
1658 -0.0075437019171339294 -0.0002739037332374033 0.010442342124727529
113 0.005471016210107142 0.0039193218819642585 0.004339514987566221
1644 -0.0014676968054525127 0.009799762793212636 -0.00859348506477208
114 0.007268876103950792 0.004043729320118054 0.006101565760941577
112 0.004597325368284722 0.004087642663728941 0.0032091601893464135
420 0.030593604561939144 0.004858065368044899 -0.010683569933049994
917 0.007947388949377394 0.0010878111719961002 -0.008778933346078644
1732 -0.002228619910676563 -0.0010151006762028367 -0.0032612913943126215
1643 -0.007480894567935181 0.019156348052622226 -0.013308380410902857
1709 0.013467375617595756 -0.01040924681021522 0.0007509203221637057
851 0.0072963366314057225 -0.013670499185761851 -0.0075136763720352545
1076 0.002133755333797646 -0.006217038190326345 0.005743041472975204
1184 -0.026108189237596065 -0.014361372710226547 0.00043172936245984886
836 -0.01326663954105428 0.006728034395077043 0.012111364610900963
1527 0.012016257120724683 0.012611720681838204 -0.0062863704699332775
373 0.0027509906792297693 -0.0027557498601502224 -0.0030993660740610204
1642 0.003820725264026135 0.0033318297390766845 -0.0026984205780696386
1411 0.0009288674235610069 -0.0025522840732628525 7.196011613737937e-05
100 -0.0033271743755275587 -0.0008178501997976863 -0.001880188901325569
1433 -0.013436155758173434 -0.01791448672755139 0.01484430954199873
577 3.14714972483901e-05 -0.006665629565607299 0.0004926514646138525
1434 -0.017779701805114716 -0.00917030292480588 0.0005226366319942102
2 -0.011366601580474377 0.006904365427048762 -0.002504593023093294
986 -0.008645101968030125 0.030696723561502083 -0.0095256097632898
985 -0.007262489989000761 -0.004139436262926406 -0.0007285148785591981
987 0.0016017095910090021 0.008991631949949687 0.013314674515427618
109 0.0024642171636694624 0.00022533681349140903 -0.0021981616401804144
111 0.007116801576923154 -0.009996947259226417 -0.004454078010215158
110 -0.0031056098453234107 0.02014970764531903 0.0207325929816725
1040 -0.0030096576489375857 -0.0028052985202431453 0.003118673277861272
1039 -0.001836465991314264 -0.001342253102325067 0.0013348661106682505
1041 0.005622344444757126 -0.0012992464974789723 0.0004619094958773382
1 -0.001897676358428514 0.007683009475056387 -0.0009613438529581292
771 0.0034209609610621537 0.0002793495220361825 0.0028916920734489227
769 0.0026486951908257735 0.0013350598153545558 0.0003036546386722448
3 -0.008743406621869594 -0.005971701777153406 0.0013457386588379633
969 0.003875879771508674 -0.006642703935973657 -0.006161809673082078
1432 0.001379684964733028 0.0035404689767724734 0.001664342592031519
370 0.006148457870364385 -0.0023902671064388982 -0.0010162095293135894
770 0.0003947575370888924 0.00564793513357892 0.0116166652255439
1534 0.0011935154167574144 -0.004806404927695862 0.004442717345080097
153 0.007566040640510025 0.005640893237666148 0.008415117641850697
11 4.0041483399739194e-05 -6.8328270798653065e-06 -0.006942944797850826
480 -0.015341477536725108 -0.015575807482911156 0.0022301721433315323
375 0.0070408140619550455 -0.013455254318241327 -0.011479385361427211
486 0.008215740226012663 -0.013184968625256826 -0.010710775988970021
485 -0.02059062833126772 0.00992850508169065 -0.0027520103519330613
484 -0.0005986855353387788 -0.006402152490691452 -0.007852114554035047
378 0.008171625967247732 0.0007631366571017883 -0.008296152151271961
820 0.00047583293870624526 -0.00233421306779012 0.0005369740270973091
25 0.007325517676224016 0.0015550829922768709 -0.00275547907385607
1640 0.015939511729501882 0.00858941728466813 -0.0033680067334049615
26 -0.0009094129427624048 -0.005050639879095216 -0.00023851362148655215
1176 -0.0208626493219367 -0.008108161264946062 0.020771331710256732
1174 0.006365027093271102 0.004091545937660041 -0.0025345595106883965
1413 -0.004173866907367144 0.005307541441489353 0.00330018498367182
682 -0.0025107054880336957 0.0038088778678468218 -0.001629059346186618
762 -0.013172156369402152 -0.002785670508245538 -0.015745585177976633
415 0.009085088695478163 -0.00024274682814022 -0.0006498878452447134
916 0.0007685284282645936 0.0037916386333290138 0.0030992954383123354
755 -0.005579368206989518 0.011876257867222597 -0.001109109700508593
1734 -0.009825753522594608 -0.0050997030505503145 0.012577597670197706
1651 0.0005804421369370391 -9.462255557265634e-05 -0.0015376748620863274
1652 0.028551502730192888 -0.01696003146263601 -0.005441996022049127
1175 0.009101109862653896 0.005292678954771871 -0.004837028862814035
683 0.010127180622683078 -0.006610048013783917 0.008464576390488242
684 0.002398284383827308 0.008893161020260481 -0.014383107291501633
1639 0.0010782366998800385 -0.001183298937882855 -0.0013339561381977005
294 0.012628347509557245 -0.0005473311011465896 -0.01930823063920172
1653 -0.003684163418541214 0.015099008588583521 0.0019032822503821907
501 0.005375917456151684 -0.011710802472275458 -0.007982418074666407
756 -0.021231696200142938 0.016063414842521793 0.010222253951819861
157 0.0012982244220535845 0.004231111019826437 0.008145556326901993
408 -0.006069416065614854 -0.010846964008600395 0.0095844382140295
1727 -0.010674578461763659 0.0013320375088927082 -0.004858039017388935
464 0.011310597171636013 -0.012149098717514675 -0.0159032251943067
124 0.00808021592165161 -0.00025417833983917577 -0.0016362552729035432
126 0.0012732185591416748 -0.0007040252241471198 -0.0038116706134002447
319 0.005340371757951744 -0.004312461883094644 0.004925131317146394
1535 -0.005791844285420959 -0.008873908857030604 -0.005006235241773807
463 -0.002729341847391067 0.00231552962918925 -0.0008046723109415275
465 -0.0077109675250874 -0.012406818465555825 0.02071663496533588
178 -0.002106101200461883 -0.0021305648184682577 -0.00035081122480228445
179 0.014476551515136004 -0.0041829407120015484 0.002133314583964501
180 -0.016341779583521225 0.022520394815938975 -0.0006389864163537623
125 0.006939786891091367 0.0037809192729645565 0.0016188546362026868
1726 0.0017575074873212916 -0.0016971109743475097 0.0017251961268386184
1728 0.01188303546594102 0.011218724464263113 0.0085428780717313
302 -0.024646203729181176 -0.021077649211611368 0.005646071083319217
1232 0.028868332539333356 -0.010713631764575062 -0.002253155746617611
758 -0.010091829833168831 -0.015329741831637536 0.00010747989368087048
761 0.006661880782726674 0.007820546391614943 0.0027695939926794537
968 -0.006645002405909954 0.016317435609737356 -0.003914746933735184
1678 -0.0036108527866409537 0.00141186048691996 0.006429452767588304
22 -0.005211361871049505 0.004315557631672268 0.004788105004283076
1525 0.0023031389192880243 0.0005804630980420081 -0.004688630936247201
23 -0.011164140514715306 -0.0037485611193937875 0.008479326681648152
354 0.004997286148113817 -0.0008719227890232874 -0.0016057927804639497
351 0.007372998714814864 0.001020462321866337 -0.02504136264722053
349 -0.004872466266199904 0.005297818476508648 -0.004939295366351833
350 0.013323524285662004 0.002264142183424632 0.007611755745924365
1526 0.018206883701099637 -0.0036707493456200864 -0.020648421184085573
1418 -0.00018605120998588316 -0.008860487030958363 -0.021136851439525785
1448 -0.00626191401275692 -0.014701316540708349 0.007428149822893375
1449 0.027723061573589454 0.013406072146398357 -0.0006752658341348072
1447 0.0013455399164193445 0.005196521413867116 -0.002828840550703449
1183 -0.008205598223470351 -0.003410705069751286 -0.004449983903372569
1417 -0.0018397221674393374 -0.00505115123769881 0.0006594878879753423
1419 -0.0005282695416556964 0.005759909165196196 0.0015009126730456805
1315 -0.0024702165482728736 -0.0013463542391549872 -0.0038753923023523524
249 -0.005484332328739756 0.00765505476762231 -0.012567074635677635
1698 -0.017947102553947148 -0.0026487491610386526 0.017724067122788213
1696 -0.008854927159405926 -0.0016210585927841745 -0.0018773334436127643
1697 -0.019763130572356426 0.018542570883553756 0.00404126617893871
353 0.009554469654171751 0.011992805775580326 -0.0025378797268535255
352 -0.0022932563680934004 -0.0031970186778963274 0.0002265302115340423
10 0.005813099309609645 0.0006365398423391438 -0.003625266660615478
12 0.01846036962979573 0.011496656733698901 0.010577394449821462
417 -0.010483261669182117 0.013112810032288546 0.0023606769733459454
24 -0.0162164655387601 0.028745246574646534 -0.007368516969047842
1267 0.00023410291613117502 -0.004702390222902392 -0.005752406196729494
1268 0.001224574523343734 -0.013198566905388145 -0.007485703885514264
292 0.002625060848823383 0.00046296249929414133 -0.0040620527637746035
850 0.001346482860960487 -0.002602302695875511 -0.000801901808985054
1692 -0.0011429159837396915 -0.0005367254407088098 0.005274654135793064
906 -0.015667817524102116 0.006272273339802415 -0.0017699822691048454
293 0.002782901539159565 -0.0034001594980757888 0.01443608769383757
1647 -0.0003159679411860857 -0.004905385351064178 0.005346248570926433
1084 0.006090416682187318 0.001387102045796302 -0.0027474217278268772
1085 0.013336424017261869 -0.007005728407760285 0.0008298396431819463
1086 0.0014457166717341317 0.0063893752326642335 -0.0033925773412708405
596 0.0012359154872347688 0.0009268342484414207 7.494712302125003e-05
595 -0.002076234276489746 -0.0013045978543452864 -0.0025829267716630804
597 -0.0031892326947177995 0.0003934841918511229 -0.008356365502747286
1026 -0.0010816727676977108 -0.011573595727544395 0.008692409632599114
863 0.0012158979238162495 -0.0007686330249395517 -0.001478184425753947
862 -0.0030155654004947333 0.004228578228757243 -0.0018799100773254627
1756 -0.003589949888189571 0.00087620164121689 7.826249058715332e-05
1758 0.013127352325608601 0.03558307044065754 0.001562083484669798
864 0.004560187881392734 -0.014393438556981946 0.007863544219324718
1385 -0.0004942014639159175 0.011006331511666075 0.0015225935266373362
847 -0.0028373630011105716 -0.003625256946417789 -0.003592414903514514
1645 6.570404759581046e-05 -0.0011957825771712646 -0.007121143088718527
605 0.0033199116771434342 0.012152888295364738 -0.002523383528180771
317 0.0008762174364231089 -0.006400396172802938 0.004583270691302376
852 -0.0023961252045381007 0.01719407508108591 0.029013324218029216
233 0.0013492186245209446 -0.008730898410647883 0.008258020762023017
999 0.015094365079687542 0.011979003776535675 0.0038962848920699477
1608 0.015510587056859149 0.0054047737015966504 0.005083341669464902
524 -0.005678926758738872 0.0021408313297853676 -0.005731135389694965
1495 -0.0007320792085727766 0.0017207974039139477 -0.0035835078256053073
1496 -0.023070239462664396 -0.005037925077966107 -0.01258560753515157
1497 0.014590530989198412 0.00959784339339006 -0.0030751986293506076
263 0.00047313730991929714 -0.010865835236535778 0.006084417583549807
341 -0.005949137328854727 0.010822514160182074 -0.010303058318069793
1406 0.0031667926974488984 0.0065026346311702725 0.0032739077442039653
1606 0.000579190878204309 0.003949138985348577 -0.0037217933484026446
1607 -0.009537040087380962 -0.00705544436906674 -0.0028924346474029374
1296 0.0034451677352419683 -0.01956233853965369 -0.003659956191228665
412 0.00016022217813637475 -0.0008639325875880238 -0.0040598232841028235
413 -0.006564934274771788 0.0038492372792824255 -0.013645500503208834
1738 0.0005742545598432568 0.0050758147667278805 0.006279704111438325
1294 -0.0024944775805624646 -0.0016107266197985526 -0.003346655294655908
1295 -0.010500266987625228 -0.0011321772058755322 -0.0023302687215635116
1422 -0.005345678120180452 0.0035782641012521363 -0.0035735389539239787
1420 0.0011742212752186398 0.006337864145703219 0.0011881307605813777
1421 0.009731234651080403 0.010923807951510081 0.0019769785720570015
604 -0.001202665237107862 0.0020989054439451457 0.007799873179661921
262 0.005013808491545879 -0.008440936866179492 0.0012501706778113501
264 -0.0136708585040101 0.02008919839373267 0.014666314916392633
29 -0.007619971699219188 -0.020037178068431666 -0.0019987917292867766
28 0.0007280465383610944 -0.0036610925681193553 -0.000353076030470286
30 -0.006367820323751596 0.006690654622275866 0.014776747186847801
606 -0.0009128007010935944 -0.0004465070217893866 0.004291455839481587
369 0.01719184678542623 -0.004357998653154108 0.006320313519317981
675 0.0014625698727035684 -0.030775289829981137 -0.01619602561166736
1004 0.0140086678741008 0.012096725415085413 -0.0023206222628298864
1003 2.880030439846438e-05 -0.00017597831197952322 0.002493698705487033
1667 -0.01040776287847997 0.000952297554951938 -0.0017405013497808258
1281 0.016549914686601486 0.008581488585277757 0.013792037157543065
1016 0.009247550879187912 0.002319971902018485 -0.005299412785803293
1015 0.0014523124137893041 -0.000348249810427761 -0.006584191563039948
1017 -0.005518593485945659 0.00481622949794969 -0.0005615734350613908
1717 -0.0046825358600337645 0.0026084918045685564 0.00021590680314661522
1718 -0.006503469029085204 0.0031029103089838424 0.0006864927205182743
1719 0.00016295286555613253 -0.002632362678886552 0.018404462174543834
137 0.0016275668465010654 0.0028329615621506725 0.004222249990657924
1109 -0.0035094857612782246 0.014238837573984002 -0.008198845878674636
136 0.0030512337772863603 -0.0025349316482711002 -0.0016509176840684829
366 0.00013301051173652005 0.010406689508965292 0.012202735719895186
367 0.0017727266901989404 0.000640374849875747 -0.004754934033450325
191 0.0073193822495202935 -0.017558445790456522 -0.002800930384696641
364 -0.00367691734047342 0.0032261897090342874 -0.0013119143038934093
365 -0.006703217060964397 -0.0016336108631273137 -0.0033810525406806047
1739 0.013238255763569955 0.007924515260027956 -0.0038597721608904195
1337 0.026777465439599427 0.0034392461586618454 0.002163951696105482
1110 0.014929787055028534 0.010465296918021214 -0.003064854980827748
1336 -0.0009039086188127773 -0.0011700858042123894 -0.0022225351369339528
1679 -0.007204145171638655 0.005481162522725791 -0.005001987641417161
926 -0.007477354248030837 -0.002153693543451647 -0.008270497918034107
1075 0.009829977212533333 0.00415804048255941 -0.0015751882200325496
963 -0.02798203234119816 0.005018200192783164 -0.0028557785432404173
523 -0.006802944136500748 0.00044429443264761497 0.0004769156395501564
1625 -0.014574972844330125 0.009005771108021808 0.009775049963113477
1024 -0.0018581267928057493 -6.420883274314556e-05 0.0039061116382301322
368 0.02259154667848009 0.00860073390890306 -0.024318205028599396
1690 0.0007554361999504117 0.0012163947448650746 0.0023622376779959924
888 0.016304902911954775 0.0014115980159809638 0.012108706239097355
1000 -0.002926851819308482 0.006441138357633794 0.003775863365652835
1001 -0.008433227269174375 0.020580636883889013 0.026163938879867437
1108 0.0001434395041915698 -0.003778896051818534 0.0010616268650798033
1338 -0.011986372187586506 0.008968439551344874 -0.025827114878035955
1025 -0.00035773795909266597 -0.009812947132649881 0.007000033896985151
1235 0.00969892442966062 -0.00437618625699481 -0.007666244277467604
1234 -5.8253934996705296e-05 -0.007027911649295465 -0.004736254874288615
374 -0.003087307329120253 -0.03180548251301845 0.00650443813480113
1079 0.011913952851148345 -0.005734548542406592 0.010821930717569074
250 -0.0014545568267986145 -0.003312026673422305 0.0018648243347302832
540 -0.002321072563632391 0.0027335166312779454 0.0027272319473051945
1661 -0.01851866521107234 -0.004617389452697271 0.00024064787521143593
1733 0.017101661767407104 -0.0013861563011394592 -0.0017905172249787524
539 0.009391008935816177 -0.006696942337623445 0.028732031932091073
251 0.022001512491673522 0.0032146148541024313 -0.0011977173737523078
538 0.0017955312061356367 0.0015166439880566456 0.008877448468702327
1236 -0.009128846735739063 -0.02427210896284218 0.001861375632251131
1078 0.0011368273380473002 -0.003297673756623646 -0.0038100966785981415
252 -0.014911429019272912 0.00635575592436755 0.011473473118384892
478 0.0003217760951255364 -0.0076323308072736165 0.004224637944245628
1662 0.0008702590006998016 0.01350893760398754 0.0022930441190926808
101 -0.004959851472015062 -0.001963990329063351 0.001455914176523005
848 0.012371696963145464 0.011027316708801806 0.007184514942974849
393 -0.005906082929867578 0.012364013762863895 0.01355213717178094
1660 -0.00468777381709283 0.004715904025568274 -0.005813800437275931
849 0.012336916576184354 0.005866030752528258 0.018054625503392388
1429 -0.0007387711119419798 0.0018736719456237552 -0.0017530860263194686
1519 -0.0010347304762499847 0.0020031095744676023 -0.00815977309334251
1520 -0.019461560271873513 -0.0024270010898504173 -0.00609540791179577
519 0.004714131080540327 0.0016217120221875753 5.8618555760776335e-05
961 0.0003174158125450547 -0.0008415866775484729 0.0009732711066985795
1284 -0.0047932666352466236 -0.0028559031016995315 -0.0051699459956709255
371 -0.004060267595579152 -0.00772815846057543 -0.01740869492026496
426 0.01924064658856167 0.00879743706245332 -0.01481139174781389
1431 0.027742422145836537 0.012059315258041162 0.01235498275081627
676 -0.005105158569785018 -0.0008527977829410429 0.0039255127367142
677 -0.004712387489401054 -0.004214926108683255 0.028629902597593865
316 -0.0010222406194029582 -0.00043862044323648427 -0.0007015959043396372
1539 0.028428311027511626 -0.003526005434571563 -0.0062810064310527955
1757 -0.030751909189612958 -0.023139699540610813 0.019824688628472507
424 0.007820381594063343 -0.010745323754515852 0.00442791738184521
525 0.004256201800624925 -0.0034418139764728923 0.0029219460225894944
678 -0.010885374250232983 -0.003483287737388017 -0.028869923404017204
318 0.006091420712581966 0.01197528871674074 -0.013673111207676213
479 0.010022658129281149 -0.009857913747735774 -0.0005765290430534245
584 0.013462600412419614 -0.024674939738803536 -0.005658181107635866
585 -0.016519046382302033 -0.014040617936624636 -0.0009185277877356616
583 0.0019323477993736862 -0.00787904925252982 -0.004397248248671938
1537 -0.0010359237378980157 -0.010424137473503483 0.0013932092182748108
1125 -0.007311666263737503 -0.00399215613544673 -0.001170680691861564
1123 -0.004298922042337975 0.003121766578024545 0.008672704816448336
1460 -0.019058256609126138 0.0027807382004166894 0.004580897673800606
1461 -0.0058566167177314605 -0.005947648870685177 -0.016301627234747214
1459 0.00043542556879412776 -6.0180523372379035e-05 0.0015531106280740592
1538 -0.0020705883627616037 -0.013708712717711706 0.0032409779463941583
1124 -0.0006559351356456376 0.013062657070981731 0.021732183721099755
425 0.014487995976260172 -0.01793432234745472 -0.004700083736638659
1708 0.00747301273984427 0.003306912920479789 -0.0018928807288541754
1283 0.004340949328417425 -0.005326842630958245 0.008067071967915054
661 -0.001270640814918255 -0.00045674358538623375 0.0065001313484417305
1311 -0.009442248237366802 -0.007479665693269565 -2.0197019854659705e-05
1309 -0.0014717914027612157 0.002218621654632778 0.0018643806002156657
1521 -0.010103777407679832 -0.001480996684922784 -0.0013308958696549025
1735 0.005064245371275564 0.004807005703210868 0.004735748118796766
27 0.0008412015697952132 -0.002536100642106346 0.005896855952065806
342 -0.006030417597528719 0.011807798481723942 -0.01161246444216916
340 -0.0018160450947508904 0.010935397933149757 -0.006088036555584579
1407 -0.005836962342113294 -0.008912725058804326 -0.0017708120927207344
1405 -0.003916486369393608 -0.005652641242439438 -0.0028713381117348308
1005 0.014183799785975263 0.016575531172114823 0.0016679186160231925
1736 0.011931621091837784 0.004988857817137121 0.019901704050166714
143 0.005877174031864609 0.009098254944781496 0.00816130237381284
1703 -0.01483081906635999 -0.003974773784879145 0.008458536516534273
1794 -0.0014688383352961256 -0.005060353941389462 0.0017061196643168137
144 -0.01055980564732222 0.0017508953043911517 0.003580112306863838
142 0.004729436921699821 0.009785387829789188 -0.005644187487260719
152 0.032147721649177174 -0.013757109075045225 0.002489685455272854
1793 -0.004730041493689751 -0.008568079496056426 -0.0025179079084578265
1702 -0.0007829718237266075 -0.008608128924042637 0.0012917529861846135
1792 0.0017753401611500619 -0.001407036075674256 -0.004924755338008561
904 0.00013621744695284445 -0.0032242907273819735 0.010281558818873552
169 -0.002445243251163523 -0.0052499936401750845 -0.0015607748883332752
171 -0.007871396798691026 -0.016409427102484452 -0.018096188142032635
170 -0.00617516393559171 -0.011336637477775581 -0.01088153572307824
754 0.0013218295232013126 0.0029863337185583186 0.003894940743017861
1210 -0.000983553279352829 -0.0032815446744010484 0.0016798292560754654
1211 -0.00971332094784044 0.004571398198275113 -0.007868985973804431
1613 0.0026682181722605847 -1.5850123451184356e-05 -0.01698970194964132
1212 0.006973938081957633 0.014800891862122094 -0.005732530576083864
1612 0.0030857007447224892 0.002303075954054449 0.0005082649975744071
1343 -0.005716494965892561 0.018918149026056204 0.007926690961969412
1310 -0.018268601606298243 -0.00873652233532797 -0.017636131515227773
1342 0.0006047226198837235 0.0060924470633429316 0.0051582743614602584
1666 -0.004824302930943815 0.0017997404351666202 -0.0014112586817400334
1668 -0.01706741698023347 0.009285384242758555 0.019370462034818944
138 0.0033535211788053598 -0.009873275160136807 0.010835284309780705
1089 -0.003979148077370727 0.012134327880927775 0.010791799656711974
1087 0.0011228551613321348 0.0029505052856634967 0.0024086026740944948
301 -0.004358782228806761 0.0018130463256792588 0.002113498199062137
1710 0.001222418424689632 0.017394812971420814 -0.010075365441886324
159 0.009664714606912199 -0.0006969536492142147 0.005044702545505315
303 0.0025754349146345818 0.00037608409405935606 -0.0213620421943872
1691 0.01432436616582639 0.011298050397435635 -0.017828116781908668
1641 0.00245414848544048 -0.00014894016157433407 -0.0015516052696828416
1233 0.00977788385692255 -0.008333554548544623 0.005236911889006602
1231 0.004592724846246994 -0.0012556101855666143 -0.003641687335273602
1614 0.004491883481147587 0.007910650276258546 0.004247299714251654
357 -0.004680043064513775 -0.01098057779692477 0.0035332831494750017
1088 -0.006440963877944895 0.007601656691514589 0.007712357036173179
1694 0.006401527910112967 -0.00048127132243379025 0.0023636826226393886
515 -0.0011339625763108975 0.009235608253822015 -0.014962562467186444
392 -0.011332064302367334 -0.008509571239519058 0.007558632455527737
757 -0.0014672621192469283 -0.0036824750751637517 0.00048188570534620634
905 0.026656258181154812 -0.012632957612740251 0.017336283514440283
355 0.0020172716836422576 0.0007700110439589443 0.003617477775488211
356 -0.004440168768008942 -0.0042082082441084615 -4.3552600125105926e-05
1471 -0.0023339229141709906 -0.0016202415888041477 -0.0035338343317008808
391 -0.002782367067408118 0.001161906191482556 0.004044597012071808
759 4.021728200491282e-05 -0.0060693131845781295 -0.0016996977778438076
1292 -0.0054831550870122455 -0.0011929357117996544 0.002412781343198697
1674 -0.013122186247131948 -0.02761450925998936 -0.005210642341959073
1291 0.002879569070679807 0.0029375369025460827 -0.004089827041356955
663 0.0004790858399620039 0.0008697025573528213 0.011074761726802232
1282 -0.0011051280176619055 -0.0038431326186285277 -3.3659774609496064e-05
918 0.013815211560570266 0.007318562485196222 -0.02319120311879861
514 0.0003106641989984876 0.002977145341191349 -0.008466721690254671
1472 0.029175406934744966 0.006883642987543745 -0.02593504292935567
419 -0.01666028008456095 0.014041566175563323 -0.019068369046163186
1344 -0.001126470080805613 0.008235529117695695 0.01568117881987173
1680 -0.004884591330971672 0.014727774899753564 -0.012885411819323893
821 -0.005520194931701174 0.002464776099944369 0.012222170701645876
1646 0.016401203838055434 -0.0011266281885330854 -0.005951408881847211
85 0.004596528991648424 0.00954960497939156 -0.005617827393209695
1059 0.0027219356144568803 -0.0036008864370625114 -0.0013399311885052808
1142 0.0004017136237225844 -0.005243264853704467 0.0056961233717176
328 -0.0008558892369937675 0.00013509240027408058 0.004540120480945501
1279 0.0012423375622316645 -0.0020606724983441354 -0.0016640280144155628
133 -0.0015896962387942795 -0.005489946831750395 -0.00011389305211879381
86 0.0033079564204508785 0.017563954839248438 -0.006101872390347357
1245 -0.004270267178095692 0.0013305145294451777 -0.010034783930854923
972 -0.0009037332179060937 -0.01006948602220281 0.010763908691727251
1347 0.009012196871511327 0.023671436067221982 0.008674666167538378
527 -0.010881676242957654 -0.006525666063186395 0.007304985203497572
502 -0.005406671441065688 -0.004736173414163334 -0.002583987242297245
503 -0.029327521135713158 -0.0032593200235232675 0.0123368469646719
526 0.00305121622239106 0.0042513804813802784 0.0004407284711396147
528 0.017025915658276467 0.014966127704453899 -0.006002499650838111
1720 -0.006660194857567095 -0.0028655201059959627 -0.007034766228301114
1721 0.005555764722412353 -0.00018130444794307708 -0.014942812685338973
43 -0.0009804527898199477 -0.00310766877679493 0.0028696982135944906
1112 -0.005181873355118636 0.014373553428832685 0.0014956996394623356
44 -0.0008289585517561089 0.003248704199391687 -0.0024658819822648984
45 -0.003075390463194618 -0.036132101667614346 0.03047180041272194
853 0.0057553863419238386 0.004593895537185665 0.0012921379814919475
854 0.015842749284478326 0.00790300789137893 0.011500765664616398
1374 0.00277832394122207 0.01001649120447973 0.009775545520939786
855 -0.002083109258445129 0.00558812321552233 -0.002153291149409296
1111 0.004671638691108343 0.0066969635167450576 0.00452979292736157
1113 -0.0024546096405270975 -0.010616795318170712 -0.003114210488997512
1774 0.0014655804570712643 0.0003093680119108999 -0.0017695857131990373
1776 -0.0033594583229579612 0.011700198689553314 -0.002597653663325385
1775 0.006789455212290161 -0.0006739661377203065 -0.003236246715281574
102 0.008861579878957233 0.0032277156952632406 -0.01309415597365495
1610 0.0021587655776642333 -0.017472486806352647 -0.005873862827558885
1611 0.0030303913585814136 -0.0037103526896130707 0.00033150281533761075
1609 -0.00041262978339981466 -0.006516743329817131 -0.005323474807150461
1302 0.006443924688779888 -0.0005686863677035791 0.010651447550562515
1139 0.01784618162998517 -0.0066443496884463285 -0.0160810515297802
1383 -0.016031755466612937 0.0004010631042802405 0.0007401136142100845
1373 0.04015291630140865 0.01343905837256279 -0.0024232072261508963
865 -0.0009181338133050194 -0.0035188188850296914 -0.003365450077247361
447 -0.008265882395173167 0.010461986406778446 -0.009469711530658727
1742 -0.0016043548946881856 0.024055688177198636 -6.203656675004635e-06
1243 0.0017848292957713685 -0.003428733994872631 -0.0027958129379550335
1522 -0.002418165956438421 -0.0006445507693991916 0.005335259560490565
1523 -0.008469476349792863 -0.011877915301987169 -0.013951684430119916
1723 0.0024360087354031814 -0.004411250550514568 -0.00020394956876394751
1724 0.005912303966384016 -0.009787966736509765 -0.01270948490785689
1725 0.0008556993576507838 0.009807175729296977 0.007590292914527167
1524 0.01140969054119215 0.017526875366824034 0.004051073660765141
1741 0.004274174484179203 0.0012438786390582335 -0.011072845341877776
1743 -0.0006806073841192409 -0.0051609812819707395 -0.01879252365020837
1331 0.014746831368448515 0.0008848493066636912 0.011933854871941157
1260 -0.014362268749647732 -0.004194306700136416 -0.01555810713748729
1258 -0.0027924000635154334 0.004364722983644018 -0.0006726623431571511
544 0.002756590916181248 0.001842277526236499 0.0030605308241757052
467 -0.02346446207393211 0.027622230754104016 -0.0004984639143407305
1536 0.009837645947250116 -0.013731003813109294 0.007130880886781894
1386 -0.011835950320361744 0.004842982634961774 0.004307539365817857
1259 -0.006317436589033103 0.022456301450360993 0.00020234490549419492
1330 -0.00013188386391358453 0.004539735770943153 -0.0007780052160290807
558 0.005059915957537073 -0.00815093578173812 -0.013369709611768333
1244 -0.005277757427836433 -0.004838307124549131 -0.01198627513335576
1056 -0.008157156799554921 0.007148800042187416 0.015308883782412862
261 -0.011877355903787832 -0.01740817608947537 -0.023916378879873055
176 -0.01724211461996006 -0.0167908177055548 0.014973729085029655
66 0.0006741766030163932 0.003080287889480371 0.01391860612589734
737 0.020005795505271283 0.013130600063550725 0.011240374931462469
589 -0.0038827018103164555 0.0012853285906353903 0.005512554109994404
590 -0.009479588763072968 -0.013367551437722872 -0.00802332856498239
591 -0.0013439357246589087 -0.004157341610171214 -0.004562495045299519
1332 0.0018700842230546671 0.003742987760074801 -0.0035999220140723325
843 0.014859004016569375 0.008243393397027211 0.012868081170196246
1467 -0.023503082622556844 -0.008356372707167641 0.009806082740439587
1156 -0.001899187730156249 0.0018472493342199768 -0.0019411313203303374
1157 0.0004697345792308998 -0.0016771169298580556 -0.007894997329370443
1158 0.002571343457049509 -0.002106322807955177 -0.0005642412700374389
192 -0.007198969479578915 0.011425580745373531 0.010930610059572557
782 0.024029813221893813 0.01755025692430674 0.004890028068425331
1656 -0.013480435372403102 -0.001290955628677637 0.012468439898179225
13 0.002162971711153162 -0.0003540204232690478 -0.0005926462045580036
1654 0.0033983797981621297 0.002461853245141041 0.006734786623336145
1274 -0.013739002671035401 -0.015137242771539714 0.01295478511256555
14 -0.004251399893864241 0.03582239770114409 0.019320824680421986
631 -0.0007986410034618367 0.00015669537203314836 -0.001513473348968298
81 0.006104810030875044 -0.0022539469241939277 -0.0139228243691006
1273 0.00014772644377259166 0.0015980352400017115 0.0030031034842345843
79 0.0030175807249038476 0.0030759307190597824 0.0028800743512801025
91 -0.004059397793417407 0.0064455781133666845 0.004889535891801519
600 -0.004294875830650894 -0.014781556511540905 -0.009424886116044504
1275 -0.0080073166640472 0.004690365986626231 -0.01531203954758401
80 -0.016182071400717972 0.007143148031127937 0.009844781830550393
946 -0.001100619667151201 0.0010807890929038209 -0.003906816668503692
1655 0.016820542453546944 -0.02733131225077866 0.0038289783721916497
1597 0.0034641342485073256 0.001146979422614173 -0.0014990468352352767
809 -0.0033733158744638984 -0.0018887782389924496 -0.0063462866433568405
1225 -0.003199454113933295 -0.0031209383599588216 -0.00653220694617626
1412 0.0013798121090355284 -0.0019840701593268647 -0.000316989471196301
1722 -0.004758183267155917 -0.012290792982009288 -0.02751177881799038
1494 -0.007204200686743515 0.001159598991485695 0.005676681980941995
1470 -0.004562953640022482 0.004339713442787586 -0.0049774690203974094
93 0.006722551536614321 0.015375098697560425 -0.0010723812286251963
1182 0.00696172748411268 0.000650827931956159 -0.00034460182555907335
15 -0.009544999736459718 0.012286860107418343 -0.0010494522063585236
1180 0.002599534914900725 0.0034108160851024786 -0.001490318725594004
1181 -0.0025130712560704786 0.006190707970013488 -0.0030833886716399106
1468 -0.003155544902849838 -0.002559053363517186 0.0010489976121192072
32 -0.00910951458759035 -0.032592431429943815 0.004518924720409683
31 -0.004777732162657274 -0.0030111694032551083 -0.002376652261036565
33 -0.0003097227086204279 0.01646028035758185 0.022298485741532034
1144 0.0038947677371782403 -0.005472724789391844 0.0016556369462657201
1146 -0.008862678795935098 0.005765784545168644 -0.03162841315674916
1145 0.001978528770215896 -0.02447770276885013 0.00854128101669969
817 -0.006415322674257679 0.0035248751899648067 -0.0054213479526071745
360 -0.007205190286019742 -0.004045971227482139 -0.022721760211255233
841 0.009266399376539733 0.004872423640484631 0.001477410657139791
842 0.012622336408961841 -0.0029443624855040695 0.003853893754533164
545 -0.011495658121608576 0.0019879401531440032 -0.0012154235281413837
669 0.006778940799096474 0.03233846959013916 0.005348791157615841
1002 -0.0036606003122695106 -0.011186071901790455 0.0014909741242992074
1348 0.005316945381017834 -0.002256069340596366 -0.0006641882645591218
819 -0.011486985180294644 -0.0011445239135178338 -0.0028768240765904346
1706 -0.016723181423809855 -0.005112020630542877 -0.004604470652235154
149 0.002902364338343782 -0.0029137671204706663 -0.01602691315194166
867 0.014847083561128762 -0.0009613255268208471 0.0005603930607509578
439 -0.007379374258698164 0.005153860489807501 0.0066783708762034695
441 -0.009966107968917233 0.003121022128494921 0.012460741662098335
89 -0.0015415146014663658 -0.008461246134486292 -0.0018176351823691276
88 0.0013790315163827083 -0.002575144846438749 -0.0026951953915934817
1444 -0.002483588432084934 -0.0011104340232351506 -0.005953049816479695
395 0.017692039567297382 0.0028005850065429116 -0.012492265174408237
225 -0.005479850324206033 0.011650285010110572 0.0195279038983208
701 -0.01911201788937893 -0.012565295432354453 -0.005733420885219236
1445 0.0004230608670084432 -0.001110019242191269 -0.007593852288461003
223 -0.003147511636836449 0.0035826138115763123 -0.0028065219276185954
1101 0.0037789730682977513 -0.004459246826757065 -0.01759480135435659
260 0.02686710410064545 -0.0013702761924598162 0.008253797451559434
224 -0.004011844098431837 -0.007766368135468572 0.008771808510423041
394 -0.005596688277581246 -0.0006736885540500405 0.0012569919874075254
440 -0.004242237801506885 0.0018016103205954043 0.00025846672366031147
1446 0.010561462839802483 -0.004125738686287857 -0.010450622506125608
1382 -0.0033917624020381523 0.0069891130926833635 0.003530497042794269
700 -0.0069999852658940995 0.0050446528410807105 0.0006337874330066382
702 0.013691449081732879 0.020260731520144105 0.0018786229292251167
1381 -0.0025169672717541367 0.002106911704695145 -0.0016214850899249284
908 -0.023247501801552266 -0.010762499428387211 0.004423098243632775
1238 0.00539251987014347 0.005880674578708522 0.00514848291186251
1530 -4.658279774928798e-05 -0.009538698795625413 0.014427596211255287
188 0.005830115426940071 -0.027050279636608842 -0.022367358071370053
1346 -0.014843720201443254 0.002453053467727471 0.026355330438270735
1399 0.0005082438768899741 -0.0025946538984419937 0.004705764960539907
445 -6.160236460629523e-05 0.008361277083104694 0.00391160669862499
446 0.0011282433526152876 0.008996294793775868 0.0057684880250436135
1704 0.01897349347218494 -0.01153695018297804 0.007123363063974608
477 0.005226663804056797 0.005931058045722772 0.0018520688784891895
921 -0.009387115832134347 0.03207560141933713 0.02061865659300057
919 0.0025320020845238296 0.0028464783846080866 0.0030459617304320237
1677 -0.004733700620983577 0.0021184799795748027 -0.006028576624745299
1675 -0.004612736721741254 0.0015337542315613224 -0.0028702422317234224
1676 -0.004054539568465146 0.00025824926932244786 -0.002452148716356756
1216 0.00014999088211014786 -0.007868650961991493 0.000708511419139739
475 0.006312068048592109 0.003887491625435508 0.003780251228675332
1217 -0.0031119428821971464 -0.0028773431355612776 0.0035353030382791564
1100 -0.010782441649789707 -0.020806276677273066 0.002756631122811661
1099 0.004745295274546767 -0.008202656991726747 -0.003896706285025911
572 -0.009442045828370141 0.01012682388648287 -0.004028303258280436
452 -0.004031177945009085 0.007426482227789085 -0.00036312614103476326
1218 0.011356556879228432 0.0037588076180227713 0.00320721581790238
453 0.0069950842638335335 0.0018193391644589043 -0.0027553019959234907
168 -0.011424060704256478 -0.016193284662682564 0.008180044113291724
167 0.02321825173398102 0.015837929516986846 -0.002353001533950526
451 0.000392182608480717 0.00035701817575067916 -0.004751410065032073
166 0.0008433758639663611 -0.0008346296500302326 -0.0003952982571236995
1345 -0.0001989640542634019 -0.003676952671999527 0.004028077889580394
920 0.012975755231746907 0.0009014890751256881 -0.005098750087422809
476 0.005831204648701026 0.010777519989877598 0.006233988762151291
710 0.02772709087640534 0.002462182210593804 0.0004169560927743417
815 -0.006949524032867312 -0.008871671159405781 -0.003963017746036544
187 -0.004239393701126745 -0.0010717983580675145 -0.0017417723472887055
400 -0.002591569785561748 -0.005677523684867442 -0.004986667728288079
1631 -0.014878269689660582 0.0028459974850004836 0.006766043463460028
189 -0.003974848820429628 -0.013086780677497791 0.027921919802036208
148 0.0043699690953225324 0.000506524914466319 -0.0017014726032670952
632 -0.005404535567494311 0.0022370538832126984 -0.000788256247484247
880 -0.005604384402696275 -0.001407162571895694 -0.0023181765117750762
881 -0.0038324209979658836 0.0027570619004219856 0.0038837973177467825
882 -0.0018538511744036362 -0.0032739378135742993 -0.005336652301663094
950 0.024490524600621733 -0.009996520070406292 -0.000662843679015939
949 -0.0036875869438179744 -0.0018819181621675708 0.0018801500406324645
1166 -0.009499034679178458 0.008026075547049333 0.008285631651445653
1165 -0.007362957401096079 0.002870598353081142 -0.001466283135467078
778 -0.0036643004855277284 -0.0004635641389272966 0.0009144020461587808
779 -0.0050750951743303565 -0.0208502795016554 -0.012713209451090337
1103 0.008116307683146973 0.0072779259769281115 -0.0060917433455117635
1167 0.001608491212403864 0.002936844627755376 0.008797845616186958
1097 0.012136828889444022 -0.006669514597566277 0.00947897014060529
1098 -0.01207451595922772 0.008973620167012046 -1.7716848410431926e-05
1778 -0.0007148708783497789 -0.01327271286261327 -0.018338525085176798
1096 0.00265376434144166 -0.002411342017330775 -0.004866499080061153
285 -0.0037945743709256875 -0.005689157172241568 -0.00021914476421456674
598 0.0008529575549422342 -0.002657147954178245 -0.0024916874634514146
951 -0.003291752904124043 -0.0245176209611044 0.006032035365057758
156 0.004449993221006951 0.0010525830334923243 -0.002384033126384589
1777 -0.0002807074339635898 0.0027418605599537566 -0.003997857569524592
816 0.003915530362483615 -0.000503247248199365 -0.002224709710603862
284 -0.0031563998728552406 0.00032328745893739943 0.010103576712007654
711 0.0010128774328155051 -0.005112086851901934 -0.005221843096102782
599 0.008212988457065532 -0.015488943855322686 0.0006830748131449486
283 -0.002718954967009694 -0.0044448760364176046 -0.001534896061008165
1107 -0.008138608227440147 0.010542167915148849 0.0032239157591851175
154 0.0007697333491921959 0.0034368656009683652 0.00046855218615991936
359 -0.00759112235757185 0.020372572968106215 0.0066499557888302545
1240 -0.0009571291832483213 -0.006167567286752614 -0.0030739295850466717
818 0.010275662302942723 0.004891341857095597 -0.014644093273190372
90 -0.015739787906518747 0.0015393757875389559 -0.03527961442912587
844 -0.0034024788699504975 0.0007122889568611788 0.00037654777626465675
548 -0.010261808482108599 -0.016513428111274153 -0.005379725059076479
21 -0.0021282683967443878 0.009457194670882267 0.009377709054918354
358 -0.0009587986195543535 -0.0038116554867011414 0.0010928630317673352
19 0.00019601078809649091 -0.00041600916040669553 6.791937714767935e-06
992 -0.006261264363148489 0.015351922264287646 -0.01688319631363804
1193 -0.012803219911790372 0.00528102612935094 -0.00986795899667798
1192 0.004021927057931691 -0.0010655301754580807 -0.0029208782118868705
1779 -0.006052542331196543 -0.003585480917963294 -0.029728651273451333
1194 -0.002318632757079315 -0.002434181262952485 -0.009332335045938852
547 -0.00042686309758833946 -0.0015888973589184747 5.367549283966881e-05
549 -0.010736608701888526 0.011791542166416312 0.00017778993107796535
846 -0.026968943305169833 -0.005042182918170027 -0.0069206568718448965
20 0.010824809300345345 -0.017758154015012167 -0.004159375787047392
845 -0.012296066461285532 -0.001803051775470821 -0.002205873839963255
1372 0.005065346119293628 0.00828003353629106 0.0029631044701254453
1312 0.004500715334217309 6.825803117682059e-05 -0.0011592124516052037
220 0.0054291125163587525 0.0010282543154441885 0.003514544341304187
560 -0.002760996462020573 0.0007639333049254206 0.02492714462717975
177 -0.002043226988414659 0.009143814321203862 0.034951001192129426
563 -0.01767161853157718 0.007431597147711274 -0.009948850070539127
734 -0.0011986300168052892 0.007673362711161228 -0.010716538378379386
909 0.000524121162388431 0.0070060215442396 0.0017381605444550894
122 0.002761665068980766 -0.00397256731095679 -0.008241096611255574
121 0.00013774575382597011 0.0006865681831972275 0.0029454983293298975
1482 -0.0016676722655771475 -0.0002722653112356402 0.005336639073887817
312 0.00907264731248507 -0.004033745626817393 0.024353043735809148
1247 0.004662476464493468 0.009516263087373926 -0.009331909417311317
1682 -0.004995974386056476 -0.001306689092032657 -0.009808641541110275
1480 -0.002617335081728886 0.004136447187447659 0.0058738553682952995
1246 -0.004219277958486056 0.003104432039458296 -0.004854756646923378
1248 -0.01677483903630412 -0.0033724199638404304 -0.014785175851501584
733 0.002485371876800673 -0.003168093602120349 -0.0002618721043918867
1481 -0.0037302056496720656 0.005594905190118101 0.0012377791482773577
735 0.01438301388785391 -0.016114628385705435 -0.0229974110334085
1681 0.002507947413095775 0.00338130294897568 -0.0028488948813309347
562 0.0026840793342123807 -0.0024468977177696262 -0.00038387332559276555
1469 0.005409486445868203 -0.0017718855395894926 0.004596678610884192
557 -0.008458281424091533 -0.0038922756338275167 -0.0053760010749657585
310 -0.0049618588273828606 0.0008061379362711816 0.0008495245198588957
1314 0.004512505084807534 0.004778806094054521 -0.002261547167700818
578 -0.020141789095969 0.0022070926506733194 0.005580115768819319
1683 0.010118715541774901 0.009214328038623584 0.005063069678389525
203 0.00191068659401284 -0.0014875653018264665 -0.007928305274683753
564 -0.019383778075582437 0.013207969699418886 -0.005109684606545656
556 0.001004221514365807 -0.005983106840499997 -0.005361209869146847
402 0.003213277147269394 -0.0031465376584681568 0.004444659572169851
259 0.0018253824623108163 -0.0006185652547572144 -0.0013238582425333884
739 0.001803636003277074 -0.0016733505380410643 0.0031648405996793816
1163 -0.007917424283977638 -0.0016273961502647786 0.0022250291286437097
565 -0.0022805039740148004 -0.00259252976154412 0.0018413047476861222
777 0.016834852083698344 0.03481222921063693 0.00976829412650318
775 0.0005677027985003043 0.00357030479252601 -0.004243815648073621
741 -0.010934312587215491 -0.004481873030702656 0.008895267066178757
1190 0.013306520656199217 0.00865344840347718 -0.005989397000198023
776 -0.0044632136180166706 -0.00433320111143797 0.020272566031419994
1055 -0.0002963724287705005 -0.0022698102564164217 -0.005833716487409152
1054 -0.0007978876170989169 0.003396314447315835 0.005184217760637902
1589 0.009001307262019052 0.0006939656298254223 0.010114704103645946
204 0.0008571726475708584 0.034752405443571444 0.0055469999736215735
202 0.001838731712390686 0.00047207730807331556 0.002391878265874693
1191 0.0003916669142005 0.007218148255138681 0.001528533292970528
1287 -0.0178431780952795 -0.01601955843216303 0.007326534230889876
1290 0.0125923255483921 0.0020116656584357974 -0.009322952107442063
1288 -0.002555929860562475 0.0011907799056138605 0.0007493354123346779
1289 -0.016295655578988863 0.008412200015740473 0.0015149460299128863
1285 -0.0019268963731602457 -0.006859796044717021 -0.004205287947287468
1286 -0.005995633588679419 -0.013942145425214934 -0.01833294789033259
642 0.001291321388077073 0.002597106010766081 -0.011618637683347336
1588 -0.006388805591816508 -0.0031742027709140423 -0.002123276682053754
1189 -0.004408543502079081 -0.006635167093998542 -0.0011025482987387532
1784 -0.019166507781509846 -0.006922232496836187 0.002581903740138752
567 -0.003858723059130959 0.017649198558554343 0.023629494293245276
266 0.0036794352075425864 -0.001682855552376941 -0.03220468087168137
1162 0.0034011002589240825 -0.0012844534892400684 -0.002159324816742738
641 0.0036018928070386145 0.005328599756368848 -0.00957810937910215
1785 -0.0037112659024724566 -0.010686409591756766 -0.019206839209061348
1368 0.0023646081526456503 0.010580468219513962 0.0007543775523256806
1783 -0.00440959616178264 -0.0054110989002564966 -0.003846068037934616
928 -0.005503196017027701 0.0041834328283651455 0.007150251289801105
740 0.012263616268130667 -0.004559940899978853 0.026171688547718085
1242 -0.0028234650899224543 -0.00560780998457865 0.01310218288087401
810 -0.006790543612708732 0.0020174579707706343 -0.009147382261327257
1590 0.0007944091088923169 -0.007858027120857024 0.0034845372393078403
422 0.0013207297696192055 -0.02101725972198892 0.023948948954089985
947 -0.0025773331548356176 -0.003650102070763349 -0.005719536622794839
510 0.01460192186702199 -0.02240432528478869 -0.0002273261457460551
1304 0.022829983925874167 -0.0009436000169380435 0.0037135814598130493
1303 -0.01205158384573454 -0.006487481768279305 0.006142260110727185
1305 -0.010043824804007404 -0.0035601978381958653 -7.750645996565632e-05
421 0.006205007581976976 -0.00425756145032068 0.0049242543800744505
423 0.002293490741491453 -0.02228330643688447 -0.007027114811675133
805 0.0031309733473358775 -0.002273814609899253 -0.00016971146380287665
806 0.0035949600379969948 -0.007730626811232249 -0.01707328883104196
508 0.0013143214949167391 0.0032843614787621657 -0.0011099373338570673
807 -0.013838825542739023 -0.0006962210076201578 0.002686436112100281
948 0.008681302032388436 0.016237826545709898 -0.0019002368754910224
92 0.004749472865279103 -0.0028112094008631225 0.012148237209252346
1366 0.006053141868095256 -0.0005317779605007201 -0.0020488779780502195
1367 0.01676252515448211 0.0010334320713896714 -0.0059178470001107
384 -0.0015819335182762065 -0.0004725791877447985 0.0033260526962743337
382 0.004289134150172146 0.0004315519823815277 0.002387998472015632
1599 0.008632451419268387 -0.026874596784081887 -0.00012119278476762012
1617 0.026004357736322026 0.012880181422372971 0.01978750630504239
396 0.001656772117660451 -0.01303931989070013 0.021522381871688572
1141 0.003416773938969539 -0.0005955599049869635 -0.003487571340788819
668 0.0009145613983117567 0.008668573445116052 -0.0020022044926354832
1143 0.019129405985877226 0.015389692963400044 -0.0022050888680938334
1540 -0.00609913953740313 -0.004906333603152562 -0.0033914459466038017
1615 0.0029482901213856525 0.0007607966450398996 -0.0018529230350741775
1541 0.006421936644565193 -0.003118177111862867 -0.006157213522852961
1066 0.0023127875939122733 -0.0065595696837313314 0.0030334553964478568
1068 0.006085513927178591 0.023283458362144557 -0.004724237668381093
1542 0.01890575177729425 -0.006483770290282498 0.007106563520577981
1067 -0.028199536068517495 -0.005801325224453796 -0.014115887700565004
699 0.008009568362720073 0.0047082650529630616 -0.0070331971049685015
697 -0.0025901656626027185 0.00026513888145467547 0.0021135383070394692
41 0.017507083891895217 0.007753306245936485 0.0101805725460919
698 -0.0366837081470132 -0.028685415146112194 0.023287193254628444
1798 0.0010192961769213444 0.0027150054330562657 -0.0003862235897479986
1800 0.019194997115846383 -0.008908839726406144 0.014000956479043014
229 0.003647100081820735 -0.0008110918366593476 0.0013310132599770692
230 0.0032294416907582267 -0.007170977332783747 0.014086586664224382
231 0.004182021936280596 -0.009711117859721369 0.003533500521894231
42 -0.008768588695424453 0.014636869339611853 0.0025023029834789793
1022 0.0024588820500780705 0.003512316942475409 0.0069209337088420005
40 0.003360944535900253 0.004952282946407954 0.003636010047573689
1616 0.0240645788109308 -0.016595443326952973 0.013723716022795098
667 0.003786560129609797 -0.0005175407872150216 -0.005236538024800808
1241 0.008632079746318296 -0.01612572814753129 -0.023556698345613945
388 0.0027777675664629417 -0.006662434606943113 -0.00012569471416376966
1754 0.0018242280856320353 -0.007067734668815669 -0.0044192997802430245
443 -0.02058420675964828 -2.474797990124516e-05 -0.010183570937538574
1023 -0.005079509327618879 -0.006359072152397879 -0.012839359296370149
966 0.008537711138876376 -0.007457090184794684 -0.006595729610344433
1313 0.0010524437159145777 -0.001896262136372467 -0.005490146393884421
907 -0.0031064329506476714 0.002103154420355054 0.0017688576408519206
48 0.011595173031940124 0.013186385531813748 0.005970801171753378
46 0.007220897254130615 0.0019402535344298121 -0.001949015647011301
1753 -5.788876112025492e-05 0.0016390753770926365 -0.0013997041064113657
47 0.017616328659408386 -0.008111738930169955 -0.01808942217352918
311 0.010474391061883808 -0.01036045793415429 0.011203146023570544
1490 -0.003570391620416461 -0.03240930452301508 -0.02370562373368639
74 -0.00236775108424783 0.012050098570223444 -0.011885522284265612
613 -0.0071467707889590094 0.0012950367663683532 0.0024597803707090333
614 0.0015417717380012037 -0.0033802280319497023 -0.005246812778338073
615 0.0026396862291018348 -0.009395668996208596 -0.004711789936649813
971 0.003172860840857352 0.006847157223777048 -0.0074060466594825115
1179 0.01060395539284018 -0.03274485059449115 -0.038117683030302725
73 -0.005379375864465908 0.010207954445605785 -0.006122858212660984
1630 -0.004128362849864685 -0.002611461889943019 0.00986773776989478
970 0.001470049315289742 -0.0008237223585377034 0.0011965198893310403
75 -0.02815313651165559 -0.009091620116424276 0.0036109508883721037
1177 0.007953223758377936 -0.002608767256307991 -0.0008840436106493293
1489 -0.005923443593255577 -0.005674668372236565 -0.001507449005167112
1740 -0.006654059905252497 -0.008711687801458982 0.0022303398847474992
566 -0.006641347839148222 -0.007866282580401174 -0.003857550899887867
785 0.008972287909105928 0.012034554563324671 0.006418800448590731
808 0.0022828295350650115 -0.0012191332292690975 -0.004196138224994276
561 0.0029508465978876435 0.009315486274884583 0.01610267397917661
1755 0.002452488285594332 0.0014941839030288354 0.00086863200681287
127 0.007226211742431023 -0.000732029753210641 -0.0018758843985893117
128 0.013244092836971293 -0.0022032531959634756 0.00903394400287177
536 -0.010933114470221073 -0.020188676460214567 0.006418863620014316
535 0.00031427155751725087 -0.0006977384811768042 -0.003943191053586312
129 0.012069396272884845 -0.0022052426301383413 0.013134959405505613
640 0.004900675369592756 0.003502923950733063 -0.00793044654026894
537 0.0065524784292434555 -0.004896896156368783 -0.020279834653863398
241 0.00499622830750617 0.0022707095524547335 -0.005271273360436108
1148 0.004127632974863135 -0.01633688800921911 0.004117658184694781
1147 0.002536690180661612 -0.0014133481272085896 0.005488068918209457
1149 0.01149494797906983 0.011362157319943873 -0.017939642525083146
1491 -0.009593689929511134 0.024174135811348963 -0.00568522105411718
431 0.004699021265171788 -0.003446174338444313 0.019344368080419453
242 0.0244307172655241 -0.015122019160457682 -0.005142296885070666
430 0.0029895714757180807 0.0016557985764711859 -0.00020220445411909765
432 0.0036740183348468853 -0.0021200301903900997 0.004727722421119515
243 -0.007343342449117975 0.013826267431521494 -0.00605711845167075
390 -0.010948778409617239 0.003122783560924458 0.006941792793701709
1705 -0.0015358128097724359 -0.005655069386861286 0.00176127733463533
321 0.001958786205595617 -0.0007025857253556983 0.002579181458583861
943 -0.00325706915843899 0.0018869491943773558 -0.0012827330335411218
915 0.008747694344520114 -0.0037352609940196216 -0.0020488079418049037
1350 0.005393581559344953 0.005120031027465258 2.0361928714186616e-05
221 0.010052362118260107 -0.02661321576329998 0.003163511578610469
1598 0.013937542164527443 -0.00808472063899845 0.003009823680903272
914 -0.003585663760505956 -0.00037737835033579015 0.01195833175889359
913 -4.351718438054282e-05 0.0006827062816529698 0.004292019327269454
51 0.016320750668698498 0.014305790898772822 -0.01892289036889306
944 -0.004473857130189002 0.01049609698407975 0.025490277777304296
509 -0.007992187588339559 0.014894943826972514 0.0008141306423157114
49 0.0006167202079543281 -0.0040650261673423884 -0.003877798230447462
1707 0.0066515365467335955 -0.0012999984225016362 0.013550681218153011
444 0.0010792010466876894 -0.001823924054334102 -0.003961533647610056
50 -0.02027010013846544 -0.025059392792523633 0.007713743025263442
507 0.006185776646441229 0.003193630288423228 0.004255673139701264
505 -0.0004694374009052233 -0.0026453272963717343 -0.001315142575451884
506 -0.0042667350344382775 -0.007625617978411428 0.004865261047359859
709 0.0037373683793531193 -0.0008199195343103335 0.0008194400091666846
1711 0.006858425121949146 -0.0022418735226876502 -0.0022924218080917964
1713 0.0067447873959281274 -0.0013270136150931454 -0.022071454979435638
1021 0.0003246858635289647 -0.002123115212517847 0.0001410955609764057
1226 -0.003954744100591313 0.008487989361257216 -0.014758797140280073
1529 0.01032029515523107 0.002238299241075461 0.017530928947438938
1528 0.002436817240619381 0.0021638733749461594 -0.0005049828398017442
383 0.0025534292136076523 -0.002062931505885778 0.00585082550263772
1557 0.01781528657793909 -0.010440105735384479 -0.0032613178907646184
56 0.016323793724171934 -0.0011646556435755714 -0.009607362351159736
1601 0.01703359245227951 0.0025822963226526164 0.014946031705328185
240 0.01085600742512693 0.010642521656347884 0.007270409793902738
1602 -0.013469645813107643 0.024152855797595425 -0.004366976277762213
571 -0.004652925886414811 -0.0011457425113702135 -0.0011606516664196393
721 -0.0005980191484182418 0.001234638127367647 -0.004565474621312695
993 -0.0006406321468839995 0.002820046173401565 0.00884584581436941
991 0.0008576372275924134 -0.003819999147854489 0.004873371898806454
245 0.01751019648655974 -0.0013463452390863537 -0.02033706268446765
723 -1.971006264161191e-05 0.004519710236538543 -0.003827801148948379
722 0.007468516258638733 0.012066517135364043 -0.009502179004388038
1493 0.001900583197992731 0.0059842465262364124 -0.010682752585510536
1227 -0.0023188663018227232 -0.011858670866003994 0.00026491776990161743
1600 0.0039212276879660975 0.004122892095742859 -0.005676248519708145
222 -0.007451904073871187 -0.013616295708192325 -0.015898967082993494
1400 -0.025041848871945147 0.023933704749722177 -0.024399812636690978
1237 -7.544288744028279e-05 0.005204391004054199 0.0032828783093232666
814 -0.0012225748364360401 0.000132970427563343 -0.0019445159595584962
155 -0.005897269576026549 0.006835421236441951 -0.0038165366766574733
929 -0.0023872273054091468 0.0051627640794169516 -0.015242012235012594
871 -0.0019286048984625073 -0.0032550277607362984 -0.003786594882251844
1178 0.01704533220921252 -0.013738381795858071 -0.005638966553772213
964 0.007273700161841675 -0.0019495104952501272 -0.001641378541918139
265 -0.0014469015659797355 -0.00021206094566085266 0.0002120157953664443
150 0.006248701545052283 0.00932552773413159 0.00459400609945159
1164 -0.016426452657030487 -0.0004142698794113761 0.020052893807493068
401 -0.005307816414317781 0.03778415742954947 0.018950025595835855
780 0.008414082519792304 -0.010619786336526271 0.008806269132583432
1393 -0.0028938172351381337 0.0016060830143789172 -0.0006391741449393359
1712 0.003412371348732516 0.0022773392284131094 -0.0067885296100174235
1492 -0.00413582324967891 0.004362934413250397 -0.0028591229362156106
466 5.323169194504282e-05 0.005294220752708346 -0.0029294488762732175
872 0.00012970628635167126 -0.01231307973651449 0.013466322209899585
866 0.010008636823161268 -0.009819821577303505 -0.016670734116561906
930 0.01430595397269134 0.00398455563560961 0.012969853948382534
1401 0.0207743288689269 -0.00837636147322691 0.0024634084262798186
786 -0.0010053970051442525 -0.014274207205841756 0.019139482361080488
1317 0.002846708043386094 -0.00142183836894102 -0.004653250756576226
468 0.0020523335759249587 -0.007913623803228383 0.005596760255689478
1349 0.010248382123494252 -0.014413516256550296 0.0029813162413339224
1105 0.0026073626721927223 -0.0019886342996760717 0.0005468469974023774
546 0.0187854593731774 0.010257242506338398 -0.00387246601448303
442 -0.001746819576871252 -0.007799177560192504 -0.0072980840562442365
1473 -0.00939781432285597 -0.012272020769701093 0.008649535245840115

Bonds

1 1 940 941
2 1 940 942
3 1 838 839
4 1 838 840
5 1 343 344
6 1 343 345
7 1 790 791
8 1 790 792
9 1 433 434
10 1 433 435
11 1 1624 1625
12 1 1624 1626
13 1 1333 1334
14 1 1333 1335
15 1 994 995
16 1 994 996
17 1 517 518
18 1 517 519
19 1 511 512
20 1 511 513
21 1 1195 1196
22 1 1195 1197
23 1 643 644
24 1 643 645
25 1 1369 1370
26 1 1369 1371
27 1 886 887
28 1 886 888
29 1 1060 1061
30 1 1060 1062
31 1 1006 1007
32 1 1006 1008
33 1 181 182
34 1 181 183
35 1 1714 1715
36 1 1714 1716
37 1 997 998
38 1 997 999
39 1 118 119
40 1 118 120
41 1 766 767
42 1 766 768
43 1 1498 1499
44 1 1498 1500
45 1 1306 1307
46 1 1306 1308
47 1 1363 1364
48 1 1363 1365
49 1 1009 1010
50 1 1009 1011
51 1 883 884
52 1 883 885
53 1 1780 1781
54 1 1780 1782
55 1 1462 1463
56 1 1462 1464
57 1 52 53
58 1 52 54
59 1 664 665
60 1 664 666
61 1 1567 1568
62 1 1567 1569
63 1 1027 1028
64 1 1027 1029
65 1 1222 1223
66 1 1222 1224
67 1 94 95
68 1 94 96
69 1 1501 1502
70 1 1501 1503
71 1 334 335
72 1 334 336
73 1 268 269
74 1 268 270
75 1 898 899
76 1 898 900
77 1 1150 1151
78 1 1150 1152
79 1 730 731
80 1 730 732
81 1 694 695
82 1 694 696
83 1 529 530
84 1 529 531
85 1 688 689
86 1 688 690
87 1 214 215
88 1 214 216
89 1 568 569
90 1 568 570
91 1 550 551
92 1 550 552
93 1 874 875
94 1 874 876
95 1 892 893
96 1 892 894
97 1 1387 1388
98 1 1387 1389
99 1 487 488
100 1 487 489
101 1 1477 1478
102 1 1477 1479
103 1 760 761
104 1 760 762
105 1 160 161
106 1 160 162
107 1 1693 1694
108 1 1693 1695
109 1 1636 1637
110 1 1636 1638
111 1 616 617
112 1 616 618
113 1 205 206
114 1 205 207
115 1 1795 1796
116 1 1795 1797
117 1 877 878
118 1 877 879
119 1 619 620
120 1 619 621
121 1 793 794
122 1 793 795
123 1 1090 1091
124 1 1090 1092
125 1 715 716
126 1 715 717
127 1 1786 1787
128 1 1786 1788
129 1 1486 1487
130 1 1486 1488
131 1 1297 1298
132 1 1297 1299
133 1 1435 1436
134 1 1435 1437
135 1 1450 1451
136 1 1450 1452
137 1 1570 1571
138 1 1570 1572
139 1 130 131
140 1 130 132
141 1 649 650
142 1 649 651
143 1 895 896
144 1 895 897
145 1 1135 1136
146 1 1135 1137
147 1 1255 1256
148 1 1255 1257
149 1 1507 1508
150 1 1507 1509
151 1 910 911
152 1 910 912
153 1 955 956
154 1 955 957
155 1 1360 1361
156 1 1360 1362
157 1 1573 1574
158 1 1573 1575
159 1 1438 1439
160 1 1438 1440
161 1 1069 1070
162 1 1069 1071
163 1 901 902
164 1 901 903
165 1 67 68
166 1 67 69
167 1 97 98
168 1 97 99
169 1 1261 1262
170 1 1261 1263
171 1 1213 1214
172 1 1213 1215
173 1 1771 1772
174 1 1771 1773
175 1 724 725
176 1 724 726
177 1 235 236
178 1 235 237
179 1 454 455
180 1 454 456
181 1 145 146
182 1 145 147
183 1 1426 1427
184 1 1426 1428
185 1 652 653
186 1 652 654
187 1 670 671
188 1 670 672
189 1 1396 1397
190 1 1396 1398
191 1 532 533
192 1 532 534
193 1 184 185
194 1 184 186
195 1 1591 1592
196 1 1591 1593
197 1 232 233
198 1 232 234
199 1 703 704
200 1 703 705
201 1 325 326
202 1 325 327
203 1 1204 1205
204 1 1204 1206
205 1 658 659
206 1 658 660
207 1 271 272
208 1 271 273
209 1 226 227
210 1 226 228
211 1 1354 1355
212 1 1354 1356
213 1 982 983
214 1 982 984
215 1 1483 1484
216 1 1483 1485
217 1 625 626
218 1 625 627
219 1 295 296
220 1 295 297
221 1 379 380
222 1 379 381
223 1 1561 1562
224 1 1561 1563
225 1 1558 1559
226 1 1558 1560
227 1 76 77
228 1 76 78
229 1 1582 1583
230 1 1582 1584
231 1 1402 1403
232 1 1402 1404
233 1 1159 1160
234 1 1159 1161
235 1 490 491
236 1 490 492
237 1 1585 1586
238 1 1585 1587
239 1 286 287
240 1 286 288
241 1 1249 1250
242 1 1249 1251
243 1 931 932
244 1 931 933
245 1 1564 1565
246 1 1564 1566
247 1 1126 1127
248 1 1126 1128
249 1 298 299
250 1 298 300
251 1 331 332
252 1 331 333
253 1 322 323
254 1 322 324
255 1 802 803
256 1 802 804
257 1 163 164
258 1 163 165
259 1 1036 1037
260 1 1036 1038
261 1 859 860
262 1 859 861
263 1 1747 1748
264 1 1747 1749
265 1 829 830
266 1 829 831
267 1 691 692
268 1 691 693
269 1 199 200
270 1 199 201
271 1 1072 1073
272 1 1072 1074
273 1 1408 1409
274 1 1408 1410
275 1 139 140
276 1 139 141
277 1 1045 1046
278 1 1045 1047
279 1 499 500
280 1 499 501
281 1 1153 1154
282 1 1153 1155
283 1 958 959
284 1 958 960
285 1 1414 1415
286 1 1414 1416
287 1 799 800
288 1 799 801
289 1 1453 1454
290 1 1453 1455
291 1 628 629
292 1 628 630
293 1 289 290
294 1 289 291
295 1 460 461
296 1 460 462
297 1 1048 1049
298 1 1048 1050
299 1 34 35
300 1 34 36
301 1 574 575
302 1 574 576
303 1 151 152
304 1 151 153
305 1 1552 1553
306 1 1552 1554
307 1 436 437
308 1 436 438
309 1 1264 1265
310 1 1264 1266
311 1 361 362
312 1 361 363
313 1 751 752
314 1 751 753
315 1 448 449
316 1 448 450
317 1 385 386
318 1 385 387
319 1 1327 1328
320 1 1327 1329
321 1 1621 1622
322 1 1621 1623
323 1 787 788
324 1 787 789
325 1 1687 1688
326 1 1687 1689
327 1 520 521
328 1 520 522
329 1 82 83
330 1 82 84
331 1 1207 1208
332 1 1207 1209
333 1 781 782
334 1 781 783
335 1 493 494
336 1 493 495
337 1 253 254
338 1 253 255
339 1 646 647
340 1 646 648
341 1 211 212
342 1 211 213
343 1 580 581
344 1 580 582
345 1 748 749
346 1 748 750
347 1 1318 1319
348 1 1318 1320
349 1 1504 1505
350 1 1504 1506
351 1 217 218
352 1 217 219
353 1 496 497
354 1 496 498
355 1 1576 1577
356 1 1576 1578
357 1 1513 1514
358 1 1513 1515
359 1 952 953
360 1 952 954
361 1 64 65
362 1 64 66
363 1 1510 1511
364 1 1510 1512
365 1 103 104
366 1 103 105
367 1 610 611
368 1 610 612
369 1 592 593
370 1 592 594
371 1 727 728
372 1 727 729
373 1 196 197
374 1 196 198
375 1 1357 1358
376 1 1357 1359
377 1 634 635
378 1 634 636
379 1 472 473
380 1 472 474
381 1 1555 1556
382 1 1555 1557
383 1 337 338
384 1 337 339
385 1 55 56
386 1 55 57
387 1 397 398
388 1 397 399
389 1 937 938
390 1 937 939
391 1 601 602
392 1 601 603
393 1 1663 1664
394 1 1663 1665
395 1 979 980
396 1 979 981
397 1 823 824
398 1 823 825
399 1 772 773
400 1 772 774
401 1 988 989
402 1 988 990
403 1 1138 1139
404 1 1138 1140
405 1 4 5
406 1 4 6
407 1 1669 1670
408 1 1669 1671
409 1 607 608
410 1 607 609
411 1 1129 1130
412 1 1129 1131
413 1 1603 1604
414 1 1603 1605
415 1 586 587
416 1 586 588
417 1 256 257
418 1 256 258
419 1 1375 1376
420 1 1375 1377
421 1 1186 1187
422 1 1186 1188
423 1 1633 1634
424 1 1633 1635
425 1 1618 1619
426 1 1618 1620
427 1 469 470
428 1 469 471
429 1 1102 1103
430 1 1102 1104
431 1 718 719
432 1 718 720
433 1 1648 1649
434 1 1648 1650
435 1 58 59
436 1 58 60
437 1 1132 1133
438 1 1132 1134
439 1 1579 1580
440 1 1579 1581
441 1 622 623
442 1 622 624
443 1 403 404
444 1 403 405
445 1 1474 1475
446 1 1474 1476
447 1 70 71
448 1 70 72
449 1 1684 1685
450 1 1684 1686
451 1 1627 1628
452 1 1627 1629
453 1 1729 1730
454 1 1729 1731
455 1 106 107
456 1 106 108
457 1 172 173
458 1 172 174
459 1 1171 1172
460 1 1171 1173
461 1 1378 1379
462 1 1378 1380
463 1 280 281
464 1 280 282
465 1 706 707
466 1 706 708
467 1 1201 1202
468 1 1201 1203
469 1 763 764
470 1 763 765
471 1 307 308
472 1 307 309
473 1 856 857
474 1 856 858
475 1 1759 1760
476 1 1759 1761
477 1 1750 1751
478 1 1750 1752
479 1 1789 1790
480 1 1789 1791
481 1 1252 1253
482 1 1252 1254
483 1 457 458
484 1 457 459
485 1 1768 1769
486 1 1768 1770
487 1 1441 1442
488 1 1441 1443
489 1 1390 1391
490 1 1390 1392
491 1 208 209
492 1 208 210
493 1 832 833
494 1 832 834
495 1 1033 1034
496 1 1033 1035
497 1 784 785
498 1 784 786
499 1 1699 1700
500 1 1699 1701
501 1 7 8
502 1 7 9
503 1 1324 1325
504 1 1324 1326
505 1 826 827
506 1 826 828
507 1 1549 1550
508 1 1549 1551
509 1 1093 1094
510 1 1093 1095
511 1 346 347
512 1 346 348
513 1 1543 1544
514 1 1543 1545
515 1 1030 1031
516 1 1030 1032
517 1 973 974
518 1 973 975
519 1 541 542
520 1 541 543
521 1 1018 1019
522 1 1018 1020
523 1 868 869
524 1 868 870
525 1 976 977
526 1 976 978
527 1 1423 1424
528 1 1423 1425
529 1 277 278
530 1 277 279
531 1 1456 1457
532 1 1456 1458
533 1 736 737
534 1 736 738
535 1 313 314
536 1 313 315
537 1 1117 1118
538 1 1117 1119
539 1 481 482
540 1 481 483
541 1 934 935
542 1 934 936
543 1 637 638
544 1 637 639
545 1 37 38
546 1 37 39
547 1 1228 1229
548 1 1228 1230
549 1 1219 1220
550 1 1219 1221
551 1 244 245
552 1 244 246
553 1 16 17
554 1 16 18
555 1 811 812
556 1 811 813
557 1 712 713
558 1 712 714
559 1 889 890
560 1 889 891
561 1 427 428
562 1 427 429
563 1 61 62
564 1 61 63
565 1 115 116
566 1 115 117
567 1 679 680
568 1 679 681
569 1 175 176
570 1 175 177
571 1 1465 1466
572 1 1465 1467
573 1 1744 1745
574 1 1744 1746
575 1 553 554
576 1 553 555
577 1 1081 1082
578 1 1081 1083
579 1 1351 1352
580 1 1351 1353
581 1 1276 1277
582 1 1276 1278
583 1 922 923
584 1 922 924
585 1 1531 1532
586 1 1531 1533
587 1 1198 1199
588 1 1198 1200
589 1 1270 1271
590 1 1270 1272
591 1 1042 1043
592 1 1042 1044
593 1 745 746
594 1 745 747
595 1 742 743
596 1 742 744
597 1 304 305
598 1 304 306
599 1 1012 1013
600 1 1012 1014
601 1 796 797
602 1 796 798
603 1 409 410
604 1 409 411
605 1 247 248
606 1 247 249
607 1 1057 1058
608 1 1057 1059
609 1 418 419
610 1 418 420
611 1 376 377
612 1 376 378
613 1 1168 1169
614 1 1168 1170
615 1 1762 1763
616 1 1762 1764
617 1 1384 1385
618 1 1384 1386
619 1 1321 1322
620 1 1321 1323
621 1 406 407
622 1 406 408
623 1 1114 1115
624 1 1114 1116
625 1 1063 1064
626 1 1063 1065
627 1 1339 1340
628 1 1339 1341
629 1 190 191
630 1 190 192
631 1 193 194
632 1 193 195
633 1 238 239
634 1 238 240
635 1 1300 1301
636 1 1300 1302
637 1 967 968
638 1 967 969
639 1 274 275
640 1 274 276
641 1 1594 1595
642 1 1594 1596
643 1 1516 1517
644 1 1516 1518
645 1 1051 1052
646 1 1051 1053
647 1 673 674
648 1 673 675
649 1 1765 1766
650 1 1765 1767
651 1 655 656
652 1 655 657
653 1 685 686
654 1 685 687
655 1 1672 1673
656 1 1672 1674
657 1 925 926
658 1 925 927
659 1 1546 1547
660 1 1546 1548
661 1 559 560
662 1 559 561
663 1 835 836
664 1 835 837
665 1 1120 1121
666 1 1120 1122
667 1 1657 1658
668 1 1657 1659
669 1 112 113
670 1 112 114
671 1 1732 1733
672 1 1732 1734
673 1 373 374
674 1 373 375
675 1 1642 1643
676 1 1642 1644
677 1 1411 1412
678 1 1411 1413
679 1 100 101
680 1 100 102
681 1 577 578
682 1 577 579
683 1 985 986
684 1 985 987
685 1 109 110
686 1 109 111
687 1 1039 1040
688 1 1039 1041
689 1 1 2
690 1 1 3
691 1 769 770
692 1 769 771
693 1 1432 1433
694 1 1432 1434
695 1 370 371
696 1 370 372
697 1 1534 1535
698 1 1534 1536
699 1 484 485
700 1 484 486
701 1 820 821
702 1 820 822
703 1 25 26
704 1 25 27
705 1 1174 1175
706 1 1174 1176
707 1 682 683
708 1 682 684
709 1 415 416
710 1 415 417
711 1 916 917
712 1 916 918
713 1 1651 1652
714 1 1651 1653
715 1 1639 1640
716 1 1639 1641
717 1 157 158
718 1 157 159
719 1 124 125
720 1 124 126
721 1 319 320
722 1 319 321
723 1 463 464
724 1 463 465
725 1 178 179
726 1 178 180
727 1 1726 1727
728 1 1726 1728
729 1 1678 1679
730 1 1678 1680
731 1 22 23
732 1 22 24
733 1 1525 1526
734 1 1525 1527
735 1 349 350
736 1 349 351
737 1 1447 1448
738 1 1447 1449
739 1 1183 1184
740 1 1183 1185
741 1 1417 1418
742 1 1417 1419
743 1 1315 1316
744 1 1315 1317
745 1 1696 1697
746 1 1696 1698
747 1 352 353
748 1 352 354
749 1 10 11
750 1 10 12
751 1 1267 1268
752 1 1267 1269
753 1 292 293
754 1 292 294
755 1 850 851
756 1 850 852
757 1 1084 1085
758 1 1084 1086
759 1 595 596
760 1 595 597
761 1 862 863
762 1 862 864
763 1 1756 1757
764 1 1756 1758
765 1 847 848
766 1 847 849
767 1 1645 1646
768 1 1645 1647
769 1 1495 1496
770 1 1495 1497
771 1 1606 1607
772 1 1606 1608
773 1 412 413
774 1 412 414
775 1 1738 1739
776 1 1738 1740
777 1 1294 1295
778 1 1294 1296
779 1 1420 1421
780 1 1420 1422
781 1 604 605
782 1 604 606
783 1 262 263
784 1 262 264
785 1 28 29
786 1 28 30
787 1 1003 1004
788 1 1003 1005
789 1 1015 1016
790 1 1015 1017
791 1 1717 1718
792 1 1717 1719
793 1 136 137
794 1 136 138
795 1 367 368
796 1 367 369
797 1 364 365
798 1 364 366
799 1 1336 1337
800 1 1336 1338
801 1 1075 1076
802 1 1075 1077
803 1 523 524
804 1 523 525
805 1 1024 1025
806 1 1024 1026
807 1 1690 1691
808 1 1690 1692
809 1 1000 1001
810 1 1000 1002
811 1 1108 1109
812 1 1108 1110
813 1 1234 1235
814 1 1234 1236
815 1 250 251
816 1 250 252
817 1 538 539
818 1 538 540
819 1 1078 1079
820 1 1078 1080
821 1 478 479
822 1 478 480
823 1 1660 1661
824 1 1660 1662
825 1 1429 1430
826 1 1429 1431
827 1 1519 1520
828 1 1519 1521
829 1 961 962
830 1 961 963
831 1 676 677
832 1 676 678
833 1 316 317
834 1 316 318
835 1 424 425
836 1 424 426
837 1 583 584
838 1 583 585
839 1 1537 1538
840 1 1537 1539
841 1 1123 1124
842 1 1123 1125
843 1 1459 1460
844 1 1459 1461
845 1 1708 1709
846 1 1708 1710
847 1 661 662
848 1 661 663
849 1 1309 1310
850 1 1309 1311
851 1 1735 1736
852 1 1735 1737
853 1 340 341
854 1 340 342
855 1 1405 1406
856 1 1405 1407
857 1 142 143
858 1 142 144
859 1 1702 1703
860 1 1702 1704
861 1 1792 1793
862 1 1792 1794
863 1 904 905
864 1 904 906
865 1 169 170
866 1 169 171
867 1 754 755
868 1 754 756
869 1 1210 1211
870 1 1210 1212
871 1 1612 1613
872 1 1612 1614
873 1 1342 1343
874 1 1342 1344
875 1 1666 1667
876 1 1666 1668
877 1 1087 1088
878 1 1087 1089
879 1 301 302
880 1 301 303
881 1 1231 1232
882 1 1231 1233
883 1 757 758
884 1 757 759
885 1 355 356
886 1 355 357
887 1 1471 1472
888 1 1471 1473
889 1 391 392
890 1 391 393
891 1 1291 1292
892 1 1291 1293
893 1 1282 1283
894 1 1282 1284
895 1 514 515
896 1 514 516
897 1 85 86
898 1 85 87
899 1 328 329
900 1 328 330
901 1 1279 1280
902 1 1279 1281
903 1 133 134
904 1 133 135
905 1 502 503
906 1 502 504
907 1 526 527
908 1 526 528
909 1 1720 1721
910 1 1720 1722
911 1 43 44
912 1 43 45
913 1 853 854
914 1 853 855
915 1 1111 1112
916 1 1111 1113
917 1 1774 1775
918 1 1774 1776
919 1 1609 1610
920 1 1609 1611
921 1 865 866
922 1 865 867
923 1 1243 1244
924 1 1243 1245
925 1 1522 1523
926 1 1522 1524
927 1 1723 1724
928 1 1723 1725
929 1 1741 1742
930 1 1741 1743
931 1 1258 1259
932 1 1258 1260
933 1 544 545
934 1 544 546
935 1 1330 1331
936 1 1330 1332
937 1 589 590
938 1 589 591
939 1 1156 1157
940 1 1156 1158
941 1 13 14
942 1 13 15
943 1 1654 1655
944 1 1654 1656
945 1 631 632
946 1 631 633
947 1 1273 1274
948 1 1273 1275
949 1 79 80
950 1 79 81
951 1 91 92
952 1 91 93
953 1 946 947
954 1 946 948
955 1 1597 1598
956 1 1597 1599
957 1 1225 1226
958 1 1225 1227
959 1 1180 1181
960 1 1180 1182
961 1 1468 1469
962 1 1468 1470
963 1 31 32
964 1 31 33
965 1 1144 1145
966 1 1144 1146
967 1 817 818
968 1 817 819
969 1 841 842
970 1 841 843
971 1 1348 1349
972 1 1348 1350
973 1 439 440
974 1 439 441
975 1 88 89
976 1 88 90
977 1 1444 1445
978 1 1444 1446
979 1 223 224
980 1 223 225
981 1 394 395
982 1 394 396
983 1 700 701
984 1 700 702
985 1 1381 1382
986 1 1381 1383
987 1 1399 1400
988 1 1399 1401
989 1 445 446
990 1 445 447
991 1 919 920
992 1 919 921
993 1 1675 1676
994 1 1675 1677
995 1 1216 1217
996 1 1216 1218
997 1 475 476
998 1 475 477
999 1 1099 1100
1000 1 1099 1101
1001 1 451 452
1002 1 451 453
1003 1 166 167
1004 1 166 168
1005 1 1345 1346
1006 1 1345 1347
1007 1 187 188
1008 1 187 189
1009 1 400 401
1010 1 400 402
1011 1 148 149
1012 1 148 150
1013 1 880 881
1014 1 880 882
1015 1 949 950
1016 1 949 951
1017 1 1165 1166
1018 1 1165 1167
1019 1 778 779
1020 1 778 780
1021 1 1096 1097
1022 1 1096 1098
1023 1 598 599
1024 1 598 600
1025 1 1777 1778
1026 1 1777 1779
1027 1 283 284
1028 1 283 285
1029 1 154 155
1030 1 154 156
1031 1 1240 1241
1032 1 1240 1242
1033 1 844 845
1034 1 844 846
1035 1 358 359
1036 1 358 360
1037 1 19 20
1038 1 19 21
1039 1 1192 1193
1040 1 1192 1194
1041 1 547 548
1042 1 547 549
1043 1 1372 1373
1044 1 1372 1374
1045 1 1312 1313
1046 1 1312 1314
1047 1 220 221
1048 1 220 222
1049 1 121 122
1050 1 121 123
1051 1 1480 1481
1052 1 1480 1482
1053 1 1246 1247
1054 1 1246 1248
1055 1 733 734
1056 1 733 735
1057 1 1681 1682
1058 1 1681 1683
1059 1 562 563
1060 1 562 564
1061 1 310 311
1062 1 310 312
1063 1 556 557
1064 1 556 558
1065 1 259 260
1066 1 259 261
1067 1 739 740
1068 1 739 741
1069 1 565 566
1070 1 565 567
1071 1 775 776
1072 1 775 777
1073 1 1054 1055
1074 1 1054 1056
1075 1 202 203
1076 1 202 204
1077 1 1288 1289
1078 1 1288 1290
1079 1 1285 1286
1080 1 1285 1287
1081 1 1588 1589
1082 1 1588 1590
1083 1 1189 1190
1084 1 1189 1191
1085 1 1162 1163
1086 1 1162 1164
1087 1 1783 1784
1088 1 1783 1785
1089 1 928 929
1090 1 928 930
1091 1 1303 1304
1092 1 1303 1305
1093 1 421 422
1094 1 421 423
1095 1 805 806
1096 1 805 807
1097 1 508 509
1098 1 508 510
1099 1 1366 1367
1100 1 1366 1368
1101 1 382 383
1102 1 382 384
1103 1 1141 1142
1104 1 1141 1143
1105 1 1540 1541
1106 1 1540 1542
1107 1 1615 1616
1108 1 1615 1617
1109 1 1066 1067
1110 1 1066 1068
1111 1 697 698
1112 1 697 699
1113 1 1798 1799
1114 1 1798 1800
1115 1 229 230
1116 1 229 231
1117 1 40 41
1118 1 40 42
1119 1 667 668
1120 1 667 669
1121 1 388 389
1122 1 388 390
1123 1 907 908
1124 1 907 909
1125 1 46 47
1126 1 46 48
1127 1 1753 1754
1128 1 1753 1755
1129 1 613 614
1130 1 613 615
1131 1 73 74
1132 1 73 75
1133 1 1630 1631
1134 1 1630 1632
1135 1 970 971
1136 1 970 972
1137 1 1177 1178
1138 1 1177 1179
1139 1 1489 1490
1140 1 1489 1491
1141 1 808 809
1142 1 808 810
1143 1 127 128
1144 1 127 129
1145 1 535 536
1146 1 535 537
1147 1 640 641
1148 1 640 642
1149 1 241 242
1150 1 241 243
1151 1 1147 1148
1152 1 1147 1149
1153 1 430 431
1154 1 430 432
1155 1 1705 1706
1156 1 1705 1707
1157 1 943 944
1158 1 943 945
1159 1 913 914
1160 1 913 915
1161 1 49 50
1162 1 49 51
1163 1 505 506
1164 1 505 507
1165 1 709 710
1166 1 709 711
1167 1 1711 1712
1168 1 1711 1713
1169 1 1021 1022
1170 1 1021 1023
1171 1 1528 1529
1172 1 1528 1530
1173 1 571 572
1174 1 571 573
1175 1 721 722
1176 1 721 723
1177 1 991 992
1178 1 991 993
1179 1 1600 1601
1180 1 1600 1602
1181 1 1237 1238
1182 1 1237 1239
1183 1 814 815
1184 1 814 816
1185 1 871 872
1186 1 871 873
1187 1 964 965
1188 1 964 966
1189 1 265 266
1190 1 265 267
1191 1 1393 1394
1192 1 1393 1395
1193 1 1492 1493
1194 1 1492 1494
1195 1 466 467
1196 1 466 468
1197 1 1105 1106
1198 1 1105 1107
1199 1 442 443
1200 1 442 444

Angles

1 1 941 940 942
2 1 839 838 840
3 1 344 343 345
4 1 791 790 792
5 1 434 433 435
6 1 1625 1624 1626
7 1 1334 1333 1335
8 1 995 994 996
9 1 518 517 519
10 1 512 511 513
11 1 1196 1195 1197
12 1 644 643 645
13 1 1370 1369 1371
14 1 887 886 888
15 1 1061 1060 1062
16 1 1007 1006 1008
17 1 182 181 183
18 1 1715 1714 1716
19 1 998 997 999
20 1 119 118 120
21 1 767 766 768
22 1 1499 1498 1500
23 1 1307 1306 1308
24 1 1364 1363 1365
25 1 1010 1009 1011
26 1 884 883 885
27 1 1781 1780 1782
28 1 1463 1462 1464
29 1 53 52 54
30 1 665 664 666
31 1 1568 1567 1569
32 1 1028 1027 1029
33 1 1223 1222 1224
34 1 95 94 96
35 1 1502 1501 1503
36 1 335 334 336
37 1 269 268 270
38 1 899 898 900
39 1 1151 1150 1152
40 1 731 730 732
41 1 695 694 696
42 1 530 529 531
43 1 689 688 690
44 1 215 214 216
45 1 569 568 570
46 1 551 550 552
47 1 875 874 876
48 1 893 892 894
49 1 1388 1387 1389
50 1 488 487 489
51 1 1478 1477 1479
52 1 761 760 762
53 1 161 160 162
54 1 1694 1693 1695
55 1 1637 1636 1638
56 1 617 616 618
57 1 206 205 207
58 1 1796 1795 1797
59 1 878 877 879
60 1 620 619 621
61 1 794 793 795
62 1 1091 1090 1092
63 1 716 715 717
64 1 1787 1786 1788
65 1 1487 1486 1488
66 1 1298 1297 1299
67 1 1436 1435 1437
68 1 1451 1450 1452
69 1 1571 1570 1572
70 1 131 130 132
71 1 650 649 651
72 1 896 895 897
73 1 1136 1135 1137
74 1 1256 1255 1257
75 1 1508 1507 1509
76 1 911 910 912
77 1 956 955 957
78 1 1361 1360 1362
79 1 1574 1573 1575
80 1 1439 1438 1440
81 1 1070 1069 1071
82 1 902 901 903
83 1 68 67 69
84 1 98 97 99
85 1 1262 1261 1263
86 1 1214 1213 1215
87 1 1772 1771 1773
88 1 725 724 726
89 1 236 235 237
90 1 455 454 456
91 1 146 145 147
92 1 1427 1426 1428
93 1 653 652 654
94 1 671 670 672
95 1 1397 1396 1398
96 1 533 532 534
97 1 185 184 186
98 1 1592 1591 1593
99 1 233 232 234
100 1 704 703 705
101 1 326 325 327
102 1 1205 1204 1206
103 1 659 658 660
104 1 272 271 273
105 1 227 226 228
106 1 1355 1354 1356
107 1 983 982 984
108 1 1484 1483 1485
109 1 626 625 627
110 1 296 295 297
111 1 380 379 381
112 1 1562 1561 1563
113 1 1559 1558 1560
114 1 77 76 78
115 1 1583 1582 1584
116 1 1403 1402 1404
117 1 1160 1159 1161
118 1 491 490 492
119 1 1586 1585 1587
120 1 287 286 288
121 1 1250 1249 1251
122 1 932 931 933
123 1 1565 1564 1566
124 1 1127 1126 1128
125 1 299 298 300
126 1 332 331 333
127 1 323 322 324
128 1 803 802 804
129 1 164 163 165
130 1 1037 1036 1038
131 1 860 859 861
132 1 1748 1747 1749
133 1 830 829 831
134 1 692 691 693
135 1 200 199 201
136 1 1073 1072 1074
137 1 1409 1408 1410
138 1 140 139 141
139 1 1046 1045 1047
140 1 500 499 501
141 1 1154 1153 1155
142 1 959 958 960
143 1 1415 1414 1416
144 1 800 799 801
145 1 1454 1453 1455
146 1 629 628 630
147 1 290 289 291
148 1 461 460 462
149 1 1049 1048 1050
150 1 35 34 36
151 1 575 574 576
152 1 152 151 153
153 1 1553 1552 1554
154 1 437 436 438
155 1 1265 1264 1266
156 1 362 361 363
157 1 752 751 753
158 1 449 448 450
159 1 386 385 387
160 1 1328 1327 1329
161 1 1622 1621 1623
162 1 788 787 789
163 1 1688 1687 1689
164 1 521 520 522
165 1 83 82 84
166 1 1208 1207 1209
167 1 782 781 783
168 1 494 493 495
169 1 254 253 255
170 1 647 646 648
171 1 212 211 213
172 1 581 580 582
173 1 749 748 750
174 1 1319 1318 1320
175 1 1505 1504 1506
176 1 218 217 219
177 1 497 496 498
178 1 1577 1576 1578
179 1 1514 1513 1515
180 1 953 952 954
181 1 65 64 66
182 1 1511 1510 1512
183 1 104 103 105
184 1 611 610 612
185 1 593 592 594
186 1 728 727 729
187 1 197 196 198
188 1 1358 1357 1359
189 1 635 634 636
190 1 473 472 474
191 1 1556 1555 1557
192 1 338 337 339
193 1 56 55 57
194 1 398 397 399
195 1 938 937 939
196 1 602 601 603
197 1 1664 1663 1665
198 1 980 979 981
199 1 824 823 825
200 1 773 772 774
201 1 989 988 990
202 1 1139 1138 1140
203 1 5 4 6
204 1 1670 1669 1671
205 1 608 607 609
206 1 1130 1129 1131
207 1 1604 1603 1605
208 1 587 586 588
209 1 257 256 258
210 1 1376 1375 1377
211 1 1187 1186 1188
212 1 1634 1633 1635
213 1 1619 1618 1620
214 1 470 469 471
215 1 1103 1102 1104
216 1 719 718 720
217 1 1649 1648 1650
218 1 59 58 60
219 1 1133 1132 1134
220 1 1580 1579 1581
221 1 623 622 624
222 1 404 403 405
223 1 1475 1474 1476
224 1 71 70 72
225 1 1685 1684 1686
226 1 1628 1627 1629
227 1 1730 1729 1731
228 1 107 106 108
229 1 173 172 174
230 1 1172 1171 1173
231 1 1379 1378 1380
232 1 281 280 282
233 1 707 706 708
234 1 1202 1201 1203
235 1 764 763 765
236 1 308 307 309
237 1 857 856 858
238 1 1760 1759 1761
239 1 1751 1750 1752
240 1 1790 1789 1791
241 1 1253 1252 1254
242 1 458 457 459
243 1 1769 1768 1770
244 1 1442 1441 1443
245 1 1391 1390 1392
246 1 209 208 210
247 1 833 832 834
248 1 1034 1033 1035
249 1 785 784 786
250 1 1700 1699 1701
251 1 8 7 9
252 1 1325 1324 1326
253 1 827 826 828
254 1 1550 1549 1551
255 1 1094 1093 1095
256 1 347 346 348
257 1 1544 1543 1545
258 1 1031 1030 1032
259 1 974 973 975
260 1 542 541 543
261 1 1019 1018 1020
262 1 869 868 870
263 1 977 976 978
264 1 1424 1423 1425
265 1 278 277 279
266 1 1457 1456 1458
267 1 737 736 738
268 1 314 313 315
269 1 1118 1117 1119
270 1 482 481 483
271 1 935 934 936
272 1 638 637 639
273 1 38 37 39
274 1 1229 1228 1230
275 1 1220 1219 1221
276 1 245 244 246
277 1 17 16 18
278 1 812 811 813
279 1 713 712 714
280 1 890 889 891
281 1 428 427 429
282 1 62 61 63
283 1 116 115 117
284 1 680 679 681
285 1 176 175 177
286 1 1466 1465 1467
287 1 1745 1744 1746
288 1 554 553 555
289 1 1082 1081 1083
290 1 1352 1351 1353
291 1 1277 1276 1278
292 1 923 922 924
293 1 1532 1531 1533
294 1 1199 1198 1200
295 1 1271 1270 1272
296 1 1043 1042 1044
297 1 746 745 747
298 1 743 742 744
299 1 305 304 306
300 1 1013 1012 1014
301 1 797 796 798
302 1 410 409 411
303 1 248 247 249
304 1 1058 1057 1059
305 1 419 418 420
306 1 377 376 378
307 1 1169 1168 1170
308 1 1763 1762 1764
309 1 1385 1384 1386
310 1 1322 1321 1323
311 1 407 406 408
312 1 1115 1114 1116
313 1 1064 1063 1065
314 1 1340 1339 1341
315 1 191 190 192
316 1 194 193 195
317 1 239 238 240
318 1 1301 1300 1302
319 1 968 967 969
320 1 275 274 276
321 1 1595 1594 1596
322 1 1517 1516 1518
323 1 1052 1051 1053
324 1 674 673 675
325 1 1766 1765 1767
326 1 656 655 657
327 1 686 685 687
328 1 1673 1672 1674
329 1 926 925 927
330 1 1547 1546 1548
331 1 560 559 561
332 1 836 835 837
333 1 1121 1120 1122
334 1 1658 1657 1659
335 1 113 112 114
336 1 1733 1732 1734
337 1 374 373 375
338 1 1643 1642 1644
339 1 1412 1411 1413
340 1 101 100 102
341 1 578 577 579
342 1 986 985 987
343 1 110 109 111
344 1 1040 1039 1041
345 1 2 1 3
346 1 770 769 771
347 1 1433 1432 1434
348 1 371 370 372
349 1 1535 1534 1536
350 1 485 484 486
351 1 821 820 822
352 1 26 25 27
353 1 1175 1174 1176
354 1 683 682 684
355 1 416 415 417
356 1 917 916 918
357 1 1652 1651 1653
358 1 1640 1639 1641
359 1 158 157 159
360 1 125 124 126
361 1 320 319 321
362 1 464 463 465
363 1 179 178 180
364 1 1727 1726 1728
365 1 1679 1678 1680
366 1 23 22 24
367 1 1526 1525 1527
368 1 350 349 351
369 1 1448 1447 1449
370 1 1184 1183 1185
371 1 1418 1417 1419
372 1 1316 1315 1317
373 1 1697 1696 1698
374 1 353 352 354
375 1 11 10 12
376 1 1268 1267 1269
377 1 293 292 294
378 1 851 850 852
379 1 1085 1084 1086
380 1 596 595 597
381 1 863 862 864
382 1 1757 1756 1758
383 1 848 847 849
384 1 1646 1645 1647
385 1 1496 1495 1497
386 1 1607 1606 1608
387 1 413 412 414
388 1 1739 1738 1740
389 1 1295 1294 1296
390 1 1421 1420 1422
391 1 605 604 606
392 1 263 262 264
393 1 29 28 30
394 1 1004 1003 1005
395 1 1016 1015 1017
396 1 1718 1717 1719
397 1 137 136 138
398 1 368 367 369
399 1 365 364 366
400 1 1337 1336 1338
401 1 1076 1075 1077
402 1 524 523 525
403 1 1025 1024 1026
404 1 1691 1690 1692
405 1 1001 1000 1002
406 1 1109 1108 1110
407 1 1235 1234 1236
408 1 251 250 252
409 1 539 538 540
410 1 1079 1078 1080
411 1 479 478 480
412 1 1661 1660 1662
413 1 1430 1429 1431
414 1 1520 1519 1521
415 1 962 961 963
416 1 677 676 678
417 1 317 316 318
418 1 425 424 426
419 1 584 583 585
420 1 1538 1537 1539
421 1 1124 1123 1125
422 1 1460 1459 1461
423 1 1709 1708 1710
424 1 662 661 663
425 1 1310 1309 1311
426 1 1736 1735 1737
427 1 341 340 342
428 1 1406 1405 1407
429 1 143 142 144
430 1 1703 1702 1704
431 1 1793 1792 1794
432 1 905 904 906
433 1 170 169 171
434 1 755 754 756
435 1 1211 1210 1212
436 1 1613 1612 1614
437 1 1343 1342 1344
438 1 1667 1666 1668
439 1 1088 1087 1089
440 1 302 301 303
441 1 1232 1231 1233
442 1 758 757 759
443 1 356 355 357
444 1 1472 1471 1473
445 1 392 391 393
446 1 1292 1291 1293
447 1 1283 1282 1284
448 1 515 514 516
449 1 86 85 87
450 1 329 328 330
451 1 1280 1279 1281
452 1 134 133 135
453 1 503 502 504
454 1 527 526 528
455 1 1721 1720 1722
456 1 44 43 45
457 1 854 853 855
458 1 1112 1111 1113
459 1 1775 1774 1776
460 1 1610 1609 1611
461 1 866 865 867
462 1 1244 1243 1245
463 1 1523 1522 1524
464 1 1724 1723 1725
465 1 1742 1741 1743
466 1 1259 1258 1260
467 1 545 544 546
468 1 1331 1330 1332
469 1 590 589 591
470 1 1157 1156 1158
471 1 14 13 15
472 1 1655 1654 1656
473 1 632 631 633
474 1 1274 1273 1275
475 1 80 79 81
476 1 92 91 93
477 1 947 946 948
478 1 1598 1597 1599
479 1 1226 1225 1227
480 1 1181 1180 1182
481 1 1469 1468 1470
482 1 32 31 33
483 1 1145 1144 1146
484 1 818 817 819
485 1 842 841 843
486 1 1349 1348 1350
487 1 440 439 441
488 1 89 88 90
489 1 1445 1444 1446
490 1 224 223 225
491 1 395 394 396
492 1 701 700 702
493 1 1382 1381 1383
494 1 1400 1399 1401
495 1 446 445 447
496 1 920 919 921
497 1 1676 1675 1677
498 1 1217 1216 1218
499 1 476 475 477
500 1 1100 1099 1101
501 1 452 451 453
502 1 167 166 168
503 1 1346 1345 1347
504 1 188 187 189
505 1 401 400 402
506 1 149 148 150
507 1 881 880 882
508 1 950 949 951
509 1 1166 1165 1167
510 1 779 778 780
511 1 1097 1096 1098
512 1 599 598 600
513 1 1778 1777 1779
514 1 284 283 285
515 1 155 154 156
516 1 1241 1240 1242
517 1 845 844 846
518 1 359 358 360
519 1 20 19 21
520 1 1193 1192 1194
521 1 548 547 549
522 1 1373 1372 1374
523 1 1313 1312 1314
524 1 221 220 222
525 1 122 121 123
526 1 1481 1480 1482
527 1 1247 1246 1248
528 1 734 733 735
529 1 1682 1681 1683
530 1 563 562 564
531 1 311 310 312
532 1 557 556 558
533 1 260 259 261
534 1 740 739 741
535 1 566 565 567
536 1 776 775 777
537 1 1055 1054 1056
538 1 203 202 204
539 1 1289 1288 1290
540 1 1286 1285 1287
541 1 1589 1588 1590
542 1 1190 1189 1191
543 1 1163 1162 1164
544 1 1784 1783 1785
545 1 929 928 930
546 1 1304 1303 1305
547 1 422 421 423
548 1 806 805 807
549 1 509 508 510
550 1 1367 1366 1368
551 1 383 382 384
552 1 1142 1141 1143
553 1 1541 1540 1542
554 1 1616 1615 1617
555 1 1067 1066 1068
556 1 698 697 699
557 1 1799 1798 1800
558 1 230 229 231
559 1 41 40 42
560 1 668 667 669
561 1 389 388 390
562 1 908 907 909
563 1 47 46 48
564 1 1754 1753 1755
565 1 614 613 615
566 1 74 73 75
567 1 1631 1630 1632
568 1 971 970 972
569 1 1178 1177 1179
570 1 1490 1489 1491
571 1 809 808 810
572 1 128 127 129
573 1 536 535 537
574 1 641 640 642
575 1 242 241 243
576 1 1148 1147 1149
577 1 431 430 432
578 1 1706 1705 1707
579 1 944 943 945
580 1 914 913 915
581 1 50 49 51
582 1 506 505 507
583 1 710 709 711
584 1 1712 1711 1713
585 1 1022 1021 1023
586 1 1529 1528 1530
587 1 572 571 573
588 1 722 721 723
589 1 992 991 993
590 1 1601 1600 1602
591 1 1238 1237 1239
592 1 815 814 816
593 1 872 871 873
594 1 965 964 966
595 1 266 265 267
596 1 1394 1393 1395
597 1 1493 1492 1494
598 1 467 466 468
599 1 1106 1105 1107
600 1 443 442 444
