LAMMPS Description

604  atoms
648  bonds
1076  angles
912  dihedrals
288  impropers

12  atom types
13  bond types
19  angle types
7  dihedral types
1  improper types

0.0 40 xlo xhi
0.0 40 ylo yhi
0.0 40 zlo zhi

Masses

1 65.380000000  # Zn3f2
2 15.999400000  # O_3_f
3 15.999400000  # O_2
4 12.010700000  # C_R
5 12.010700000  # C_2
6 12.010700000  # C_1
7 1.007940000  # H_
8 12.010780  # opls_135
9 1.007947  # opls_140
10 15.999430  # opls_154
11 1.007947  # opls_155
12 12.010780  # opls_157

Atoms

1 1 1 0.00000 11.139 30.811 17.689
2 1 1 0.00000 27.631 22.424 32.893
3 1 1 0.00000 27.527 22.143 17.737
4 1 1 0.00000 11.243 31.093 32.845
5 1 1 0.00000 12.595 20.506 33.032
6 1 1 0.00000 26.175 32.729 17.550
7 1 1 0.00000 26.279 33.010 32.706
8 1 1 0.00000 12.491 20.225 17.876
9 1 1 0.00000 13.079 33.319 17.629
10 1 1 0.00000 25.691 19.916 32.953
11 1 1 0.00000 23.771 34.950 32.687
12 1 1 0.00000 14.999 18.284 17.895
13 1 1 0.00000 25.586 19.634 17.797
14 1 1 0.00000 13.183 33.600 32.785
15 1 1 0.00000 15.103 18.565 33.051
16 1 1 0.00000 23.666 34.669 17.531
17 1 1 0.00000 10.870 33.076 19.891
18 1 1 0.00000 27.900 20.158 30.690
19 1 1 0.00000 12.863 18.240 30.829
20 1 1 0.00000 25.907 34.994 19.752
21 1 1 0.00000 25.980 35.192 30.424
22 1 1 0.00000 12.790 18.042 20.157
23 1 1 0.00000 27.827 19.960 20.018
24 1 1 0.00000 10.943 33.275 30.563
25 1 1 0.00000 24.039 32.685 30.484
26 1 1 0.00000 14.730 20.550 20.097
27 1 1 0.00000 14.803 20.748 30.769
28 1 1 0.00000 23.966 32.487 19.812
29 1 1 0.00000 25.318 21.901 19.999
30 1 1 0.00000 13.451 31.335 30.582
31 1 1 0.00000 13.378 31.137 19.910
32 1 1 0.00000 25.391 22.099 30.671
33 1 2 0.00000 12.116 32.086 18.780
34 1 2 0.00000 26.653 21.150 31.802
35 1 2 0.00000 26.564 20.910 18.888
36 1 2 0.00000 12.205 32.325 31.693
37 1 2 0.00000 13.841 19.515 31.920
38 1 2 0.00000 24.928 33.720 18.661
39 1 2 0.00000 25.017 33.960 31.575
40 1 2 0.00000 13.752 19.276 19.007
41 1 3 0.00000 11.383 31.109 15.807
42 1 3 0.00000 27.386 22.127 34.776
43 1 3 0.00000 27.256 21.776 15.871
44 1 3 0.00000 11.513 31.460 34.712
45 1 3 0.00000 12.940 20.284 34.910
46 1 3 0.00000 25.829 32.951 15.673
47 1 3 0.00000 25.959 33.302 34.578
48 1 3 0.00000 12.810 19.933 16.004
49 1 3 0.00000 12.548 35.146 17.896
50 1 3 0.00000 26.221 18.088 32.686
51 1 3 0.00000 23.826 36.842 32.354
52 1 3 0.00000 14.943 16.392 18.228
53 1 3 0.00000 26.120 17.818 18.124
54 1 3 0.00000 12.649 35.416 32.457
55 1 3 0.00000 15.044 16.663 32.789
56 1 3 0.00000 23.725 36.572 17.793
57 1 3 0.00000 9.046 32.539 19.617
58 1 3 0.00000 29.724 20.696 30.965
59 1 3 0.00000 10.968 18.304 31.138
60 1 3 0.00000 27.802 34.931 19.443
61 1 3 0.00000 27.880 35.141 30.709
62 1 3 0.00000 10.890 18.095 19.872
63 1 3 0.00000 29.647 20.487 19.699
64 1 3 0.00000 9.123 32.748 30.883
65 1 3 0.00000 12.939 33.303 34.668
66 1 3 0.00000 25.830 19.933 15.915
67 1 3 0.00000 25.960 20.284 34.820
68 1 3 0.00000 12.809 32.952 15.763
69 1 3 0.00000 23.986 34.377 15.659
70 1 3 0.00000 14.783 18.858 34.923
71 1 3 0.00000 14.653 18.507 16.018
72 1 3 0.00000 24.116 34.728 34.564
73 1 3 0.00000 9.343 31.144 32.559
74 1 3 0.00000 29.427 22.091 18.022
75 1 3 0.00000 10.670 19.699 18.196
76 1 3 0.00000 28.100 33.537 32.386
77 1 3 0.00000 29.527 22.361 32.583
78 1 3 0.00000 9.243 30.874 17.998
79 1 3 0.00000 27.999 33.266 17.825
80 1 3 0.00000 10.771 19.969 32.757
81 1 3 0.00000 11.003 35.177 30.825
82 1 3 0.00000 27.766 18.057 19.757
83 1 3 0.00000 25.371 36.811 19.425
84 1 3 0.00000 13.398 16.424 31.156
85 1 3 0.00000 13.320 16.214 19.890
86 1 3 0.00000 25.449 37.020 30.691
87 1 3 0.00000 27.844 18.266 31.023
88 1 3 0.00000 10.925 34.968 19.559
89 1 3 0.00000 24.283 32.982 28.602
90 1 3 0.00000 14.486 20.253 21.981
91 1 3 0.00000 14.533 20.381 28.903
92 1 3 0.00000 24.236 32.854 21.680
93 1 3 0.00000 25.663 21.678 21.878
94 1 3 0.00000 13.106 31.557 28.705
95 1 3 0.00000 13.059 31.428 21.783
96 1 3 0.00000 25.710 21.807 28.799
97 1 3 0.00000 21.946 34.413 32.412
98 1 3 0.00000 16.824 18.822 18.170
99 1 3 0.00000 23.691 19.698 18.106
100 1 3 0.00000 15.079 33.537 32.475
101 1 3 0.00000 14.979 33.267 17.914
102 1 3 0.00000 23.791 19.969 32.667
103 1 3 0.00000 16.924 19.093 32.731
104 1 3 0.00000 21.846 34.143 17.851
105 1 3 0.00000 25.662 34.697 21.636
106 1 3 0.00000 13.107 18.538 28.947
107 1 3 0.00000 13.060 18.410 22.025
108 1 3 0.00000 25.709 34.825 28.558
109 1 3 0.00000 11.263 32.983 28.691
110 1 3 0.00000 27.506 20.252 21.891
111 1 3 0.00000 27.554 20.381 28.813
112 1 3 0.00000 11.215 32.854 21.769
113 1 3 0.00000 22.066 32.539 19.527
114 1 3 0.00000 16.704 20.697 31.054
115 1 3 0.00000 23.571 21.572 30.991
116 1 3 0.00000 15.199 31.663 19.591
117 1 3 0.00000 16.626 20.487 19.788
118 1 3 0.00000 22.144 32.748 30.793
119 1 3 0.00000 15.277 31.872 30.857
120 1 3 0.00000 23.493 21.363 19.725
121 1 3 0.00000 14.273 22.576 31.036
122 1 3 0.00000 24.496 30.658 19.545
123 1 3 0.00000 25.373 23.792 19.667
124 1 3 0.00000 13.396 29.442 30.915
125 1 3 0.00000 24.573 30.868 30.811
126 1 3 0.00000 14.196 22.367 19.770
127 1 3 0.00000 13.319 29.233 19.649
128 1 3 0.00000 25.450 24.001 30.933
129 1 3 0.00000 12.550 22.128 18.138
130 1 3 0.00000 26.219 31.107 32.444
131 1 3 0.00000 27.096 24.240 32.565
132 1 3 0.00000 11.673 28.994 18.016
133 1 3 0.00000 11.773 29.264 32.577
134 1 3 0.00000 26.996 23.970 18.004
135 1 3 0.00000 26.119 30.836 17.883
136 1 3 0.00000 12.650 22.398 32.699
137 1 4 0.00000 12.092 32.019 15.198
138 1 4 0.00000 26.677 21.216 35.384
139 1 4 0.00000 26.539 20.843 15.306
140 1 4 0.00000 12.230 32.392 35.276
141 1 4 0.00000 13.866 19.582 35.502
142 1 4 0.00000 24.903 33.653 15.079
143 1 4 0.00000 25.041 34.026 35.157
144 1 4 0.00000 13.728 19.209 15.424
145 1 4 0.00000 11.662 35.639 18.717
146 1 4 0.00000 27.107 17.596 31.864
147 1 4 0.00000 24.563 37.513 31.512
148 1 4 0.00000 14.206 15.722 19.069
149 1 4 0.00000 27.018 17.356 18.951
150 1 4 0.00000 11.751 35.879 31.631
151 1 4 0.00000 14.295 15.962 31.983
152 1 4 0.00000 24.474 37.273 18.599
153 1 4 0.00000 8.562 31.632 18.813
154 1 4 0.00000 30.207 21.603 31.769
155 1 4 0.00000 10.287 19.062 31.953
156 1 4 0.00000 28.482 34.173 18.629
157 1 4 0.00000 28.571 34.413 31.542
158 1 4 0.00000 10.198 18.822 19.039
159 1 4 0.00000 30.118 21.363 18.855
160 1 4 0.00000 8.651 31.872 31.726
161 1 4 0.00000 24.992 33.893 27.994
162 1 4 0.00000 13.777 19.342 22.589
163 1 4 0.00000 13.816 19.449 28.339
164 1 4 0.00000 24.953 33.786 22.244
165 1 4 0.00000 26.589 20.976 22.470
166 1 4 0.00000 12.180 32.259 28.112
167 1 4 0.00000 12.141 32.152 22.362
168 1 4 0.00000 26.628 21.083 28.220
169 1 4 0.00000 21.464 33.506 31.608
170 1 4 0.00000 17.306 19.729 18.974
171 1 4 0.00000 23.011 20.457 18.921
172 1 4 0.00000 15.759 32.779 31.661
173 1 4 0.00000 15.670 32.539 18.747
174 1 4 0.00000 23.100 20.696 31.834
175 1 4 0.00000 17.395 19.969 31.887
176 1 4 0.00000 21.375 33.267 18.694
177 1 4 0.00000 13.387 23.068 31.857
178 1 4 0.00000 25.382 30.166 18.724
179 1 4 0.00000 26.110 24.462 18.825
180 1 4 0.00000 12.659 28.772 31.756
181 1 4 0.00000 25.471 30.406 31.638
182 1 4 0.00000 13.299 22.828 18.944
183 1 4 0.00000 12.570 28.532 18.843
184 1 4 0.00000 26.199 24.702 31.739
185 1 5 0.00000 12.081 31.992 13.713
186 1 5 0.00000 26.688 21.244 36.870
187 1 5 0.00000 26.529 20.816 13.821
188 1 5 0.00000 12.240 32.420 36.761
189 1 5 0.00000 13.876 19.610 36.988
190 1 5 0.00000 24.893 33.626 13.594
191 1 5 0.00000 25.052 34.054 36.643
192 1 5 0.00000 13.717 19.182 13.940
193 1 5 0.00000 11.474 37.112 18.691
194 1 5 0.00000 27.295 16.122 31.890
195 1 5 0.00000 24.375 38.986 31.486
196 1 5 0.00000 14.394 14.248 19.095
197 1 5 0.00000 27.206 15.882 18.977
198 1 5 0.00000 11.563 37.352 31.605
199 1 5 0.00000 14.483 14.488 32.009
200 1 5 0.00000 24.286 38.746 18.573
201 1 5 0.00000 7.089 31.445 18.826
202 1 5 0.00000 31.681 21.791 31.755
203 1 5 0.00000 8.814 18.874 31.966
204 1 5 0.00000 29.956 34.361 18.615
205 1 5 0.00000 30.045 34.601 31.528
206 1 5 0.00000 8.725 18.635 19.053
207 1 5 0.00000 31.592 21.551 18.842
208 1 5 0.00000 7.178 31.684 31.740
209 1 4 0.00000 24.982 33.865 26.508
210 1 4 0.00000 13.787 19.370 24.075
211 1 4 0.00000 13.806 19.421 26.853
212 1 4 0.00000 24.963 33.814 23.729
213 1 4 0.00000 26.599 21.004 23.956
214 1 4 0.00000 12.170 32.231 26.626
215 1 4 0.00000 12.151 32.180 23.848
216 1 4 0.00000 26.618 21.055 26.735
217 1 4 0.00000 19.990 33.318 31.621
218 1 4 0.00000 18.780 19.917 18.960
219 1 4 0.00000 21.537 20.269 18.935
220 1 4 0.00000 17.233 32.967 31.647
221 1 4 0.00000 17.144 32.727 18.733
222 1 4 0.00000 21.626 20.508 31.848
223 1 4 0.00000 18.869 20.157 31.874
224 1 4 0.00000 19.901 33.079 18.708
225 1 4 0.00000 13.199 24.542 31.831
226 1 4 0.00000 25.570 28.692 18.750
227 1 4 0.00000 25.922 25.936 18.799
228 1 4 0.00000 12.847 27.298 31.782
229 1 4 0.00000 25.659 28.932 31.664
230 1 4 0.00000 13.110 24.302 18.918
231 1 4 0.00000 12.758 27.058 18.869
232 1 4 0.00000 26.011 26.176 31.713
233 1 6 0.00000 11.342 31.028 13.041
234 1 6 0.00000 27.428 22.206 37.542
235 1 6 0.00000 27.260 21.752 13.104
236 1 6 0.00000 11.510 31.482 37.479
237 1 6 0.00000 12.931 20.357 37.676
238 1 6 0.00000 25.839 32.877 12.907
239 1 6 0.00000 26.007 33.331 37.345
240 1 6 0.00000 12.763 19.903 13.238
241 1 6 0.00000 12.224 37.893 17.822
242 1 6 0.00000 26.546 15.341 32.760
243 1 6 0.00000 23.451 39.584 32.331
244 1 6 0.00000 15.320 13.651 18.251
245 1 6 0.00000 26.446 15.070 18.148
246 1 6 0.00000 12.324 38.164 32.434
247 1 6 0.00000 15.420 13.922 32.863
248 1 6 0.00000 23.350 39.312 17.719
249 1 6 0.00000 6.298 32.214 19.668
250 1 6 0.00000 32.472 21.020 30.915
251 1 6 0.00000 8.226 17.928 31.139
252 1 6 0.00000 30.544 35.307 19.444
253 1 6 0.00000 30.621 35.515 30.658
254 1 6 0.00000 8.149 17.719 19.924
255 1 6 0.00000 32.395 20.812 19.700
256 1 6 0.00000 6.375 32.423 30.883
257 1 6 0.00000 12.980 33.382 37.434
258 1 6 0.00000 25.790 19.852 13.149
259 1 6 0.00000 25.958 20.306 37.587
260 1 6 0.00000 12.812 32.928 12.995
261 1 6 0.00000 23.939 34.347 12.893
262 1 6 0.00000 14.831 18.887 37.690
263 1 6 0.00000 14.663 18.433 13.252
264 1 6 0.00000 24.107 34.801 37.331
265 1 6 0.00000 6.602 30.769 32.611
266 1 6 0.00000 32.168 22.465 17.971
267 1 6 0.00000 7.922 19.373 18.196
268 1 6 0.00000 30.848 33.861 32.387
269 1 6 0.00000 32.268 22.737 32.584
270 1 6 0.00000 6.502 30.498 17.999
271 1 6 0.00000 30.747 33.590 17.775
272 1 6 0.00000 8.023 19.644 32.808
273 1 6 0.00000 10.627 37.918 30.751
274 1 6 0.00000 28.143 15.316 19.831
275 1 6 0.00000 25.047 39.559 19.402
276 1 6 0.00000 13.723 13.676 31.180
277 1 6 0.00000 13.646 13.467 19.965
278 1 6 0.00000 25.124 39.767 30.617
279 1 6 0.00000 28.220 15.525 31.046
280 1 6 0.00000 10.550 37.710 19.536
281 1 4 0.00000 24.243 32.902 25.836
282 1 4 0.00000 14.527 20.332 24.747
283 1 4 0.00000 14.537 20.358 26.135
284 1 4 0.00000 24.233 32.876 24.447
285 1 4 0.00000 25.654 21.751 24.644
286 1 4 0.00000 13.116 31.483 25.939
287 1 4 0.00000 13.107 31.457 24.550
288 1 4 0.00000 25.663 21.777 26.033
289 1 4 0.00000 19.199 34.088 32.463
290 1 4 0.00000 19.571 19.146 18.120
291 1 4 0.00000 20.949 19.322 18.107
292 1 4 0.00000 17.821 33.913 32.475
293 1 4 0.00000 17.720 33.641 17.863
294 1 4 0.00000 21.050 19.593 32.719
295 1 4 0.00000 19.672 19.417 32.732
296 1 4 0.00000 19.098 33.817 17.851
297 1 4 0.00000 25.703 34.776 24.402
298 1 4 0.00000 13.067 18.458 26.181
299 1 4 0.00000 13.057 18.432 24.792
300 1 4 0.00000 25.713 34.802 25.790
301 1 4 0.00000 11.216 32.953 25.924
302 1 4 0.00000 27.554 20.281 24.658
303 1 4 0.00000 27.564 20.307 26.047
304 1 4 0.00000 11.206 32.927 24.536
305 1 4 0.00000 19.325 32.163 19.579
306 1 4 0.00000 19.445 21.071 31.003
307 1 4 0.00000 20.823 21.247 30.991
308 1 4 0.00000 17.947 31.988 19.592
309 1 4 0.00000 19.368 20.863 19.789
310 1 4 0.00000 19.402 32.372 30.794
311 1 4 0.00000 18.024 32.196 30.807
312 1 4 0.00000 20.746 21.038 19.776
313 1 4 0.00000 13.948 25.323 30.962
314 1 4 0.00000 24.822 27.911 19.620
315 1 4 0.00000 24.998 26.534 19.645
316 1 4 0.00000 13.772 26.701 30.938
317 1 4 0.00000 24.899 28.120 30.835
318 1 4 0.00000 13.871 25.115 19.747
319 1 4 0.00000 13.695 26.492 19.723
320 1 4 0.00000 25.075 26.742 30.859
321 1 4 0.00000 12.174 24.868 18.064
322 1 4 0.00000 26.596 28.366 32.518
323 1 4 0.00000 26.772 26.989 32.542
324 1 4 0.00000 11.998 26.246 18.040
325 1 4 0.00000 12.099 26.517 32.652
326 1 4 0.00000 26.671 26.717 17.930
327 1 4 0.00000 26.495 28.095 17.906
328 1 4 0.00000 12.275 25.140 32.677
329 1 7 0.00000 10.853 30.401 13.519
330 1 7 0.00000 27.917 22.834 37.064
331 1 7 0.00000 27.755 22.397 13.551
332 1 7 0.00000 11.015 30.837 37.031
333 1 7 0.00000 12.291 20.841 37.208
334 1 7 0.00000 26.479 32.394 13.374
335 1 7 0.00000 26.640 32.830 36.887
336 1 7 0.00000 12.130 20.404 13.696
337 1 7 0.00000 12.843 37.495 17.256
338 1 7 0.00000 25.927 15.739 33.326
339 1 7 0.00000 22.949 39.063 32.914
340 1 7 0.00000 15.821 14.171 17.669
341 1 7 0.00000 25.819 15.447 17.576
342 1 7 0.00000 12.951 37.788 33.006
343 1 7 0.00000 15.930 14.464 33.419
344 1 7 0.00000 22.840 38.771 17.164
345 1 7 0.00000 6.689 32.848 20.222
346 1 7 0.00000 32.081 20.387 30.360
347 1 7 0.00000 8.754 17.411 30.576
348 1 7 0.00000 30.016 35.823 20.007
349 1 7 0.00000 30.086 36.010 30.084
350 1 7 0.00000 8.685 17.224 20.499
351 1 7 0.00000 32.012 20.199 20.283
352 1 7 0.00000 6.759 33.035 30.299
353 1 7 0.00000 13.469 34.010 36.955
354 1 7 0.00000 25.301 19.225 13.627
355 1 7 0.00000 25.462 19.661 37.139
356 1 7 0.00000 13.308 33.573 13.443
357 1 7 0.00000 23.305 34.848 13.351
358 1 7 0.00000 15.465 18.386 37.232
359 1 7 0.00000 15.303 17.950 13.719
360 1 7 0.00000 23.467 35.285 36.863
361 1 7 0.00000 7.137 30.274 33.186
362 1 7 0.00000 31.633 22.960 17.397
363 1 7 0.00000 8.306 19.985 17.613
364 1 7 0.00000 30.464 33.249 32.970
365 1 7 0.00000 31.741 23.253 33.147
366 1 7 0.00000 7.029 29.982 17.436
367 1 7 0.00000 30.356 32.957 17.220
368 1 7 0.00000 8.414 20.278 33.362
369 1 7 0.00000 10.118 37.376 30.196
370 1 7 0.00000 28.653 15.858 20.387
371 1 7 0.00000 25.674 39.182 19.974
372 1 7 0.00000 13.096 14.052 30.608
373 1 7 0.00000 13.027 13.865 20.531
374 1 7 0.00000 25.743 39.369 30.051
375 1 7 0.00000 28.722 16.045 30.464
376 1 7 0.00000 10.048 37.189 20.119
377 1 7 0.00000 23.754 32.274 26.314
378 1 7 0.00000 15.017 20.960 24.269
379 1 7 0.00000 15.033 21.003 26.583
380 1 7 0.00000 23.738 32.231 23.999
381 1 7 0.00000 25.014 22.235 24.176
382 1 7 0.00000 13.756 30.999 26.406
383 1 7 0.00000 13.740 30.956 24.092
384 1 7 0.00000 25.030 22.278 26.491
385 1 7 0.00000 19.590 34.722 33.017
386 1 7 0.00000 19.180 18.513 17.565
387 1 7 0.00000 21.477 18.806 17.544
388 1 7 0.00000 17.293 34.429 33.039
389 1 7 0.00000 17.185 34.136 17.289
390 1 7 0.00000 21.585 19.098 33.294
391 1 7 0.00000 19.289 18.805 33.315
392 1 7 0.00000 19.481 34.429 17.267
393 1 7 0.00000 26.192 35.404 23.924
394 1 7 0.00000 12.578 17.830 26.659
395 1 7 0.00000 12.562 17.787 24.344
396 1 7 0.00000 26.208 35.447 26.238
397 1 7 0.00000 10.583 33.454 26.383
398 1 7 0.00000 28.188 19.780 24.200
399 1 7 0.00000 28.204 19.823 26.514
400 1 7 0.00000 10.567 33.411 24.068
401 1 7 0.00000 19.860 31.668 20.154
402 1 7 0.00000 18.910 21.566 30.429
403 1 7 0.00000 21.206 21.859 30.408
404 1 7 0.00000 17.564 31.375 20.175
405 1 7 0.00000 18.841 21.379 20.352
406 1 7 0.00000 19.930 31.855 30.231
407 1 7 0.00000 17.633 31.562 30.252
408 1 7 0.00000 21.137 21.672 20.331
409 1 7 0.00000 14.568 24.925 30.396
410 1 7 0.00000 24.203 28.309 20.186
411 1 7 0.00000 24.496 26.013 20.227
412 1 7 0.00000 14.274 27.221 30.356
413 1 7 0.00000 24.272 28.496 30.263
414 1 7 0.00000 14.498 24.738 20.319
415 1 7 0.00000 14.205 27.034 20.279
416 1 7 0.00000 24.565 26.200 30.304
417 1 7 0.00000 11.665 24.327 17.509
418 1 7 0.00000 27.105 28.908 33.074
419 1 7 0.00000 27.399 26.612 33.114
420 1 7 0.00000 11.371 26.623 17.468
421 1 7 0.00000 11.480 26.915 33.218
422 1 7 0.00000 27.290 26.319 17.364
423 1 7 0.00000 26.997 28.615 17.324
424 1 7 0.00000 11.773 24.619 33.259
425 2 8 -0.180000 34.930 25.124 35.280
426 2 12 0.145000 36.344 24.823 35.721
427 2 10 -0.683000 36.269 24.236 37.011
428 2 9 0.060000 34.948 25.588 34.265
429 2 9 0.060000 34.327 24.186 35.243
430 2 9 0.060000 34.441 25.826 35.996
431 2 9 0.060000 36.839 24.110 35.007
432 2 9 0.060000 36.954 25.766 35.767
433 2 11 0.418000 37.173 24.048 37.283
434 3 8 -0.180000 18.511 15.032 18.315
435 3 12 0.145000 17.641 15.756 19.316
436 3 10 -0.683000 16.636 14.847 19.740
437 3 9 0.060000 19.317 15.717 17.958
438 3 9 0.060000 18.976 14.133 18.785
439 3 9 0.060000 17.902 14.695 17.444
440 3 9 0.060000 18.248 16.091 20.201
441 3 9 0.060000 17.163 16.659 18.847
442 3 11 0.418000 16.088 15.317 20.376
443 4 8 -0.180000 22.431 6.910 8.342
444 4 12 0.145000 23.741 7.098 9.071
445 4 10 -0.683000 24.762 7.190 8.089
446 4 9 0.060000 21.600 6.833 9.084
447 4 9 0.060000 22.237 7.773 7.663
448 4 9 0.060000 22.459 5.980 7.726
449 4 9 0.060000 23.721 8.038 9.687
450 4 9 0.060000 23.945 6.227 9.751
451 4 11 0.418000 25.592 7.309 8.563
452 5 8 -0.180000 4.658 13.145 27.447
453 5 12 0.145000 3.753 11.935 27.404
454 5 10 -0.683000 2.450 12.367 27.765
455 5 9 0.060000 5.696 12.844 27.168
456 5 9 0.060000 4.297 13.924 26.735
457 5 9 0.060000 4.666 13.585 28.472
458 5 9 0.060000 3.734 11.491 26.371
459 5 9 0.060000 4.107 11.149 28.125
460 5 11 0.418000 1.882 11.589 27.734
461 6 8 -0.180000 5.040 34.009 26.344
462 6 12 0.145000 4.300 34.415 25.091
463 6 10 -0.683000 2.944 34.631 25.451
464 6 9 0.060000 6.114 33.829 26.101
465 6 9 0.060000 4.968 34.813 27.115
466 6 9 0.060000 4.599 33.077 26.770
467 6 9 0.060000 4.735 35.358 24.661
468 6 9 0.060000 4.362 33.605 24.314
469 6 11 0.418000 2.482 34.889 24.646
470 7 8 -0.180000 17.502 36.009 21.005
471 7 12 0.145000 17.181 34.552 20.762
472 7 10 -0.683000 16.796 33.990 22.008
473 7 9 0.060000 17.810 36.487 20.044
474 7 9 0.060000 16.609 36.541 21.410
475 7 9 0.060000 18.331 36.105 21.745
476 7 9 0.060000 16.340 34.449 20.023
477 7 9 0.060000 18.079 34.009 20.361
478 7 11 0.418000 16.594 33.063 21.843
479 8 8 -0.180000 6.857 34.852 9.802
480 8 12 0.145000 7.139 33.387 9.561
481 8 10 -0.683000 8.547 33.235 9.469
482 8 9 0.060000 5.755 35.011 9.880
483 8 9 0.060000 7.345 35.190 10.747
484 8 9 0.060000 7.259 35.467 8.962
485 8 9 0.060000 6.744 32.762 10.408
486 8 9 0.060000 6.656 33.042 8.605
487 8 11 0.418000 8.716 32.300 9.315
488 9 8 -0.180000 11.701 9.360 33.066
489 9 12 0.145000 10.943 9.882 31.868
490 9 10 -0.683000 11.893 10.460 30.985
491 9 9 0.060000 10.985 8.896 33.786
492 9 9 0.060000 12.450 8.596 32.749
493 9 9 0.060000 12.245 10.192 33.574
494 9 9 0.060000 10.400 9.047 31.347
495 9 9 0.060000 10.193 10.658 32.180
496 9 11 0.418000 11.400 10.789 30.225
497 10 8 -0.180000 36.497 25.550 23.389
498 10 12 0.145000 35.213 26.339 23.294
499 10 10 -0.683000 35.218 27.008 22.042
500 10 9 0.060000 36.530 25.008 24.365
501 10 9 0.060000 36.561 24.810 22.556
502 10 9 0.060000 37.378 26.231 23.319
503 10 9 0.060000 34.322 25.657 23.357
504 10 9 0.060000 35.147 27.092 24.127
505 10 11 0.418000 34.397 27.508 21.991
506 11 8 -0.180000 21.251 32.099 15.367
507 11 12 0.145000 20.008 31.338 15.764
508 11 10 -0.683000 20.429 30.161 16.438
509 11 9 0.060000 20.960 33.035 14.832
510 11 9 0.060000 21.850 32.364 16.271
511 11 9 0.060000 21.889 31.477 14.696
512 11 9 0.060000 19.365 31.958 16.447
513 11 9 0.060000 19.405 31.062 14.857
514 11 11 0.418000 19.630 29.684 16.686
515 12 8 -0.180000 31.198 29.846 15.790
516 12 12 0.145000 29.749 29.590 16.137
517 12 10 -0.683000 29.228 30.790 16.690
518 12 9 0.060000 31.644 28.922 15.351
519 12 9 0.060000 31.278 30.679 15.052
520 12 9 0.060000 31.771 30.132 16.704
521 12 9 0.060000 29.165 29.309 15.219
522 12 9 0.060000 29.662 28.757 16.887
523 12 11 0.418000 28.306 30.616 16.907
524 13 8 -0.180000 7.177 36.053 21.201
525 13 12 0.145000 8.306 35.048 21.213
526 13 10 -0.683000 8.044 34.130 22.264
527 13 9 0.060000 7.348 36.794 20.384
528 13 9 0.060000 6.202 35.539 21.032
529 13 9 0.060000 7.125 36.589 22.178
530 13 9 0.060000 8.359 34.499 20.233
531 13 9 0.060000 9.291 35.559 21.391
532 13 11 0.418000 8.768 33.495 22.263
533 14 8 -0.180000 10.408 1.579 31.825
534 14 12 0.145000 10.598 2.932 31.178
535 14 10 -0.683000 11.537 3.650 31.965
536 14 9 0.060000 9.674 0.983 31.233
537 14 9 0.060000 11.378 1.030 31.867
538 14 9 0.060000 10.029 1.698 32.868
539 14 9 0.060000 10.988 2.819 30.130
540 14 9 0.060000 9.625 3.494 31.141
541 14 11 0.418000 11.650 4.509 31.545
542 15 8 -0.180000 7.458 23.756 16.475
543 15 12 0.145000 7.073 22.474 17.176
544 15 10 -0.683000 6.667 21.551 16.176
545 15 9 0.060000 7.785 24.510 17.232
546 15 9 0.060000 8.293 23.571 15.758
547 15 9 0.060000 6.590 24.162 15.904
548 15 9 0.060000 7.946 22.056 17.747
549 15 9 0.060000 6.227 22.653 17.894
550 15 11 0.418000 6.424 20.739 16.633
551 16 8 -0.180000 6.736 9.197 29.500
552 16 12 0.145000 5.992 8.993 30.799
553 16 10 -0.683000 5.397 10.235 31.146
554 16 9 0.060000 7.219 8.239 29.193
555 16 9 0.060000 6.034 9.527 28.698
556 16 9 0.060000 7.520 9.981 29.621
557 16 9 0.060000 5.194 8.210 30.681
558 16 9 0.060000 6.696 8.668 31.613
559 16 11 0.418000 4.926 10.094 31.974
560 17 8 -0.180000 1.164 37.380 1.241
561 17 12 0.145000 1.789 37.002 2.564
562 17 10 -0.683000 0.958 37.524 3.589
563 17 9 0.060000 1.792 36.986 0.406
564 17 9 0.060000 0.137 36.953 1.161
565 17 9 0.060000 1.089 38.490 1.151
566 17 9 0.060000 1.860 35.885 2.664
567 17 9 0.060000 2.822 37.437 2.653
568 17 11 0.418000 1.364 37.278 4.427
569 18 8 -0.180000 30.582 24.462 8.212
570 18 12 0.145000 30.640 23.000 7.834
571 18 10 -0.683000 30.854 22.933 6.433
572 18 9 0.060000 30.414 24.556 9.311
573 18 9 0.060000 31.538 24.970 7.942
574 18 9 0.060000 29.751 24.970 7.668
575 18 9 0.060000 31.481 22.484 8.373
576 18 9 0.060000 29.676 22.484 8.096
577 18 11 0.418000 30.889 21.998 6.203
578 19 8 -0.180000 20.031 32.815 37.613
579 19 12 0.145000 18.934 33.528 36.855
580 19 10 -0.683000 19.461 33.887 35.587
581 19 9 0.060000 19.653 32.516 38.620
582 19 9 0.060000 20.357 31.904 37.058
583 19 9 0.060000 20.915 33.485 37.737
584 19 9 0.060000 18.044 32.855 36.720
585 19 9 0.060000 18.606 34.451 37.406
586 19 11 0.418000 18.755 34.340 35.112
587 20 8 -0.180000 16.989 12.175 35.762
588 20 12 0.145000 16.511 11.972 37.181
589 20 10 -0.683000 15.806 13.143 37.563
590 20 9 0.060000 17.550 11.271 35.425
591 20 9 0.060000 16.121 12.343 35.081
592 20 9 0.060000 17.657 13.066 35.702
593 20 9 0.060000 15.830 11.080 37.247
594 20 9 0.060000 17.382 11.810 37.874
595 20 11 0.418000 15.506 13.004 38.467
596 21 8 -0.180000 11.752 38.471 3.665
597 21 12 0.145000 10.600 37.795 4.372
598 21 10 -0.683000 10.661 36.412 4.056
599 21 9 0.060000 11.737 39.564 3.891
600 21 9 0.060000 12.722 38.039 4.006
601 21 9 0.060000 11.671 38.322 2.562
602 21 9 0.060000 10.680 37.934 5.485
603 21 9 0.060000 9.618 38.220 4.027
604 21 11 0.418000 9.924 35.991 4.510

Bonds

1 1 1 33
2 1 1 41
3 1 1 78
4 1 1 132
5 1 2 34
6 1 2 42
7 1 2 77
8 1 2 131
9 1 3 35
10 1 3 43
11 1 3 74
12 1 3 134
13 1 4 36
14 1 4 44
15 1 4 73
16 1 4 133
17 1 5 37
18 1 5 45
19 1 5 80
20 1 5 136
21 1 6 38
22 1 6 46
23 1 6 79
24 1 6 135
25 1 7 39
26 1 7 47
27 1 7 76
28 1 7 130
29 1 8 40
30 1 8 48
31 1 8 75
32 1 8 129
33 1 9 33
34 1 9 49
35 1 9 68
36 1 9 101
37 1 10 34
38 1 10 50
39 1 10 67
40 1 10 102
41 1 11 39
42 1 11 51
43 1 11 72
44 1 11 97
45 1 12 40
46 1 12 52
47 1 12 71
48 1 12 98
49 1 13 35
50 1 13 53
51 1 13 66
52 1 13 99
53 1 14 36
54 1 14 54
55 1 14 65
56 1 14 100
57 1 15 37
58 1 15 55
59 1 15 70
60 1 15 103
61 1 16 38
62 1 16 56
63 1 16 69
64 1 16 104
65 1 17 33
66 1 17 57
67 1 17 88
68 1 17 112
69 1 18 34
70 1 18 58
71 1 18 87
72 1 18 111
73 1 19 37
74 1 19 59
75 1 19 84
76 1 19 106
77 1 20 38
78 1 20 60
79 1 20 83
80 1 20 105
81 1 21 39
82 1 21 61
83 1 21 86
84 1 21 108
85 1 22 40
86 1 22 62
87 1 22 85
88 1 22 107
89 1 23 35
90 1 23 63
91 1 23 82
92 1 23 110
93 1 24 36
94 1 24 64
95 1 24 81
96 1 24 109
97 1 25 39
98 1 25 89
99 1 25 118
100 1 25 125
101 1 26 40
102 1 26 90
103 1 26 117
104 1 26 126
105 1 27 37
106 1 27 91
107 1 27 114
108 1 27 121
109 1 28 38
110 1 28 92
111 1 28 113
112 1 28 122
113 1 29 35
114 1 29 93
115 1 29 120
116 1 29 123
117 1 30 36
118 1 30 94
119 1 30 119
120 1 30 124
121 1 31 33
122 1 31 95
123 1 31 116
124 1 31 127
125 1 32 34
126 1 32 96
127 1 32 115
128 1 32 128
129 2 41 137
130 2 42 138
131 2 43 139
132 2 44 140
133 2 45 141
134 2 46 142
135 2 47 143
136 2 48 144
137 2 49 145
138 2 50 146
139 2 51 147
140 2 52 148
141 2 53 149
142 2 54 150
143 2 55 151
144 2 56 152
145 2 57 153
146 2 58 154
147 2 59 155
148 2 60 156
149 2 61 157
150 2 62 158
151 2 63 159
152 2 64 160
153 2 65 140
154 2 66 139
155 2 67 138
156 2 68 137
157 2 69 142
158 2 70 141
159 2 71 144
160 2 72 143
161 2 73 160
162 2 74 159
163 2 75 158
164 2 76 157
165 2 77 154
166 2 78 153
167 2 79 156
168 2 80 155
169 2 81 150
170 2 82 149
171 2 83 152
172 2 84 151
173 2 85 148
174 2 86 147
175 2 87 146
176 2 88 145
177 2 89 161
178 2 90 162
179 2 91 163
180 2 92 164
181 2 93 165
182 2 94 166
183 2 95 167
184 2 96 168
185 2 97 169
186 2 98 170
187 2 99 171
188 2 100 172
189 2 101 173
190 2 102 174
191 2 103 175
192 2 104 176
193 2 105 164
194 2 106 163
195 2 107 162
196 2 108 161
197 2 109 166
198 2 110 165
199 2 111 168
200 2 112 167
201 2 113 176
202 2 114 175
203 2 115 174
204 2 116 173
205 2 117 170
206 2 118 169
207 2 119 172
208 2 120 171
209 2 121 177
210 2 122 178
211 2 123 179
212 2 124 180
213 2 125 181
214 2 126 182
215 2 127 183
216 2 128 184
217 2 129 182
218 2 130 181
219 2 131 184
220 2 132 183
221 2 133 180
222 2 134 179
223 2 135 178
224 2 136 177
225 3 137 185
226 3 138 186
227 3 139 187
228 3 140 188
229 3 141 189
230 3 142 190
231 3 143 191
232 3 144 192
233 3 145 193
234 3 146 194
235 3 147 195
236 3 148 196
237 3 149 197
238 3 150 198
239 3 151 199
240 3 152 200
241 3 153 201
242 3 154 202
243 3 155 203
244 3 156 204
245 3 157 205
246 3 158 206
247 3 159 207
248 3 160 208
249 4 161 209
250 4 162 210
251 4 163 211
252 4 164 212
253 4 165 213
254 4 166 214
255 4 167 215
256 4 168 216
257 4 169 217
258 4 170 218
259 4 171 219
260 4 172 220
261 4 173 221
262 4 174 222
263 4 175 223
264 4 176 224
265 4 177 225
266 4 178 226
267 4 179 227
268 4 180 228
269 4 181 229
270 4 182 230
271 4 183 231
272 4 184 232
273 5 185 233
274 5 185 260
275 5 186 234
276 5 186 259
277 5 187 235
278 5 187 258
279 5 188 236
280 5 188 257
281 5 189 237
282 5 189 262
283 5 190 238
284 5 190 261
285 5 191 239
286 5 191 264
287 5 192 240
288 5 192 263
289 5 193 241
290 5 193 280
291 5 194 242
292 5 194 279
293 5 195 243
294 5 195 278
295 5 196 244
296 5 196 277
297 5 197 245
298 5 197 274
299 5 198 246
300 5 198 273
301 5 199 247
302 5 199 276
303 5 200 248
304 5 200 275
305 5 201 249
306 5 201 270
307 5 202 250
308 5 202 269
309 5 203 251
310 5 203 272
311 5 204 252
312 5 204 271
313 5 205 253
314 5 205 268
315 5 206 254
316 5 206 267
317 5 207 255
318 5 207 266
319 5 208 256
320 5 208 265
321 6 209 281
322 6 209 300
323 6 210 282
324 6 210 299
325 6 211 283
326 6 211 298
327 6 212 284
328 6 212 297
329 6 213 285
330 6 213 302
331 6 214 286
332 6 214 301
333 6 215 287
334 6 215 304
335 6 216 288
336 6 216 303
337 6 217 289
338 6 217 310
339 6 218 290
340 6 218 309
341 6 219 291
342 6 219 312
343 6 220 292
344 6 220 311
345 6 221 293
346 6 221 308
347 6 222 294
348 6 222 307
349 6 223 295
350 6 223 306
351 6 224 296
352 6 224 305
353 6 225 313
354 6 225 328
355 6 226 314
356 6 226 327
357 6 227 315
358 6 227 326
359 6 228 316
360 6 228 325
361 6 229 317
362 6 229 322
363 6 230 318
364 6 230 321
365 6 231 319
366 6 231 324
367 6 232 320
368 6 232 323
369 7 233 329
370 7 234 330
371 7 235 331
372 7 236 332
373 7 237 333
374 7 238 334
375 7 239 335
376 7 240 336
377 7 241 337
378 7 242 338
379 7 243 339
380 7 244 340
381 7 245 341
382 7 246 342
383 7 247 343
384 7 248 344
385 7 249 345
386 7 250 346
387 7 251 347
388 7 252 348
389 7 253 349
390 7 254 350
391 7 255 351
392 7 256 352
393 7 257 353
394 7 258 354
395 7 259 355
396 7 260 356
397 7 261 357
398 7 262 358
399 7 263 359
400 7 264 360
401 7 265 361
402 7 266 362
403 7 267 363
404 7 268 364
405 7 269 365
406 7 270 366
407 7 271 367
408 7 272 368
409 7 273 369
410 7 274 370
411 7 275 371
412 7 276 372
413 7 277 373
414 7 278 374
415 7 279 375
416 7 280 376
417 6 281 284
418 8 281 377
419 6 282 283
420 8 282 378
421 8 283 379
422 8 284 380
423 6 285 288
424 8 285 381
425 6 286 287
426 8 286 382
427 8 287 383
428 8 288 384
429 6 289 292
430 8 289 385
431 6 290 291
432 8 290 386
433 8 291 387
434 8 292 388
435 6 293 296
436 8 293 389
437 6 294 295
438 8 294 390
439 8 295 391
440 8 296 392
441 6 297 300
442 8 297 393
443 6 298 299
444 8 298 394
445 8 299 395
446 8 300 396
447 6 301 304
448 8 301 397
449 6 302 303
450 8 302 398
451 8 303 399
452 8 304 400
453 6 305 308
454 8 305 401
455 6 306 307
456 8 306 402
457 8 307 403
458 8 308 404
459 6 309 312
460 8 309 405
461 6 310 311
462 8 310 406
463 8 311 407
464 8 312 408
465 6 313 316
466 8 313 409
467 6 314 315
468 8 314 410
469 8 315 411
470 8 316 412
471 6 317 320
472 8 317 413
473 6 318 319
474 8 318 414
475 8 319 415
476 8 320 416
477 6 321 324
478 8 321 417
479 6 322 323
480 8 322 418
481 8 323 419
482 8 324 420
483 6 325 328
484 8 325 421
485 6 326 327
486 8 326 422
487 8 327 423
488 8 328 424
489 10 425 426
490 9 425 428
491 9 425 429
492 9 425 430
493 13 426 427
494 11 426 431
495 11 426 432
496 12 427 433
497 10 434 435
498 9 434 437
499 9 434 438
500 9 434 439
501 13 435 436
502 11 435 440
503 11 435 441
504 12 436 442
505 10 443 444
506 9 443 446
507 9 443 447
508 9 443 448
509 13 444 445
510 11 444 449
511 11 444 450
512 12 445 451
513 10 452 453
514 9 452 455
515 9 452 456
516 9 452 457
517 13 453 454
518 11 453 458
519 11 453 459
520 12 454 460
521 10 461 462
522 9 461 464
523 9 461 465
524 9 461 466
525 13 462 463
526 11 462 467
527 11 462 468
528 12 463 469
529 10 470 471
530 9 470 473
531 9 470 474
532 9 470 475
533 13 471 472
534 11 471 476
535 11 471 477
536 12 472 478
537 10 479 480
538 9 479 482
539 9 479 483
540 9 479 484
541 13 480 481
542 11 480 485
543 11 480 486
544 12 481 487
545 10 488 489
546 9 488 491
547 9 488 492
548 9 488 493
549 13 489 490
550 11 489 494
551 11 489 495
552 12 490 496
553 10 497 498
554 9 497 500
555 9 497 501
556 9 497 502
557 13 498 499
558 11 498 503
559 11 498 504
560 12 499 505
561 10 506 507
562 9 506 509
563 9 506 510
564 9 506 511
565 13 507 508
566 11 507 512
567 11 507 513
568 12 508 514
569 10 515 516
570 9 515 518
571 9 515 519
572 9 515 520
573 13 516 517
574 11 516 521
575 11 516 522
576 12 517 523
577 10 524 525
578 9 524 527
579 9 524 528
580 9 524 529
581 13 525 526
582 11 525 530
583 11 525 531
584 12 526 532
585 10 533 534
586 9 533 536
587 9 533 537
588 9 533 538
589 13 534 535
590 11 534 539
591 11 534 540
592 12 535 541
593 10 542 543
594 9 542 545
595 9 542 546
596 9 542 547
597 13 543 544
598 11 543 548
599 11 543 549
600 12 544 550
601 10 551 552
602 9 551 554
603 9 551 555
604 9 551 556
605 13 552 553
606 11 552 557
607 11 552 558
608 12 553 559
609 10 560 561
610 9 560 563
611 9 560 564
612 9 560 565
613 13 561 562
614 11 561 566
615 11 561 567
616 12 562 568
617 10 569 570
618 9 569 572
619 9 569 573
620 9 569 574
621 13 570 571
622 11 570 575
623 11 570 576
624 12 571 577
625 10 578 579
626 9 578 581
627 9 578 582
628 9 578 583
629 13 579 580
630 11 579 584
631 11 579 585
632 12 580 586
633 10 587 588
634 9 587 590
635 9 587 591
636 9 587 592
637 13 588 589
638 11 588 593
639 11 588 594
640 12 589 595
641 10 596 597
642 9 596 599
643 9 596 600
644 9 596 601
645 13 597 598
646 11 597 602
647 11 597 603
648 12 598 604

Angles

1 1 33 1 41
2 1 33 1 78
3 1 33 1 132
4 1 41 1 78
5 1 41 1 132
6 1 78 1 132
7 1 34 2 42
8 1 34 2 77
9 1 34 2 131
10 1 42 2 77
11 1 42 2 131
12 1 77 2 131
13 1 35 3 43
14 1 35 3 74
15 1 35 3 134
16 1 43 3 74
17 1 43 3 134
18 1 74 3 134
19 1 36 4 44
20 1 36 4 73
21 1 36 4 133
22 1 44 4 73
23 1 44 4 133
24 1 73 4 133
25 1 37 5 45
26 1 37 5 80
27 1 37 5 136
28 1 45 5 80
29 1 45 5 136
30 1 80 5 136
31 1 38 6 46
32 1 38 6 79
33 1 38 6 135
34 1 46 6 79
35 1 46 6 135
36 1 79 6 135
37 1 39 7 47
38 1 39 7 76
39 1 39 7 130
40 1 47 7 76
41 1 47 7 130
42 1 76 7 130
43 1 40 8 48
44 1 40 8 75
45 1 40 8 129
46 1 48 8 75
47 1 48 8 129
48 1 75 8 129
49 1 33 9 49
50 1 33 9 68
51 1 33 9 101
52 1 49 9 68
53 1 49 9 101
54 1 68 9 101
55 1 34 10 50
56 1 34 10 67
57 1 34 10 102
58 1 50 10 67
59 1 50 10 102
60 1 67 10 102
61 1 39 11 51
62 1 39 11 72
63 1 39 11 97
64 1 51 11 72
65 1 51 11 97
66 1 72 11 97
67 1 40 12 52
68 1 40 12 71
69 1 40 12 98
70 1 52 12 71
71 1 52 12 98
72 1 71 12 98
73 1 35 13 53
74 1 35 13 66
75 1 35 13 99
76 1 53 13 66
77 1 53 13 99
78 1 66 13 99
79 1 36 14 54
80 1 36 14 65
81 1 36 14 100
82 1 54 14 65
83 1 54 14 100
84 1 65 14 100
85 1 37 15 55
86 1 37 15 70
87 1 37 15 103
88 1 55 15 70
89 1 55 15 103
90 1 70 15 103
91 1 38 16 56
92 1 38 16 69
93 1 38 16 104
94 1 56 16 69
95 1 56 16 104
96 1 69 16 104
97 1 33 17 57
98 1 33 17 88
99 1 33 17 112
100 1 57 17 88
101 1 57 17 112
102 1 88 17 112
103 1 34 18 58
104 1 34 18 87
105 1 34 18 111
106 1 58 18 87
107 1 58 18 111
108 1 87 18 111
109 1 37 19 59
110 1 37 19 84
111 1 37 19 106
112 1 59 19 84
113 1 59 19 106
114 1 84 19 106
115 1 38 20 60
116 1 38 20 83
117 1 38 20 105
118 1 60 20 83
119 1 60 20 105
120 1 83 20 105
121 1 39 21 61
122 1 39 21 86
123 1 39 21 108
124 1 61 21 86
125 1 61 21 108
126 1 86 21 108
127 1 40 22 62
128 1 40 22 85
129 1 40 22 107
130 1 62 22 85
131 1 62 22 107
132 1 85 22 107
133 1 35 23 63
134 1 35 23 82
135 1 35 23 110
136 1 63 23 82
137 1 63 23 110
138 1 82 23 110
139 1 36 24 64
140 1 36 24 81
141 1 36 24 109
142 1 64 24 81
143 1 64 24 109
144 1 81 24 109
145 1 39 25 89
146 1 39 25 118
147 1 39 25 125
148 1 89 25 118
149 1 89 25 125
150 1 118 25 125
151 1 40 26 90
152 1 40 26 117
153 1 40 26 126
154 1 90 26 117
155 1 90 26 126
156 1 117 26 126
157 1 37 27 91
158 1 37 27 114
159 1 37 27 121
160 1 91 27 114
161 1 91 27 121
162 1 114 27 121
163 1 38 28 92
164 1 38 28 113
165 1 38 28 122
166 1 92 28 113
167 1 92 28 122
168 1 113 28 122
169 1 35 29 93
170 1 35 29 120
171 1 35 29 123
172 1 93 29 120
173 1 93 29 123
174 1 120 29 123
175 1 36 30 94
176 1 36 30 119
177 1 36 30 124
178 1 94 30 119
179 1 94 30 124
180 1 119 30 124
181 1 33 31 95
182 1 33 31 116
183 1 33 31 127
184 1 95 31 116
185 1 95 31 127
186 1 116 31 127
187 1 34 32 96
188 1 34 32 115
189 1 34 32 128
190 1 96 32 115
191 1 96 32 128
192 1 115 32 128
193 2 1 33 9
194 2 1 33 17
195 2 1 33 31
196 2 9 33 17
197 2 9 33 31
198 2 17 33 31
199 2 2 34 10
200 2 2 34 18
201 2 2 34 32
202 2 10 34 18
203 2 10 34 32
204 2 18 34 32
205 2 3 35 13
206 2 3 35 23
207 2 3 35 29
208 2 13 35 23
209 2 13 35 29
210 2 23 35 29
211 2 4 36 14
212 2 4 36 24
213 2 4 36 30
214 2 14 36 24
215 2 14 36 30
216 2 24 36 30
217 2 5 37 15
218 2 5 37 19
219 2 5 37 27
220 2 15 37 19
221 2 15 37 27
222 2 19 37 27
223 2 6 38 16
224 2 6 38 20
225 2 6 38 28
226 2 16 38 20
227 2 16 38 28
228 2 20 38 28
229 2 7 39 11
230 2 7 39 21
231 2 7 39 25
232 2 11 39 21
233 2 11 39 25
234 2 21 39 25
235 2 8 40 12
236 2 8 40 22
237 2 8 40 26
238 2 12 40 22
239 2 12 40 26
240 2 22 40 26
241 3 1 41 137
242 3 2 42 138
243 3 3 43 139
244 3 4 44 140
245 3 5 45 141
246 3 6 46 142
247 3 7 47 143
248 3 8 48 144
249 3 9 49 145
250 3 10 50 146
251 3 11 51 147
252 3 12 52 148
253 3 13 53 149
254 3 14 54 150
255 3 15 55 151
256 3 16 56 152
257 3 17 57 153
258 3 18 58 154
259 3 19 59 155
260 3 20 60 156
261 3 21 61 157
262 3 22 62 158
263 3 23 63 159
264 3 24 64 160
265 3 14 65 140
266 3 13 66 139
267 3 10 67 138
268 3 9 68 137
269 3 16 69 142
270 3 15 70 141
271 3 12 71 144
272 3 11 72 143
273 3 4 73 160
274 3 3 74 159
275 3 8 75 158
276 3 7 76 157
277 3 2 77 154
278 3 1 78 153
279 3 6 79 156
280 3 5 80 155
281 3 24 81 150
282 3 23 82 149
283 3 20 83 152
284 3 19 84 151
285 3 22 85 148
286 3 21 86 147
287 3 18 87 146
288 3 17 88 145
289 3 25 89 161
290 3 26 90 162
291 3 27 91 163
292 3 28 92 164
293 3 29 93 165
294 3 30 94 166
295 3 31 95 167
296 3 32 96 168
297 3 11 97 169
298 3 12 98 170
299 3 13 99 171
300 3 14 100 172
301 3 9 101 173
302 3 10 102 174
303 3 15 103 175
304 3 16 104 176
305 3 20 105 164
306 3 19 106 163
307 3 22 107 162
308 3 21 108 161
309 3 24 109 166
310 3 23 110 165
311 3 18 111 168
312 3 17 112 167
313 3 28 113 176
314 3 27 114 175
315 3 32 115 174
316 3 31 116 173
317 3 26 117 170
318 3 25 118 169
319 3 30 119 172
320 3 29 120 171
321 3 27 121 177
322 3 28 122 178
323 3 29 123 179
324 3 30 124 180
325 3 25 125 181
326 3 26 126 182
327 3 31 127 183
328 3 32 128 184
329 3 8 129 182
330 3 7 130 181
331 3 2 131 184
332 3 1 132 183
333 3 4 133 180
334 3 3 134 179
335 3 6 135 178
336 3 5 136 177
337 4 41 137 68
338 5 41 137 185
339 5 68 137 185
340 4 42 138 67
341 5 42 138 186
342 5 67 138 186
343 4 43 139 66
344 5 43 139 187
345 5 66 139 187
346 4 44 140 65
347 5 44 140 188
348 5 65 140 188
349 4 45 141 70
350 5 45 141 189
351 5 70 141 189
352 4 46 142 69
353 5 46 142 190
354 5 69 142 190
355 4 47 143 72
356 5 47 143 191
357 5 72 143 191
358 4 48 144 71
359 5 48 144 192
360 5 71 144 192
361 4 49 145 88
362 5 49 145 193
363 5 88 145 193
364 4 50 146 87
365 5 50 146 194
366 5 87 146 194
367 4 51 147 86
368 5 51 147 195
369 5 86 147 195
370 4 52 148 85
371 5 52 148 196
372 5 85 148 196
373 4 53 149 82
374 5 53 149 197
375 5 82 149 197
376 4 54 150 81
377 5 54 150 198
378 5 81 150 198
379 4 55 151 84
380 5 55 151 199
381 5 84 151 199
382 4 56 152 83
383 5 56 152 200
384 5 83 152 200
385 4 57 153 78
386 5 57 153 201
387 5 78 153 201
388 4 58 154 77
389 5 58 154 202
390 5 77 154 202
391 4 59 155 80
392 5 59 155 203
393 5 80 155 203
394 4 60 156 79
395 5 60 156 204
396 5 79 156 204
397 4 61 157 76
398 5 61 157 205
399 5 76 157 205
400 4 62 158 75
401 5 62 158 206
402 5 75 158 206
403 4 63 159 74
404 5 63 159 207
405 5 74 159 207
406 4 64 160 73
407 5 64 160 208
408 5 73 160 208
409 4 89 161 108
410 6 89 161 209
411 6 108 161 209
412 4 90 162 107
413 6 90 162 210
414 6 107 162 210
415 4 91 163 106
416 6 91 163 211
417 6 106 163 211
418 4 92 164 105
419 6 92 164 212
420 6 105 164 212
421 4 93 165 110
422 6 93 165 213
423 6 110 165 213
424 4 94 166 109
425 6 94 166 214
426 6 109 166 214
427 4 95 167 112
428 6 95 167 215
429 6 112 167 215
430 4 96 168 111
431 6 96 168 216
432 6 111 168 216
433 4 97 169 118
434 6 97 169 217
435 6 118 169 217
436 4 98 170 117
437 6 98 170 218
438 6 117 170 218
439 4 99 171 120
440 6 99 171 219
441 6 120 171 219
442 4 100 172 119
443 6 100 172 220
444 6 119 172 220
445 4 101 173 116
446 6 101 173 221
447 6 116 173 221
448 4 102 174 115
449 6 102 174 222
450 6 115 174 222
451 4 103 175 114
452 6 103 175 223
453 6 114 175 223
454 4 104 176 113
455 6 104 176 224
456 6 113 176 224
457 4 121 177 136
458 6 121 177 225
459 6 136 177 225
460 4 122 178 135
461 6 122 178 226
462 6 135 178 226
463 4 123 179 134
464 6 123 179 227
465 6 134 179 227
466 4 124 180 133
467 6 124 180 228
468 6 133 180 228
469 4 125 181 130
470 6 125 181 229
471 6 130 181 229
472 4 126 182 129
473 6 126 182 230
474 6 129 182 230
475 4 127 183 132
476 6 127 183 231
477 6 132 183 231
478 4 128 184 131
479 6 128 184 232
480 6 131 184 232
481 7 137 185 233
482 7 137 185 260
483 8 233 185 260
484 7 138 186 234
485 7 138 186 259
486 8 234 186 259
487 7 139 187 235
488 7 139 187 258
489 8 235 187 258
490 7 140 188 236
491 7 140 188 257
492 8 236 188 257
493 7 141 189 237
494 7 141 189 262
495 8 237 189 262
496 7 142 190 238
497 7 142 190 261
498 8 238 190 261
499 7 143 191 239
500 7 143 191 264
501 8 239 191 264
502 7 144 192 240
503 7 144 192 263
504 8 240 192 263
505 7 145 193 241
506 7 145 193 280
507 8 241 193 280
508 7 146 194 242
509 7 146 194 279
510 8 242 194 279
511 7 147 195 243
512 7 147 195 278
513 8 243 195 278
514 7 148 196 244
515 7 148 196 277
516 8 244 196 277
517 7 149 197 245
518 7 149 197 274
519 8 245 197 274
520 7 150 198 246
521 7 150 198 273
522 8 246 198 273
523 7 151 199 247
524 7 151 199 276
525 8 247 199 276
526 7 152 200 248
527 7 152 200 275
528 8 248 200 275
529 7 153 201 249
530 7 153 201 270
531 8 249 201 270
532 7 154 202 250
533 7 154 202 269
534 8 250 202 269
535 7 155 203 251
536 7 155 203 272
537 8 251 203 272
538 7 156 204 252
539 7 156 204 271
540 8 252 204 271
541 7 157 205 253
542 7 157 205 268
543 8 253 205 268
544 7 158 206 254
545 7 158 206 267
546 8 254 206 267
547 7 159 207 255
548 7 159 207 266
549 8 255 207 266
550 7 160 208 256
551 7 160 208 265
552 8 256 208 265
553 9 161 209 281
554 9 161 209 300
555 10 281 209 300
556 9 162 210 282
557 9 162 210 299
558 10 282 210 299
559 9 163 211 283
560 9 163 211 298
561 10 283 211 298
562 9 164 212 284
563 9 164 212 297
564 10 284 212 297
565 9 165 213 285
566 9 165 213 302
567 10 285 213 302
568 9 166 214 286
569 9 166 214 301
570 10 286 214 301
571 9 167 215 287
572 9 167 215 304
573 10 287 215 304
574 9 168 216 288
575 9 168 216 303
576 10 288 216 303
577 9 169 217 289
578 9 169 217 310
579 10 289 217 310
580 9 170 218 290
581 9 170 218 309
582 10 290 218 309
583 9 171 219 291
584 9 171 219 312
585 10 291 219 312
586 9 172 220 292
587 9 172 220 311
588 10 292 220 311
589 9 173 221 293
590 9 173 221 308
591 10 293 221 308
592 9 174 222 294
593 9 174 222 307
594 10 294 222 307
595 9 175 223 295
596 9 175 223 306
597 10 295 223 306
598 9 176 224 296
599 9 176 224 305
600 10 296 224 305
601 9 177 225 313
602 9 177 225 328
603 10 313 225 328
604 9 178 226 314
605 9 178 226 327
606 10 314 226 327
607 9 179 227 315
608 9 179 227 326
609 10 315 227 326
610 9 180 228 316
611 9 180 228 325
612 10 316 228 325
613 9 181 229 317
614 9 181 229 322
615 10 317 229 322
616 9 182 230 318
617 9 182 230 321
618 10 318 230 321
619 9 183 231 319
620 9 183 231 324
621 10 319 231 324
622 9 184 232 320
623 9 184 232 323
624 10 320 232 323
625 11 185 233 329
626 11 186 234 330
627 11 187 235 331
628 11 188 236 332
629 11 189 237 333
630 11 190 238 334
631 11 191 239 335
632 11 192 240 336
633 11 193 241 337
634 11 194 242 338
635 11 195 243 339
636 11 196 244 340
637 11 197 245 341
638 11 198 246 342
639 11 199 247 343
640 11 200 248 344
641 11 201 249 345
642 11 202 250 346
643 11 203 251 347
644 11 204 252 348
645 11 205 253 349
646 11 206 254 350
647 11 207 255 351
648 11 208 256 352
649 11 188 257 353
650 11 187 258 354
651 11 186 259 355
652 11 185 260 356
653 11 190 261 357
654 11 189 262 358
655 11 192 263 359
656 11 191 264 360
657 11 208 265 361
658 11 207 266 362
659 11 206 267 363
660 11 205 268 364
661 11 202 269 365
662 11 201 270 366
663 11 204 271 367
664 11 203 272 368
665 11 198 273 369
666 11 197 274 370
667 11 200 275 371
668 11 199 276 372
669 11 196 277 373
670 11 195 278 374
671 11 194 279 375
672 11 193 280 376
673 10 209 281 284
674 12 209 281 377
675 12 284 281 377
676 10 210 282 283
677 12 210 282 378
678 12 283 282 378
679 10 211 283 282
680 12 211 283 379
681 12 282 283 379
682 10 212 284 281
683 12 212 284 380
684 12 281 284 380
685 10 213 285 288
686 12 213 285 381
687 12 288 285 381
688 10 214 286 287
689 12 214 286 382
690 12 287 286 382
691 10 215 287 286
692 12 215 287 383
693 12 286 287 383
694 10 216 288 285
695 12 216 288 384
696 12 285 288 384
697 10 217 289 292
698 12 217 289 385
699 12 292 289 385
700 10 218 290 291
701 12 218 290 386
702 12 291 290 386
703 10 219 291 290
704 12 219 291 387
705 12 290 291 387
706 10 220 292 289
707 12 220 292 388
708 12 289 292 388
709 10 221 293 296
710 12 221 293 389
711 12 296 293 389
712 10 222 294 295
713 12 222 294 390
714 12 295 294 390
715 10 223 295 294
716 12 223 295 391
717 12 294 295 391
718 10 224 296 293
719 12 224 296 392
720 12 293 296 392
721 10 212 297 300
722 12 212 297 393
723 12 300 297 393
724 10 211 298 299
725 12 211 298 394
726 12 299 298 394
727 10 210 299 298
728 12 210 299 395
729 12 298 299 395
730 10 209 300 297
731 12 209 300 396
732 12 297 300 396
733 10 214 301 304
734 12 214 301 397
735 12 304 301 397
736 10 213 302 303
737 12 213 302 398
738 12 303 302 398
739 10 216 303 302
740 12 216 303 399
741 12 302 303 399
742 10 215 304 301
743 12 215 304 400
744 12 301 304 400
745 10 224 305 308
746 12 224 305 401
747 12 308 305 401
748 10 223 306 307
749 12 223 306 402
750 12 307 306 402
751 10 222 307 306
752 12 222 307 403
753 12 306 307 403
754 10 221 308 305
755 12 221 308 404
756 12 305 308 404
757 10 218 309 312
758 12 218 309 405
759 12 312 309 405
760 10 217 310 311
761 12 217 310 406
762 12 311 310 406
763 10 220 311 310
764 12 220 311 407
765 12 310 311 407
766 10 219 312 309
767 12 219 312 408
768 12 309 312 408
769 10 225 313 316
770 12 225 313 409
771 12 316 313 409
772 10 226 314 315
773 12 226 314 410
774 12 315 314 410
775 10 227 315 314
776 12 227 315 411
777 12 314 315 411
778 10 228 316 313
779 12 228 316 412
780 12 313 316 412
781 10 229 317 320
782 12 229 317 413
783 12 320 317 413
784 10 230 318 319
785 12 230 318 414
786 12 319 318 414
787 10 231 319 318
788 12 231 319 415
789 12 318 319 415
790 10 232 320 317
791 12 232 320 416
792 12 317 320 416
793 10 230 321 324
794 12 230 321 417
795 12 324 321 417
796 10 229 322 323
797 12 229 322 418
798 12 323 322 418
799 10 232 323 322
800 12 232 323 419
801 12 322 323 419
802 10 231 324 321
803 12 231 324 420
804 12 321 324 420
805 10 228 325 328
806 12 228 325 421
807 12 328 325 421
808 10 227 326 327
809 12 227 326 422
810 12 327 326 422
811 10 226 327 326
812 12 226 327 423
813 12 326 327 423
814 10 225 328 325
815 12 225 328 424
816 12 325 328 424
817 17 425 426 427
818 16 425 426 431
819 16 425 426 432
820 14 426 425 428
821 14 426 425 429
822 14 426 425 430
823 15 426 427 433
824 19 427 426 431
825 19 427 426 432
826 13 428 425 429
827 13 428 425 430
828 13 429 425 430
829 18 431 426 432
830 17 434 435 436
831 16 434 435 440
832 16 434 435 441
833 14 435 434 437
834 14 435 434 438
835 14 435 434 439
836 15 435 436 442
837 19 436 435 440
838 19 436 435 441
839 13 437 434 438
840 13 437 434 439
841 13 438 434 439
842 18 440 435 441
843 17 443 444 445
844 16 443 444 449
845 16 443 444 450
846 14 444 443 446
847 14 444 443 447
848 14 444 443 448
849 15 444 445 451
850 19 445 444 449
851 19 445 444 450
852 13 446 443 447
853 13 446 443 448
854 13 447 443 448
855 18 449 444 450
856 17 452 453 454
857 16 452 453 458
858 16 452 453 459
859 14 453 452 455
860 14 453 452 456
861 14 453 452 457
862 15 453 454 460
863 19 454 453 458
864 19 454 453 459
865 13 455 452 456
866 13 455 452 457
867 13 456 452 457
868 18 458 453 459
869 17 461 462 463
870 16 461 462 467
871 16 461 462 468
872 14 462 461 464
873 14 462 461 465
874 14 462 461 466
875 15 462 463 469
876 19 463 462 467
877 19 463 462 468
878 13 464 461 465
879 13 464 461 466
880 13 465 461 466
881 18 467 462 468
882 17 470 471 472
883 16 470 471 476
884 16 470 471 477
885 14 471 470 473
886 14 471 470 474
887 14 471 470 475
888 15 471 472 478
889 19 472 471 476
890 19 472 471 477
891 13 473 470 474
892 13 473 470 475
893 13 474 470 475
894 18 476 471 477
895 17 479 480 481
896 16 479 480 485
897 16 479 480 486
898 14 480 479 482
899 14 480 479 483
900 14 480 479 484
901 15 480 481 487
902 19 481 480 485
903 19 481 480 486
904 13 482 479 483
905 13 482 479 484
906 13 483 479 484
907 18 485 480 486
908 17 488 489 490
909 16 488 489 494
910 16 488 489 495
911 14 489 488 491
912 14 489 488 492
913 14 489 488 493
914 15 489 490 496
915 19 490 489 494
916 19 490 489 495
917 13 491 488 492
918 13 491 488 493
919 13 492 488 493
920 18 494 489 495
921 17 497 498 499
922 16 497 498 503
923 16 497 498 504
924 14 498 497 500
925 14 498 497 501
926 14 498 497 502
927 15 498 499 505
928 19 499 498 503
929 19 499 498 504
930 13 500 497 501
931 13 500 497 502
932 13 501 497 502
933 18 503 498 504
934 17 506 507 508
935 16 506 507 512
936 16 506 507 513
937 14 507 506 509
938 14 507 506 510
939 14 507 506 511
940 15 507 508 514
941 19 508 507 512
942 19 508 507 513
943 13 509 506 510
944 13 509 506 511
945 13 510 506 511
946 18 512 507 513
947 17 515 516 517
948 16 515 516 521
949 16 515 516 522
950 14 516 515 518
951 14 516 515 519
952 14 516 515 520
953 15 516 517 523
954 19 517 516 521
955 19 517 516 522
956 13 518 515 519
957 13 518 515 520
958 13 519 515 520
959 18 521 516 522
960 17 524 525 526
961 16 524 525 530
962 16 524 525 531
963 14 525 524 527
964 14 525 524 528
965 14 525 524 529
966 15 525 526 532
967 19 526 525 530
968 19 526 525 531
969 13 527 524 528
970 13 527 524 529
971 13 528 524 529
972 18 530 525 531
973 17 533 534 535
974 16 533 534 539
975 16 533 534 540
976 14 534 533 536
977 14 534 533 537
978 14 534 533 538
979 15 534 535 541
980 19 535 534 539
981 19 535 534 540
982 13 536 533 537
983 13 536 533 538
984 13 537 533 538
985 18 539 534 540
986 17 542 543 544
987 16 542 543 548
988 16 542 543 549
989 14 543 542 545
990 14 543 542 546
991 14 543 542 547
992 15 543 544 550
993 19 544 543 548
994 19 544 543 549
995 13 545 542 546
996 13 545 542 547
997 13 546 542 547
998 18 548 543 549
999 17 551 552 553
1000 16 551 552 557
1001 16 551 552 558
1002 14 552 551 554
1003 14 552 551 555
1004 14 552 551 556
1005 15 552 553 559
1006 19 553 552 557
1007 19 553 552 558
1008 13 554 551 555
1009 13 554 551 556
1010 13 555 551 556
1011 18 557 552 558
1012 17 560 561 562
1013 16 560 561 566
1014 16 560 561 567
1015 14 561 560 563
1016 14 561 560 564
1017 14 561 560 565
1018 15 561 562 568
1019 19 562 561 566
1020 19 562 561 567
1021 13 563 560 564
1022 13 563 560 565
1023 13 564 560 565
1024 18 566 561 567
1025 17 569 570 571
1026 16 569 570 575
1027 16 569 570 576
1028 14 570 569 572
1029 14 570 569 573
1030 14 570 569 574
1031 15 570 571 577
1032 19 571 570 575
1033 19 571 570 576
1034 13 572 569 573
1035 13 572 569 574
1036 13 573 569 574
1037 18 575 570 576
1038 17 578 579 580
1039 16 578 579 584
1040 16 578 579 585
1041 14 579 578 581
1042 14 579 578 582
1043 14 579 578 583
1044 15 579 580 586
1045 19 580 579 584
1046 19 580 579 585
1047 13 581 578 582
1048 13 581 578 583
1049 13 582 578 583
1050 18 584 579 585
1051 17 587 588 589
1052 16 587 588 593
1053 16 587 588 594
1054 14 588 587 590
1055 14 588 587 591
1056 14 588 587 592
1057 15 588 589 595
1058 19 589 588 593
1059 19 589 588 594
1060 13 590 587 591
1061 13 590 587 592
1062 13 591 587 592
1063 18 593 588 594
1064 17 596 597 598
1065 16 596 597 602
1066 16 596 597 603
1067 14 597 596 599
1068 14 597 596 600
1069 14 597 596 601
1070 15 597 598 604
1071 19 598 597 602
1072 19 598 597 603
1073 13 599 596 600
1074 13 599 596 601
1075 13 600 596 601
1076 18 602 597 603

Dihedrals

1 1 1 41 137 68
2 1 1 41 137 185
3 1 2 42 138 67
4 1 2 42 138 186
5 1 3 43 139 66
6 1 3 43 139 187
7 1 4 44 140 65
8 1 4 44 140 188
9 1 5 45 141 70
10 1 5 45 141 189
11 1 6 46 142 69
12 1 6 46 142 190
13 1 7 47 143 72
14 1 7 47 143 191
15 1 8 48 144 71
16 1 8 48 144 192
17 1 9 49 145 88
18 1 9 49 145 193
19 1 10 50 146 87
20 1 10 50 146 194
21 1 11 51 147 86
22 1 11 51 147 195
23 1 12 52 148 85
24 1 12 52 148 196
25 1 13 53 149 82
26 1 13 53 149 197
27 1 14 54 150 81
28 1 14 54 150 198
29 1 15 55 151 84
30 1 15 55 151 199
31 1 16 56 152 83
32 1 16 56 152 200
33 1 17 57 153 78
34 1 17 57 153 201
35 1 18 58 154 77
36 1 18 58 154 202
37 1 19 59 155 80
38 1 19 59 155 203
39 1 20 60 156 79
40 1 20 60 156 204
41 1 21 61 157 76
42 1 21 61 157 205
43 1 22 62 158 75
44 1 22 62 158 206
45 1 23 63 159 74
46 1 23 63 159 207
47 1 24 64 160 73
48 1 24 64 160 208
49 1 14 65 140 44
50 1 14 65 140 188
51 1 13 66 139 43
52 1 13 66 139 187
53 1 10 67 138 42
54 1 10 67 138 186
55 1 9 68 137 41
56 1 9 68 137 185
57 1 16 69 142 46
58 1 16 69 142 190
59 1 15 70 141 45
60 1 15 70 141 189
61 1 12 71 144 48
62 1 12 71 144 192
63 1 11 72 143 47
64 1 11 72 143 191
65 1 4 73 160 64
66 1 4 73 160 208
67 1 3 74 159 63
68 1 3 74 159 207
69 1 8 75 158 62
70 1 8 75 158 206
71 1 7 76 157 61
72 1 7 76 157 205
73 1 2 77 154 58
74 1 2 77 154 202
75 1 1 78 153 57
76 1 1 78 153 201
77 1 6 79 156 60
78 1 6 79 156 204
79 1 5 80 155 59
80 1 5 80 155 203
81 1 24 81 150 54
82 1 24 81 150 198
83 1 23 82 149 53
84 1 23 82 149 197
85 1 20 83 152 56
86 1 20 83 152 200
87 1 19 84 151 55
88 1 19 84 151 199
89 1 22 85 148 52
90 1 22 85 148 196
91 1 21 86 147 51
92 1 21 86 147 195
93 1 18 87 146 50
94 1 18 87 146 194
95 1 17 88 145 49
96 1 17 88 145 193
97 1 25 89 161 108
98 1 25 89 161 209
99 1 26 90 162 107
100 1 26 90 162 210
101 1 27 91 163 106
102 1 27 91 163 211
103 1 28 92 164 105
104 1 28 92 164 212
105 1 29 93 165 110
106 1 29 93 165 213
107 1 30 94 166 109
108 1 30 94 166 214
109 1 31 95 167 112
110 1 31 95 167 215
111 1 32 96 168 111
112 1 32 96 168 216
113 1 11 97 169 118
114 1 11 97 169 217
115 1 12 98 170 117
116 1 12 98 170 218
117 1 13 99 171 120
118 1 13 99 171 219
119 1 14 100 172 119
120 1 14 100 172 220
121 1 9 101 173 116
122 1 9 101 173 221
123 1 10 102 174 115
124 1 10 102 174 222
125 1 15 103 175 114
126 1 15 103 175 223
127 1 16 104 176 113
128 1 16 104 176 224
129 1 20 105 164 92
130 1 20 105 164 212
131 1 19 106 163 91
132 1 19 106 163 211
133 1 22 107 162 90
134 1 22 107 162 210
135 1 21 108 161 89
136 1 21 108 161 209
137 1 24 109 166 94
138 1 24 109 166 214
139 1 23 110 165 93
140 1 23 110 165 213
141 1 18 111 168 96
142 1 18 111 168 216
143 1 17 112 167 95
144 1 17 112 167 215
145 1 28 113 176 104
146 1 28 113 176 224
147 1 27 114 175 103
148 1 27 114 175 223
149 1 32 115 174 102
150 1 32 115 174 222
151 1 31 116 173 101
152 1 31 116 173 221
153 1 26 117 170 98
154 1 26 117 170 218
155 1 25 118 169 97
156 1 25 118 169 217
157 1 30 119 172 100
158 1 30 119 172 220
159 1 29 120 171 99
160 1 29 120 171 219
161 1 27 121 177 136
162 1 27 121 177 225
163 1 28 122 178 135
164 1 28 122 178 226
165 1 29 123 179 134
166 1 29 123 179 227
167 1 30 124 180 133
168 1 30 124 180 228
169 1 25 125 181 130
170 1 25 125 181 229
171 1 26 126 182 129
172 1 26 126 182 230
173 1 31 127 183 132
174 1 31 127 183 231
175 1 32 128 184 131
176 1 32 128 184 232
177 1 8 129 182 126
178 1 8 129 182 230
179 1 7 130 181 125
180 1 7 130 181 229
181 1 2 131 184 128
182 1 2 131 184 232
183 1 1 132 183 127
184 1 1 132 183 231
185 1 4 133 180 124
186 1 4 133 180 228
187 1 3 134 179 123
188 1 3 134 179 227
189 1 6 135 178 122
190 1 6 135 178 226
191 1 5 136 177 121
192 1 5 136 177 225
193 2 41 137 185 233
194 2 41 137 185 260
195 2 68 137 185 233
196 2 68 137 185 260
197 2 42 138 186 234
198 2 42 138 186 259
199 2 67 138 186 234
200 2 67 138 186 259
201 2 43 139 187 235
202 2 43 139 187 258
203 2 66 139 187 235
204 2 66 139 187 258
205 2 44 140 188 236
206 2 44 140 188 257
207 2 65 140 188 236
208 2 65 140 188 257
209 2 45 141 189 237
210 2 45 141 189 262
211 2 70 141 189 237
212 2 70 141 189 262
213 2 46 142 190 238
214 2 46 142 190 261
215 2 69 142 190 238
216 2 69 142 190 261
217 2 47 143 191 239
218 2 47 143 191 264
219 2 72 143 191 239
220 2 72 143 191 264
221 2 48 144 192 240
222 2 48 144 192 263
223 2 71 144 192 240
224 2 71 144 192 263
225 2 49 145 193 241
226 2 49 145 193 280
227 2 88 145 193 241
228 2 88 145 193 280
229 2 50 146 194 242
230 2 50 146 194 279
231 2 87 146 194 242
232 2 87 146 194 279
233 2 51 147 195 243
234 2 51 147 195 278
235 2 86 147 195 243
236 2 86 147 195 278
237 2 52 148 196 244
238 2 52 148 196 277
239 2 85 148 196 244
240 2 85 148 196 277
241 2 53 149 197 245
242 2 53 149 197 274
243 2 82 149 197 245
244 2 82 149 197 274
245 2 54 150 198 246
246 2 54 150 198 273
247 2 81 150 198 246
248 2 81 150 198 273
249 2 55 151 199 247
250 2 55 151 199 276
251 2 84 151 199 247
252 2 84 151 199 276
253 2 56 152 200 248
254 2 56 152 200 275
255 2 83 152 200 248
256 2 83 152 200 275
257 2 57 153 201 249
258 2 57 153 201 270
259 2 78 153 201 249
260 2 78 153 201 270
261 2 58 154 202 250
262 2 58 154 202 269
263 2 77 154 202 250
264 2 77 154 202 269
265 2 59 155 203 251
266 2 59 155 203 272
267 2 80 155 203 251
268 2 80 155 203 272
269 2 60 156 204 252
270 2 60 156 204 271
271 2 79 156 204 252
272 2 79 156 204 271
273 2 61 157 205 253
274 2 61 157 205 268
275 2 76 157 205 253
276 2 76 157 205 268
277 2 62 158 206 254
278 2 62 158 206 267
279 2 75 158 206 254
280 2 75 158 206 267
281 2 63 159 207 255
282 2 63 159 207 266
283 2 74 159 207 255
284 2 74 159 207 266
285 2 64 160 208 256
286 2 64 160 208 265
287 2 73 160 208 256
288 2 73 160 208 265
289 2 89 161 209 281
290 2 89 161 209 300
291 2 108 161 209 281
292 2 108 161 209 300
293 2 90 162 210 282
294 2 90 162 210 299
295 2 107 162 210 282
296 2 107 162 210 299
297 2 91 163 211 283
298 2 91 163 211 298
299 2 106 163 211 283
300 2 106 163 211 298
301 2 92 164 212 284
302 2 92 164 212 297
303 2 105 164 212 284
304 2 105 164 212 297
305 2 93 165 213 285
306 2 93 165 213 302
307 2 110 165 213 285
308 2 110 165 213 302
309 2 94 166 214 286
310 2 94 166 214 301
311 2 109 166 214 286
312 2 109 166 214 301
313 2 95 167 215 287
314 2 95 167 215 304
315 2 112 167 215 287
316 2 112 167 215 304
317 2 96 168 216 288
318 2 96 168 216 303
319 2 111 168 216 288
320 2 111 168 216 303
321 2 97 169 217 289
322 2 97 169 217 310
323 2 118 169 217 289
324 2 118 169 217 310
325 2 98 170 218 290
326 2 98 170 218 309
327 2 117 170 218 290
328 2 117 170 218 309
329 2 99 171 219 291
330 2 99 171 219 312
331 2 120 171 219 291
332 2 120 171 219 312
333 2 100 172 220 292
334 2 100 172 220 311
335 2 119 172 220 292
336 2 119 172 220 311
337 2 101 173 221 293
338 2 101 173 221 308
339 2 116 173 221 293
340 2 116 173 221 308
341 2 102 174 222 294
342 2 102 174 222 307
343 2 115 174 222 294
344 2 115 174 222 307
345 2 103 175 223 295
346 2 103 175 223 306
347 2 114 175 223 295
348 2 114 175 223 306
349 2 104 176 224 296
350 2 104 176 224 305
351 2 113 176 224 296
352 2 113 176 224 305
353 2 121 177 225 313
354 2 121 177 225 328
355 2 136 177 225 313
356 2 136 177 225 328
357 2 122 178 226 314
358 2 122 178 226 327
359 2 135 178 226 314
360 2 135 178 226 327
361 2 123 179 227 315
362 2 123 179 227 326
363 2 134 179 227 315
364 2 134 179 227 326
365 2 124 180 228 316
366 2 124 180 228 325
367 2 133 180 228 316
368 2 133 180 228 325
369 2 125 181 229 317
370 2 125 181 229 322
371 2 130 181 229 317
372 2 130 181 229 322
373 2 126 182 230 318
374 2 126 182 230 321
375 2 129 182 230 318
376 2 129 182 230 321
377 2 127 183 231 319
378 2 127 183 231 324
379 2 132 183 231 319
380 2 132 183 231 324
381 2 128 184 232 320
382 2 128 184 232 323
383 2 131 184 232 320
384 2 131 184 232 323
385 3 161 209 281 284
386 3 161 209 281 377
387 3 284 281 209 300
388 3 300 209 281 377
389 3 161 209 300 297
390 3 161 209 300 396
391 3 281 209 300 297
392 3 281 209 300 396
393 3 162 210 282 283
394 3 162 210 282 378
395 3 283 282 210 299
396 3 299 210 282 378
397 3 162 210 299 298
398 3 162 210 299 395
399 3 282 210 299 298
400 3 282 210 299 395
401 3 163 211 283 282
402 3 163 211 283 379
403 3 282 283 211 298
404 3 298 211 283 379
405 3 163 211 298 299
406 3 163 211 298 394
407 3 283 211 298 299
408 3 283 211 298 394
409 3 164 212 284 281
410 3 164 212 284 380
411 3 281 284 212 297
412 3 297 212 284 380
413 3 164 212 297 300
414 3 164 212 297 393
415 3 284 212 297 300
416 3 284 212 297 393
417 3 165 213 285 288
418 3 165 213 285 381
419 3 288 285 213 302
420 3 302 213 285 381
421 3 165 213 302 303
422 3 165 213 302 398
423 3 285 213 302 303
424 3 285 213 302 398
425 3 166 214 286 287
426 3 166 214 286 382
427 3 287 286 214 301
428 3 301 214 286 382
429 3 166 214 301 304
430 3 166 214 301 397
431 3 286 214 301 304
432 3 286 214 301 397
433 3 167 215 287 286
434 3 167 215 287 383
435 3 286 287 215 304
436 3 304 215 287 383
437 3 167 215 304 301
438 3 167 215 304 400
439 3 287 215 304 301
440 3 287 215 304 400
441 3 168 216 288 285
442 3 168 216 288 384
443 3 285 288 216 303
444 3 303 216 288 384
445 3 168 216 303 302
446 3 168 216 303 399
447 3 288 216 303 302
448 3 288 216 303 399
449 3 169 217 289 292
450 3 169 217 289 385
451 3 292 289 217 310
452 3 310 217 289 385
453 3 169 217 310 311
454 3 169 217 310 406
455 3 289 217 310 311
456 3 289 217 310 406
457 3 170 218 290 291
458 3 170 218 290 386
459 3 291 290 218 309
460 3 309 218 290 386
461 3 170 218 309 312
462 3 170 218 309 405
463 3 290 218 309 312
464 3 290 218 309 405
465 3 171 219 291 290
466 3 171 219 291 387
467 3 290 291 219 312
468 3 312 219 291 387
469 3 171 219 312 309
470 3 171 219 312 408
471 3 291 219 312 309
472 3 291 219 312 408
473 3 172 220 292 289
474 3 172 220 292 388
475 3 289 292 220 311
476 3 311 220 292 388
477 3 172 220 311 310
478 3 172 220 311 407
479 3 292 220 311 310
480 3 292 220 311 407
481 3 173 221 293 296
482 3 173 221 293 389
483 3 296 293 221 308
484 3 308 221 293 389
485 3 173 221 308 305
486 3 173 221 308 404
487 3 293 221 308 305
488 3 293 221 308 404
489 3 174 222 294 295
490 3 174 222 294 390
491 3 295 294 222 307
492 3 307 222 294 390
493 3 174 222 307 306
494 3 174 222 307 403
495 3 294 222 307 306
496 3 294 222 307 403
497 3 175 223 295 294
498 3 175 223 295 391
499 3 294 295 223 306
500 3 306 223 295 391
501 3 175 223 306 307
502 3 175 223 306 402
503 3 295 223 306 307
504 3 295 223 306 402
505 3 176 224 296 293
506 3 176 224 296 392
507 3 293 296 224 305
508 3 305 224 296 392
509 3 176 224 305 308
510 3 176 224 305 401
511 3 296 224 305 308
512 3 296 224 305 401
513 3 177 225 313 316
514 3 177 225 313 409
515 3 316 313 225 328
516 3 328 225 313 409
517 3 177 225 328 325
518 3 177 225 328 424
519 3 313 225 328 325
520 3 313 225 328 424
521 3 178 226 314 315
522 3 178 226 314 410
523 3 315 314 226 327
524 3 327 226 314 410
525 3 178 226 327 326
526 3 178 226 327 423
527 3 314 226 327 326
528 3 314 226 327 423
529 3 179 227 315 314
530 3 179 227 315 411
531 3 314 315 227 326
532 3 326 227 315 411
533 3 179 227 326 327
534 3 179 227 326 422
535 3 315 227 326 327
536 3 315 227 326 422
537 3 180 228 316 313
538 3 180 228 316 412
539 3 313 316 228 325
540 3 325 228 316 412
541 3 180 228 325 328
542 3 180 228 325 421
543 3 316 228 325 328
544 3 316 228 325 421
545 3 181 229 317 320
546 3 181 229 317 413
547 3 320 317 229 322
548 3 322 229 317 413
549 3 181 229 322 323
550 3 181 229 322 418
551 3 317 229 322 323
552 3 317 229 322 418
553 3 182 230 318 319
554 3 182 230 318 414
555 3 319 318 230 321
556 3 321 230 318 414
557 3 182 230 321 324
558 3 182 230 321 417
559 3 318 230 321 324
560 3 318 230 321 417
561 3 183 231 319 318
562 3 183 231 319 415
563 3 318 319 231 324
564 3 324 231 319 415
565 3 183 231 324 321
566 3 183 231 324 420
567 3 319 231 324 321
568 3 319 231 324 420
569 3 184 232 320 317
570 3 184 232 320 416
571 3 317 320 232 323
572 3 323 232 320 416
573 3 184 232 323 322
574 3 184 232 323 419
575 3 320 232 323 322
576 3 320 232 323 419
577 3 209 281 284 212
578 3 209 281 284 380
579 3 212 284 281 377
580 3 377 281 284 380
581 3 210 282 283 211
582 3 210 282 283 379
583 3 211 283 282 378
584 3 378 282 283 379
585 3 213 285 288 216
586 3 213 285 288 384
587 3 216 288 285 381
588 3 381 285 288 384
589 3 214 286 287 215
590 3 214 286 287 383
591 3 215 287 286 382
592 3 382 286 287 383
593 3 217 289 292 220
594 3 217 289 292 388
595 3 220 292 289 385
596 3 385 289 292 388
597 3 218 290 291 219
598 3 218 290 291 387
599 3 219 291 290 386
600 3 386 290 291 387
601 3 221 293 296 224
602 3 221 293 296 392
603 3 224 296 293 389
604 3 389 293 296 392
605 3 222 294 295 223
606 3 222 294 295 391
607 3 223 295 294 390
608 3 390 294 295 391
609 3 209 300 297 212
610 3 212 297 300 396
611 3 209 300 297 393
612 3 393 297 300 396
613 3 210 299 298 211
614 3 211 298 299 395
615 3 210 299 298 394
616 3 394 298 299 395
617 3 214 301 304 215
618 3 214 301 304 400
619 3 215 304 301 397
620 3 397 301 304 400
621 3 213 302 303 216
622 3 213 302 303 399
623 3 216 303 302 398
624 3 398 302 303 399
625 3 221 308 305 224
626 3 224 305 308 404
627 3 221 308 305 401
628 3 401 305 308 404
629 3 222 307 306 223
630 3 223 306 307 403
631 3 222 307 306 402
632 3 402 306 307 403
633 3 218 309 312 219
634 3 218 309 312 408
635 3 219 312 309 405
636 3 405 309 312 408
637 3 217 310 311 220
638 3 217 310 311 407
639 3 220 311 310 406
640 3 406 310 311 407
641 3 225 313 316 228
642 3 225 313 316 412
643 3 228 316 313 409
644 3 409 313 316 412
645 3 226 314 315 227
646 3 226 314 315 411
647 3 227 315 314 410
648 3 410 314 315 411
649 3 229 317 320 232
650 3 229 317 320 416
651 3 232 320 317 413
652 3 413 317 320 416
653 3 230 318 319 231
654 3 230 318 319 415
655 3 231 319 318 414
656 3 414 318 319 415
657 3 230 321 324 231
658 3 230 321 324 420
659 3 231 324 321 417
660 3 417 321 324 420
661 3 229 322 323 232
662 3 229 322 323 419
663 3 232 323 322 418
664 3 418 322 323 419
665 3 225 328 325 228
666 3 228 325 328 424
667 3 225 328 325 421
668 3 421 325 328 424
669 3 226 327 326 227
670 3 227 326 327 423
671 3 226 327 326 422
672 3 422 326 327 423
673 6 425 426 427 433
674 5 427 426 425 428
675 5 427 426 425 429
676 5 427 426 425 430
677 4 428 425 426 431
678 4 428 425 426 432
679 4 429 425 426 431
680 4 429 425 426 432
681 4 430 425 426 431
682 4 430 425 426 432
683 7 431 426 427 433
684 7 432 426 427 433
685 6 434 435 436 442
686 5 436 435 434 437
687 5 436 435 434 438
688 5 436 435 434 439
689 4 437 434 435 440
690 4 437 434 435 441
691 4 438 434 435 440
692 4 438 434 435 441
693 4 439 434 435 440
694 4 439 434 435 441
695 7 440 435 436 442
696 7 441 435 436 442
697 6 443 444 445 451
698 5 445 444 443 446
699 5 445 444 443 447
700 5 445 444 443 448
701 4 446 443 444 449
702 4 446 443 444 450
703 4 447 443 444 449
704 4 447 443 444 450
705 4 448 443 444 449
706 4 448 443 444 450
707 7 449 444 445 451
708 7 450 444 445 451
709 6 452 453 454 460
710 5 454 453 452 455
711 5 454 453 452 456
712 5 454 453 452 457
713 4 455 452 453 458
714 4 455 452 453 459
715 4 456 452 453 458
716 4 456 452 453 459
717 4 457 452 453 458
718 4 457 452 453 459
719 7 458 453 454 460
720 7 459 453 454 460
721 6 461 462 463 469
722 5 463 462 461 464
723 5 463 462 461 465
724 5 463 462 461 466
725 4 464 461 462 467
726 4 464 461 462 468
727 4 465 461 462 467
728 4 465 461 462 468
729 4 466 461 462 467
730 4 466 461 462 468
731 7 467 462 463 469
732 7 468 462 463 469
733 6 470 471 472 478
734 5 472 471 470 473
735 5 472 471 470 474
736 5 472 471 470 475
737 4 473 470 471 476
738 4 473 470 471 477
739 4 474 470 471 476
740 4 474 470 471 477
741 4 475 470 471 476
742 4 475 470 471 477
743 7 476 471 472 478
744 7 477 471 472 478
745 6 479 480 481 487
746 5 481 480 479 482
747 5 481 480 479 483
748 5 481 480 479 484
749 4 482 479 480 485
750 4 482 479 480 486
751 4 483 479 480 485
752 4 483 479 480 486
753 4 484 479 480 485
754 4 484 479 480 486
755 7 485 480 481 487
756 7 486 480 481 487
757 6 488 489 490 496
758 5 490 489 488 491
759 5 490 489 488 492
760 5 490 489 488 493
761 4 491 488 489 494
762 4 491 488 489 495
763 4 492 488 489 494
764 4 492 488 489 495
765 4 493 488 489 494
766 4 493 488 489 495
767 7 494 489 490 496
768 7 495 489 490 496
769 6 497 498 499 505
770 5 499 498 497 500
771 5 499 498 497 501
772 5 499 498 497 502
773 4 500 497 498 503
774 4 500 497 498 504
775 4 501 497 498 503
776 4 501 497 498 504
777 4 502 497 498 503
778 4 502 497 498 504
779 7 503 498 499 505
780 7 504 498 499 505
781 6 506 507 508 514
782 5 508 507 506 509
783 5 508 507 506 510
784 5 508 507 506 511
785 4 509 506 507 512
786 4 509 506 507 513
787 4 510 506 507 512
788 4 510 506 507 513
789 4 511 506 507 512
790 4 511 506 507 513
791 7 512 507 508 514
792 7 513 507 508 514
793 6 515 516 517 523
794 5 517 516 515 518
795 5 517 516 515 519
796 5 517 516 515 520
797 4 518 515 516 521
798 4 518 515 516 522
799 4 519 515 516 521
800 4 519 515 516 522
801 4 520 515 516 521
802 4 520 515 516 522
803 7 521 516 517 523
804 7 522 516 517 523
805 6 524 525 526 532
806 5 526 525 524 527
807 5 526 525 524 528
808 5 526 525 524 529
809 4 527 524 525 530
810 4 527 524 525 531
811 4 528 524 525 530
812 4 528 524 525 531
813 4 529 524 525 530
814 4 529 524 525 531
815 7 530 525 526 532
816 7 531 525 526 532
817 6 533 534 535 541
818 5 535 534 533 536
819 5 535 534 533 537
820 5 535 534 533 538
821 4 536 533 534 539
822 4 536 533 534 540
823 4 537 533 534 539
824 4 537 533 534 540
825 4 538 533 534 539
826 4 538 533 534 540
827 7 539 534 535 541
828 7 540 534 535 541
829 6 542 543 544 550
830 5 544 543 542 545
831 5 544 543 542 546
832 5 544 543 542 547
833 4 545 542 543 548
834 4 545 542 543 549
835 4 546 542 543 548
836 4 546 542 543 549
837 4 547 542 543 548
838 4 547 542 543 549
839 7 548 543 544 550
840 7 549 543 544 550
841 6 551 552 553 559
842 5 553 552 551 554
843 5 553 552 551 555
844 5 553 552 551 556
845 4 554 551 552 557
846 4 554 551 552 558
847 4 555 551 552 557
848 4 555 551 552 558
849 4 556 551 552 557
850 4 556 551 552 558
851 7 557 552 553 559
852 7 558 552 553 559
853 6 560 561 562 568
854 5 562 561 560 563
855 5 562 561 560 564
856 5 562 561 560 565
857 4 563 560 561 566
858 4 563 560 561 567
859 4 564 560 561 566
860 4 564 560 561 567
861 4 565 560 561 566
862 4 565 560 561 567
863 7 566 561 562 568
864 7 567 561 562 568
865 6 569 570 571 577
866 5 571 570 569 572
867 5 571 570 569 573
868 5 571 570 569 574
869 4 572 569 570 575
870 4 572 569 570 576
871 4 573 569 570 575
872 4 573 569 570 576
873 4 574 569 570 575
874 4 574 569 570 576
875 7 575 570 571 577
876 7 576 570 571 577
877 6 578 579 580 586
878 5 580 579 578 581
879 5 580 579 578 582
880 5 580 579 578 583
881 4 581 578 579 584
882 4 581 578 579 585
883 4 582 578 579 584
884 4 582 578 579 585
885 4 583 578 579 584
886 4 583 578 579 585
887 7 584 579 580 586
888 7 585 579 580 586
889 6 587 588 589 595
890 5 589 588 587 590
891 5 589 588 587 591
892 5 589 588 587 592
893 4 590 587 588 593
894 4 590 587 588 594
895 4 591 587 588 593
896 4 591 587 588 594
897 4 592 587 588 593
898 4 592 587 588 594
899 7 593 588 589 595
900 7 594 588 589 595
901 6 596 597 598 604
902 5 598 597 596 599
903 5 598 597 596 600
904 5 598 597 596 601
905 4 599 596 597 602
906 4 599 596 597 603
907 4 600 596 597 602
908 4 600 596 597 603
909 4 601 596 597 602
910 4 601 596 597 603
911 7 602 597 598 604
912 7 603 597 598 604

Impropers

1 1 137 41 68 185
2 1 137 41 185 68
3 1 138 42 67 186
4 1 138 42 186 67
5 1 139 43 66 187
6 1 139 43 187 66
7 1 140 44 65 188
8 1 140 44 188 65
9 1 141 45 70 189
10 1 141 45 189 70
11 1 142 46 69 190
12 1 142 46 190 69
13 1 143 47 72 191
14 1 143 47 191 72
15 1 144 48 71 192
16 1 144 48 192 71
17 1 145 49 88 193
18 1 145 49 193 88
19 1 146 50 87 194
20 1 146 50 194 87
21 1 147 51 86 195
22 1 147 51 195 86
23 1 148 52 85 196
24 1 148 52 196 85
25 1 149 53 82 197
26 1 149 53 197 82
27 1 150 54 81 198
28 1 150 54 198 81
29 1 151 55 84 199
30 1 151 55 199 84
31 1 152 56 83 200
32 1 152 56 200 83
33 1 153 57 78 201
34 1 153 57 201 78
35 1 154 58 77 202
36 1 154 58 202 77
37 1 155 59 80 203
38 1 155 59 203 80
39 1 156 60 79 204
40 1 156 60 204 79
41 1 157 61 76 205
42 1 157 61 205 76
43 1 158 62 75 206
44 1 158 62 206 75
45 1 159 63 74 207
46 1 159 63 207 74
47 1 160 64 73 208
48 1 160 64 208 73
49 1 161 89 108 209
50 1 161 89 209 108
51 1 162 90 107 210
52 1 162 90 210 107
53 1 163 91 106 211
54 1 163 91 211 106
55 1 164 92 105 212
56 1 164 92 212 105
57 1 165 93 110 213
58 1 165 93 213 110
59 1 166 94 109 214
60 1 166 94 214 109
61 1 167 95 112 215
62 1 167 95 215 112
63 1 168 96 111 216
64 1 168 96 216 111
65 1 169 97 118 217
66 1 169 97 217 118
67 1 170 98 117 218
68 1 170 98 218 117
69 1 171 99 120 219
70 1 171 99 219 120
71 1 172 100 119 220
72 1 172 100 220 119
73 1 173 101 116 221
74 1 173 101 221 116
75 1 174 102 115 222
76 1 174 102 222 115
77 1 175 103 114 223
78 1 175 103 223 114
79 1 176 104 113 224
80 1 176 104 224 113
81 1 177 121 136 225
82 1 177 121 225 136
83 1 178 122 135 226
84 1 178 122 226 135
85 1 179 123 134 227
86 1 179 123 227 134
87 1 180 124 133 228
88 1 180 124 228 133
89 1 181 125 130 229
90 1 181 125 229 130
91 1 182 126 129 230
92 1 182 126 230 129
93 1 183 127 132 231
94 1 183 127 231 132
95 1 184 128 131 232
96 1 184 128 232 131
97 1 185 137 233 260
98 1 185 137 260 233
99 1 186 138 234 259
100 1 186 138 259 234
101 1 187 139 235 258
102 1 187 139 258 235
103 1 188 140 236 257
104 1 188 140 257 236
105 1 189 141 237 262
106 1 189 141 262 237
107 1 190 142 238 261
108 1 190 142 261 238
109 1 191 143 239 264
110 1 191 143 264 239
111 1 192 144 240 263
112 1 192 144 263 240
113 1 193 145 241 280
114 1 193 145 280 241
115 1 194 146 242 279
116 1 194 146 279 242
117 1 195 147 243 278
118 1 195 147 278 243
119 1 196 148 244 277
120 1 196 148 277 244
121 1 197 149 245 274
122 1 197 149 274 245
123 1 198 150 246 273
124 1 198 150 273 246
125 1 199 151 247 276
126 1 199 151 276 247
127 1 200 152 248 275
128 1 200 152 275 248
129 1 201 153 249 270
130 1 201 153 270 249
131 1 202 154 250 269
132 1 202 154 269 250
133 1 203 155 251 272
134 1 203 155 272 251
135 1 204 156 252 271
136 1 204 156 271 252
137 1 205 157 253 268
138 1 205 157 268 253
139 1 206 158 254 267
140 1 206 158 267 254
141 1 207 159 255 266
142 1 207 159 266 255
143 1 208 160 256 265
144 1 208 160 265 256
145 1 209 161 281 300
146 1 209 161 300 281
147 1 210 162 282 299
148 1 210 162 299 282
149 1 211 163 283 298
150 1 211 163 298 283
151 1 212 164 284 297
152 1 212 164 297 284
153 1 213 165 285 302
154 1 213 165 302 285
155 1 214 166 286 301
156 1 214 166 301 286
157 1 215 167 287 304
158 1 215 167 304 287
159 1 216 168 288 303
160 1 216 168 303 288
161 1 217 169 289 310
162 1 217 169 310 289
163 1 218 170 290 309
164 1 218 170 309 290
165 1 219 171 291 312
166 1 219 171 312 291
167 1 220 172 292 311
168 1 220 172 311 292
169 1 221 173 293 308
170 1 221 173 308 293
171 1 222 174 294 307
172 1 222 174 307 294
173 1 223 175 295 306
174 1 223 175 306 295
175 1 224 176 296 305
176 1 224 176 305 296
177 1 225 177 313 328
178 1 225 177 328 313
179 1 226 178 314 327
180 1 226 178 327 314
181 1 227 179 315 326
182 1 227 179 326 315
183 1 228 180 316 325
184 1 228 180 325 316
185 1 229 181 317 322
186 1 229 181 322 317
187 1 230 182 318 321
188 1 230 182 321 318
189 1 231 183 319 324
190 1 231 183 324 319
191 1 232 184 320 323
192 1 232 184 323 320
193 1 281 209 284 377
194 1 281 209 377 284
195 1 282 210 283 378
196 1 282 210 378 283
197 1 283 211 282 379
198 1 283 211 379 282
199 1 284 212 281 380
200 1 284 212 380 281
201 1 285 213 288 381
202 1 285 213 381 288
203 1 286 214 287 382
204 1 286 214 382 287
205 1 287 215 286 383
206 1 287 215 383 286
207 1 288 216 285 384
208 1 288 216 384 285
209 1 289 217 292 385
210 1 289 217 385 292
211 1 290 218 291 386
212 1 290 218 386 291
213 1 291 219 290 387
214 1 291 219 387 290
215 1 292 220 289 388
216 1 292 220 388 289
217 1 293 221 296 389
218 1 293 221 389 296
219 1 294 222 295 390
220 1 294 222 390 295
221 1 295 223 294 391
222 1 295 223 391 294
223 1 296 224 293 392
224 1 296 224 392 293
225 1 297 212 300 393
226 1 297 212 393 300
227 1 298 211 299 394
228 1 298 211 394 299
229 1 299 210 298 395
230 1 299 210 395 298
231 1 300 209 297 396
232 1 300 209 396 297
233 1 301 214 304 397
234 1 301 214 397 304
235 1 302 213 303 398
236 1 302 213 398 303
237 1 303 216 302 399
238 1 303 216 399 302
239 1 304 215 301 400
240 1 304 215 400 301
241 1 305 224 308 401
242 1 305 224 401 308
243 1 306 223 307 402
244 1 306 223 402 307
245 1 307 222 306 403
246 1 307 222 403 306
247 1 308 221 305 404
248 1 308 221 404 305
249 1 309 218 312 405
250 1 309 218 405 312
251 1 310 217 311 406
252 1 310 217 406 311
253 1 311 220 310 407
254 1 311 220 407 310
255 1 312 219 309 408
256 1 312 219 408 309
257 1 313 225 316 409
258 1 313 225 409 316
259 1 314 226 315 410
260 1 314 226 410 315
261 1 315 227 314 411
262 1 315 227 411 314
263 1 316 228 313 412
264 1 316 228 412 313
265 1 317 229 320 413
266 1 317 229 413 320
267 1 318 230 319 414
268 1 318 230 414 319
269 1 319 231 318 415
270 1 319 231 415 318
271 1 320 232 317 416
272 1 320 232 416 317
273 1 321 230 324 417
274 1 321 230 417 324
275 1 322 229 323 418
276 1 322 229 418 323
277 1 323 232 322 419
278 1 323 232 419 322
279 1 324 231 321 420
280 1 324 231 420 321
281 1 325 228 328 421
282 1 325 228 421 328
283 1 326 227 327 422
284 1 326 227 422 327
285 1 327 226 326 423
286 1 327 226 423 326
287 1 328 225 325 424
288 1 328 225 424 325

