LAMMPS (7 Feb 2024 - Update 1)
  using 1 OpenMP thread(s) per MPI task
echo both

# Define temperature parameters
variable	temperature equal 300.0 # Simulation temperature in Kelvin
variable	tempDamp equal 100.0 # Relaxation time of themostat - 0.1 ps

# Define pressure parameters
variable	pressure equal 1.0 # Pressure in bars
variable	pressureDamp equal 500.0 # Relaxation time of the barostat 0.5 ps

# Define random seed
variable	seed equal 98475

# Simulation setup
units		real
atom_style	full
variable	out_freq equal 1000 # Thermo output frequency
variable	out_freq2 equal 10 # Dump output frequency
neigh_modify    delay 10 every 1 # Neighbor list setup

### TIP4P/Ew and NaCl Potential Parameters ###
pair_style      hybrid lj/cut/coul/long 5.0 buck/coul/long 5.0 # This cutoff is too short for a real calculation
# Load configuration
read_data       data.nacl
Reading data file ...
  orthogonal box = (0 0 0) to (15.5 15.5 15.5)
  2 by 2 by 3 MPI processor grid
  reading atoms ...
  320 atoms
  scanning bonds ...
  2 = max bonds/atom
  scanning angles ...
  1 = max angles/atom
  reading bonds ...
  212 bonds
  reading angles ...
  106 angles
Finding 1-2 1-3 1-4 neighbors ...
  special bond factors lj:    0        0        0       
  special bond factors coul:  0        0        0       
     2 = max # of 1-2 neighbors
     1 = max # of 1-3 neighbors
     1 = max # of 1-4 neighbors
     2 = max # of special neighbors
  special bonds CPU = 0.001 seconds
  read_data CPU = 0.022 seconds

# create groups ###

group hy type 1
212 atoms in group hy
group ox type 2
106 atoms in group ox
group na type 3
1 atoms in group na
group cl type 4
1 atoms in group cl

## set charges - beside manually ###
set group ox charge -0.830
Setting atom values ...
  106 settings made for charge
set group hy charge 0.415
Setting atom values ...
  212 settings made for charge
set group na charge 1.0
Setting atom values ...
  1 settings made for charge
set group cl charge -1.0
Setting atom values ...
  1 settings made for charge

# Water TIP3P
pair_coeff      1 1 lj/cut/coul/long 0.0 0.0
pair_coeff      2 2 lj/cut/coul/long 0.102 3.188
pair_coeff      1 2 lj/cut/coul/long 0.0 0.0
# Mixed from Pettitt 86
pair_coeff      2 3 lj/cut/coul/long 0.1338549 2.72
pair_coeff      1 3 lj/cut/coul/long 0.1338549 1.31
pair_coeff      2 4 lj/cut/coul/long 0.359825 3.55
pair_coeff      1 4 lj/cut/coul/long 0.359825 2.14
# NaCl from Pettitt 86
pair_coeff      3 4 buck/coul/long 28929.93 0.317 161.2016
pair_coeff      3 3 buck/coul/long 9772.847 0.317 24.18024 # This is not used
pair_coeff      4 4 buck/coul/long 80312.94 0.317 1683.981 # This is not used
bond_style      harmonic
bond_coeff      1 450 0.9572
angle_style     harmonic
angle_coeff     1 55 104.52
kspace_style    pppm 1e-2 # This value is too large for a real calculation

timestep	2.0 # Timestep 2 fs
thermo          ${out_freq}
thermo          1000
thermo_style 	custom step temp pe ke etotal press lx ly lz xy xz yz
restart 	${out_freq} restart restart2
restart 	1000 restart restart2

velocity        all create ${temperature} ${seed} dist gaussian
velocity        all create 300 ${seed} dist gaussian
velocity        all create 300 98475 dist gaussian
# Perform minimization
minimize 1.0e-2 1.0e-3 100 1000
Switching to 'neigh_modify every 1 delay 0 check yes' setting during minimization
PPPM initialization ...
  using 12-bit tables for long-range coulomb (src/lammps-7Feb2024/src/kspace.cpp:342)
  G vector (1/distance) = 0.40023582
  grid = 8 8 8
  stencil order = 5
  estimated absolute RMS force accuracy = 0.7823365
  estimated relative force accuracy = 0.0023559831
  using double precision MKL FFT
  3d grid and FFT values/proc = 1089 48
Generated 0 of 6 mixed pair_coeff terms from geometric mixing rule
Neighbor list info ...
  update: every = 1 steps, delay = 0 steps, check = yes
  max neighbors/atom: 2000, page size: 100000
  master list distance cutoff = 7
  ghost atom cutoff = 7
  binsize = 3.5, bins = 5 5 5
  3 neighbor lists, perpetual/occasional/extra = 3 0 0
  (1) pair lj/cut/coul/long, perpetual, skip from (3)
      attributes: half, newton on
      pair build: skip
      stencil: none
      bin: none
  (2) pair buck/coul/long, perpetual, skip from (3)
      attributes: half, newton on
      pair build: skip
      stencil: none
      bin: none
  (3) neighbor class addition, perpetual
      attributes: half, newton on
      pair build: half/bin/newton
      stencil: half/bin/3d
      bin: standard
Per MPI rank memory allocation (min/avg/max) = 9.416 | 9.418 | 9.42 Mbytes
   Step          Temp          PotEng         KinEng         TotEng         Press            Lx             Ly             Lz             Xy             Xz             Yz      
         0   300            92556250       285.26352      92556536       6.8175783e+09  15.5           15.5           15.5           0              0              0            
        27   300           -1095.9406      285.26352     -810.67712     -2918.7587      15.5           15.5           15.5           0              0              0            
Loop time of 0.0112612 on 12 procs for 27 steps with 320 atoms

77.8% CPU use with 12 MPI tasks x 1 OpenMP threads

Minimization stats:
  Stopping criterion = energy tolerance
  Energy initial, next-to-last, final = 
       92556250.257805     -1089.35799481  -1095.94064566941
  Force two-norm initial, final = 1.8953089e+09 108.40957
  Force max component initial, final = 1.2163668e+09 24.333575
  Final line search alpha, max atom move = 0.0033714434 0.08203927
  Iterations, force evaluations = 27 35

MPI task timing breakdown:
Section |  min time  |  avg time  |  max time  |%varavg| %total
---------------------------------------------------------------
Pair    | 0.00051023 | 0.00076991 | 0.0011071  |   0.0 |  6.84
Bond    | 1.9064e-05 | 2.7073e-05 | 3.4287e-05 |   0.0 |  0.24
Kspace  | 0.0039929  | 0.0043171  | 0.0045625  |   0.2 | 38.34
Neigh   | 0.00017238 | 0.00018592 | 0.00020093 |   0.0 |  1.65
Comm    | 0.0010607  | 0.0011309  | 0.0011995  |   0.1 | 10.04
Output  | 0          | 0          | 0          |   0.0 |  0.00
Modify  | 0          | 0          | 0          |   0.0 |  0.00
Other   |            | 0.00483    |            |       | 42.89

Nlocal:        26.6667 ave          32 max          19 min
Histogram: 1 0 2 1 0 1 1 2 2 2
Nghost:        766.167 ave         805 max         727 min
Histogram: 2 0 0 2 3 1 1 1 1 1
Neighs:              0 ave           0 max           0 min
Histogram: 12 0 0 0 0 0 0 0 0 0

Total # of neighbors = 0
Ave neighs/atom = 0
Ave special neighs/atom = 1.9875
Neighbor list builds = 3
Dangerous builds = 0

# Write trajectory to file
dump           	myDump all dcd ${out_freq2} out.dcd
dump           	myDump all dcd 10 out.dcd
#dump_modify    	myDump unwrap yes

# Start simulation

reset_timestep 	0


fix umb all plumed plumedfile plumed_5.dat outfile plumed.out
fix             1 all temp/csvr ${temperature} ${temperature} ${tempDamp} ${seed} # Bussi's thermostat
fix             1 all temp/csvr 300 ${temperature} ${tempDamp} ${seed} 
fix             1 all temp/csvr 300 300 ${tempDamp} ${seed} 
fix             1 all temp/csvr 300 300 100 ${seed} 
fix             1 all temp/csvr 300 300 100 98475 
fix             2 all shake 0.0001 20 0 t 1 2 # Shake algorithm
Finding SHAKE clusters ...
       0 = # of size 2 clusters
     106 = # of size 3 clusters
       0 = # of size 4 clusters
       0 = # of frozen angles
  find clusters CPU = 0.000 seconds
#fix             3 all nve
fix             3 all nph iso ${pressure} ${pressure} ${pressureDamp} # Isotropic barostat
fix             3 all nph iso 1 ${pressure} ${pressureDamp} 
fix             3 all nph iso 1 1 ${pressureDamp} 
fix             3 all nph iso 1 1 500 
fix 		4 all momentum 10000 linear 1 1 1 # Set total linear momentum to zero every 10000 steps

run 1000000
PPPM initialization ...
  using 12-bit tables for long-range coulomb (src/lammps-7Feb2024/src/kspace.cpp:342)
  G vector (1/distance) = 0.40023582
  grid = 8 8 8
  stencil order = 5
  estimated absolute RMS force accuracy = 0.7823365
  estimated relative force accuracy = 0.0023559831
  using double precision MKL FFT
  3d grid and FFT values/proc = 1089 48
Generated 0 of 6 mixed pair_coeff terms from geometric mixing rule
Per MPI rank memory allocation (min/avg/max) = 9.186 | 9.188 | 9.19 Mbytes
   Step          Temp          PotEng         KinEng         TotEng         Press            Lx             Ly             Lz             Xy             Xz             Yz      
         0   385.36913     -1127.6681      285.26352     -842.40459     -1482.7069      15.5           15.5           15.5           0              0              0            
      1000   289.41476     -1167.4792      214.23479     -953.24438     -1092.9882      15.278491      15.278491      15.278491      0              0              0            
      2000   310.10068     -1223.6954      229.54722     -994.14816      537.24188      14.973991      14.973991      14.973991      0              0              0            
      3000   305.08644     -1213.2302      225.83551     -987.39466      1781.8789      14.937976      14.937976      14.937976      0              0              0            
      4000   317.67835     -1180.5361      235.15647     -945.37961     -1631.7175      15.023777      15.023777      15.023777      0              0              0            
      5000   302.3227      -1197.7466      223.78969     -973.95691      257.26472      15.020039      15.020039      15.020039      0              0              0            
      6000   309.04808     -1201.8551      228.76805     -973.08702      755.96826      15.062029      15.062029      15.062029      0              0              0            
      7000   300.72783     -1221.8626      222.60911     -999.25354     -462.7615       15.012332      15.012332      15.012332      0              0              0            
      8000   285.62808     -1188.6019      211.43176     -977.17011     -1323.3846      15.017168      15.017168      15.017168      0              0              0            
      9000   280.99336     -1233.5883      208.00098     -1025.5874      185.76006      14.933618      14.933618      14.933618      0              0              0            
     10000   331.51483     -1226.4035      245.39871     -981.0048      -837.89238      15.044275      15.044275      15.044275      0              0              0            
     11000   308.80756     -1221.4938      228.59001     -992.90379     -286.62948      14.944373      14.944373      14.944373      0              0              0            
     12000   292.72674     -1191.5449      216.68643     -974.85844      800.77507      14.936924      14.936924      14.936924      0              0              0            
     13000   301.63571     -1208.4618      223.28116     -985.18062      1629.4103      14.644743      14.644743      14.644743      0              0              0            
     14000   293.61013     -1233.1918      217.34035     -1015.8514      840.12969      14.719221      14.719221      14.719221      0              0              0            
     15000   283.10657     -1216.3111      209.56525     -1006.7458      977.886        15.031136      15.031136      15.031136      0              0              0            
     16000   298.88592     -1205.1061      221.24567     -983.86046      2159.1257      14.942457      14.942457      14.942457      0              0              0            
     17000   316.47625     -1188.9828      234.26664     -954.71617     -17.652124      14.985675      14.985675      14.985675      0              0              0            
     18000   306.10585     -1211.9389      226.59011     -985.34881      967.34132      15.060232      15.060232      15.060232      0              0              0            
     19000   307.50502     -1206.3013      227.62582     -978.67545     -741.38429      15.010754      15.010754      15.010754      0              0              0            
     20000   319.81948     -1201.4814      236.74141     -964.74001      1507.2809      14.845852      14.845852      14.845852      0              0              0            
     21000   306.8357      -1201.3561      227.13037     -974.2257      -443.01446      15.056251      15.056251      15.056251      0              0              0            
     22000   331.20362     -1198.1522      245.16834     -952.98386      611.41958      14.835163      14.835163      14.835163      0              0              0            
     23000   299.54204     -1218.5164      221.73135     -996.78503     -713.673        14.942055      14.942055      14.942055      0              0              0            
     24000   308.9372      -1180.3918      228.68597     -951.70583     -1816.2115      15.117709      15.117709      15.117709      0              0              0            
     25000   307.90666     -1206.9981      227.92313     -979.07493     -304.92262      14.962161      14.962161      14.962161      0              0              0            
     26000   312.28043     -1227.1815      231.16075     -996.02077      490.19481      14.711589      14.711589      14.711589      0              0              0            
     27000   295.91629     -1192.169       219.04745     -973.12154      6.8226847      14.972379      14.972379      14.972379      0              0              0            
     28000   289.72557     -1196.8752      214.46486     -982.41033      850.35867      14.980501      14.980501      14.980501      0              0              0            
     29000   308.02746     -1226.9149      228.01255     -998.90231      3849.5885      14.846385      14.846385      14.846385      0              0              0            
     30000   296.5057      -1233.4947      219.48375     -1014.011       467.88141      14.842619      14.842619      14.842619      0              0              0            
     31000   281.70894     -1193.0909      208.53068     -984.56023      1327.8246      15.000739      15.000739      15.000739      0              0              0            
     32000   295.41493     -1195.3187      218.67632     -976.64233      146.28138      15.167701      15.167701      15.167701      0              0              0            
     33000   304.02946     -1198.4356      225.05309     -973.38253      1359.2962      14.93401       14.93401       14.93401       0              0              0            
     34000   290.56609     -1203.8347      215.08704     -988.74769     -1519.6573      15.298178      15.298178      15.298178      0              0              0            
     35000   302.05891     -1204.2926      223.59442     -980.69819      1314.1215      15.307324      15.307324      15.307324      0              0              0            
     36000   289.58245     -1195.2832      214.35892     -980.92427      1339.6059      15.211773      15.211773      15.211773      0              0              0            
     37000   300.67881     -1187.3139      222.57283     -964.74105     -848.20562      15.131119      15.131119      15.131119      0              0              0            
     38000   317.54211     -1210.8448      235.05562     -975.78915      257.75092      14.93094       14.93094       14.93094       0              0              0            
     39000   325.34355     -1203.7344      240.83052     -962.90385      1156.4658      14.924704      14.924704      14.924704      0              0              0            
     40000   283.77401     -1222.4037      210.05931     -1012.3444     -834.42717      14.83028       14.83028       14.83028       0              0              0            
     41000   304.12916     -1190.9158      225.1269      -965.78889      290.17142      15.112561      15.112561      15.112561      0              0              0            
     42000   305.56488     -1227.2742      226.18967     -1001.0845     -10.050834      14.91001       14.91001       14.91001       0              0              0            
     43000   303.79489     -1196.5016      224.87946     -971.62216     -524.06578      15.365448      15.365448      15.365448      0              0              0            
     44000   300.82631     -1186.767       222.68201     -964.08497      1030.2764      14.919394      14.919394      14.919394      0              0              0            
     45000   317.12263     -1224.1248      234.74511     -989.37969     -121.79261      14.993492      14.993492      14.993492      0              0              0            
     46000   285.105       -1220.3667      211.04456     -1009.3221     -962.99571      14.921262      14.921262      14.921262      0              0              0            
     47000   314.26707     -1222.0513      232.63132     -989.42         409.82973      14.892383      14.892383      14.892383      0              0              0            
     48000   312.54678     -1194.8633      231.35791     -963.50539     -167.6478       14.958934      14.958934      14.958934      0              0              0            
     49000   285.45326     -1178.6367      211.30235     -967.33438     -865.23241      15.070917      15.070917      15.070917      0              0              0            
     50000   310.26736     -1242.2895      229.6706      -1012.6189      590.4396       14.966784      14.966784      14.966784      0              0              0            
     51000   283.89296     -1213.2374      210.14736     -1003.09       -1704.5485      14.826541      14.826541      14.826541      0              0              0            
     52000   291.34685     -1204.2635      215.66499     -988.59848     -824.98729      14.984086      14.984086      14.984086      0              0              0            
     53000   316.73777     -1224.1229      234.46022     -989.66269     -612.92794      15.113272      15.113272      15.113272      0              0              0            
     54000   314.35353     -1209.7085      232.69533     -977.0132      -243.59411      15.05899       15.05899       15.05899       0              0              0            
     55000   315.48641     -1211.2238      233.53392     -977.68985      2097.0846      14.833621      14.833621      14.833621      0              0              0            
     56000   289.53302     -1176.7633      214.32233     -962.44099     -1140.981       15.211795      15.211795      15.211795      0              0              0            
     57000   321.36679     -1222.5872      237.88678     -984.70043     -2871.2814      15.063349      15.063349      15.063349      0              0              0            
     58000   293.77087     -1224.4951      217.45933     -1007.0357     -1401.7066      14.76523       14.76523       14.76523       0              0              0            
     59000   279.43331     -1225.5881      206.84618     -1018.7419      1104.9918      14.656564      14.656564      14.656564      0              0              0            
     60000   333.95484     -1191.1569      247.2049      -943.95196      2482.2872      14.680302      14.680302      14.680302      0              0              0            
     61000   282.57856     -1207.3019      209.17439     -998.12754     -128.98725      14.90322       14.90322       14.90322       0              0              0            
     62000   313.89396     -1210.4293      232.35513     -978.07413     -1562.4922      14.86588       14.86588       14.86588       0              0              0            
     63000   294.4088      -1221.0461      217.93155     -1003.1146     -537.49402      14.815298      14.815298      14.815298      0              0              0            
     64000   295.24456     -1214.7073      218.55021     -996.1571       1095.2325      14.932799      14.932799      14.932799      0              0              0            
     65000   300.30365     -1215.5768      222.29512     -993.28166      1547.9173      14.894325      14.894325      14.894325      0              0              0            
     66000   297.36187     -1197.2984      220.11752     -977.18092      1620.4157      14.885585      14.885585      14.885585      0              0              0            
     67000   294.61205     -1161.9974      218.08201     -943.91535      2123.618       14.970234      14.970234      14.970234      0              0              0            
     68000   288.11146     -1209.0721      213.27004     -995.80206      1717.9852      15.037354      15.037354      15.037354      0              0              0            
     69000   266.66813     -1211.3377      197.39695     -1013.9408     -1221.6779      15.198246      15.198246      15.198246      0              0              0            
     70000   314.86786     -1205.1918      233.07605     -972.11574      2007.0996      14.752776      14.752776      14.752776      0              0              0            
     71000   316.59853     -1226.7003      234.35715     -992.34318     -1751.5697      14.697482      14.697482      14.697482      0              0              0            
     72000   286.06631     -1193.6358      211.75615     -981.87969     -124.97195      14.93666       14.93666       14.93666       0              0              0            
     73000   275.87736     -1177.3293      204.21394     -973.11534      3235.7618      14.927295      14.927295      14.927295      0              0              0            
     74000   292.9318      -1210.5648      216.83822     -993.72657      383.22428      15.013791      15.013791      15.013791      0              0              0            
     75000   273.60406     -1181.0414      202.53116     -978.51022     -1741.0651      15.351361      15.351361      15.351361      0              0              0            
     76000   320.57494     -1184.4986      237.30063     -947.19801     -1000.6396      15.203142      15.203142      15.203142      0              0              0            
     77000   305.05218     -1195.8158      225.81014     -970.00569      309.6805       14.937567      14.937567      14.937567      0              0              0            
     78000   320.15585     -1219.0294      236.99041     -982.03899      1292.6427      14.851677      14.851677      14.851677      0              0              0            
     79000   298.64343     -1205.9149      221.06617     -984.84877      345.62579      14.936515      14.936515      14.936515      0              0              0            
     80000   301.22263     -1223.4456      222.97538     -1000.4702      938.97255      14.775301      14.775301      14.775301      0              0              0            
     81000   290.13526     -1222.8853      214.76813     -1008.1171     -1187.6046      14.923473      14.923473      14.923473      0              0              0            
     82000   281.4137      -1195.2454      208.31213     -986.93328      1680.7447      14.934176      14.934176      14.934176      0              0              0            
     83000   291.25843     -1228.7311      215.59954     -1013.1316     -625.48407      15.18853       15.18853       15.18853       0              0              0            
     84000   315.72491     -1210.1747      233.71047     -976.46421     -1903.3404      14.868251      14.868251      14.868251      0              0              0            
     85000   314.64315     -1187.725       232.90972     -954.81528     -375.52378      15.016418      15.016418      15.016418      0              0              0            
     86000   278.27415     -1185.8934      205.98813     -979.90529     -369.52158      15.004252      15.004252      15.004252      0              0              0            
     87000   294.80852     -1206.3389      218.22744     -988.11146     -1717.5928      14.875742      14.875742      14.875742      0              0              0            
     88000   275.28623     -1184.6166      203.77636     -980.84026     -424.37239      15.31539       15.31539       15.31539       0              0              0            
     89000   309.19933     -1193.2593      228.88001     -964.37926      626.55467      15.288878      15.288878      15.288878      0              0              0            
     90000   283.85267     -1169.2718      210.11754     -959.1543       368.16632      14.879222      14.879222      14.879222      0              0              0            
     91000   303.238       -1162.1102      224.46723     -937.64295     -154.38824      15.114731      15.114731      15.114731      0              0              0            
     92000   311.51446     -1178.083       230.59375     -947.48926     -2072.6178      14.99913       14.99913       14.99913       0              0              0            
     93000   305.4694      -1179.2963      226.11898     -953.17729      147.01355      14.988059      14.988059      14.988059      0              0              0            
     94000   308.14226     -1188.5486      228.09753     -960.45111     -301.71383      15.07661       15.07661       15.07661       0              0              0            
     95000   309.87911     -1226.374       229.38321     -996.99084      311.40923      14.887363      14.887363      14.887363      0              0              0            
     96000   279.96525     -1194.8264      207.23994     -987.58649     -2142.3591      15.113035      15.113035      15.113035      0              0              0            
     97000   278.95822     -1205.3711      206.4945      -998.87662     -589.29927      15.043774      15.043774      15.043774      0              0              0            
     98000   290.92534     -1233.9761      215.35297     -1018.6232      1511.691       14.774082      14.774082      14.774082      0              0              0            
     99000   316.54484     -1218.9377      234.31741     -984.62027      1603.6106      14.832801      14.832801      14.832801      0              0              0            
    100000   309.26375     -1221.3942      228.9277      -992.46655      820.62868      14.848525      14.848525      14.848525      0              0              0            
    101000   308.54545     -1213.3223      228.39599     -984.9263      -113.31022      14.970646      14.970646      14.970646      0              0              0            
    102000   295.76826     -1196.6638      218.93787     -977.72589     -789.77199      15.037203      15.037203      15.037203      0              0              0            
    103000   287.79732     -1205.3367      213.0375      -992.2992       1365.2921      14.929303      14.929303      14.929303      0              0              0            
    104000   291.76472     -1198.8261      215.97431     -982.85183     -485.54372      15.099183      15.099183      15.099183      0              0              0            
    105000   294.05633     -1194.986       217.67064     -977.31535     -1174.29        14.903136      14.903136      14.903136      0              0              0            
    106000   347.61117     -1216.5357      257.31378     -959.22193      1422.5071      14.857535      14.857535      14.857535      0              0              0            
    107000   304.31546     -1210.853       225.2648      -985.58816      652.10815      15.152302      15.152302      15.152302      0              0              0            
    108000   323.73184     -1226.4312      239.63748     -986.79372     -1349.5282      15.135177      15.135177      15.135177      0              0              0            
    109000   307.31034     -1203.5575      227.48171     -976.07581      96.637295      15.061397      15.061397      15.061397      0              0              0            
    110000   289.83592     -1175.8653      214.54655     -961.31874      1187.4612      14.99854       14.99854       14.99854       0              0              0            
    111000   292.78906     -1198.4527      216.73256     -981.72013     -388.21483      15.115935      15.115935      15.115935      0              0              0            
    112000   295.63678     -1220.3458      218.84054     -1001.5052     -332.99285      14.853058      14.853058      14.853058      0              0              0            
    113000   278.54982     -1201.2438      206.19219     -995.0516       860.23281      14.856258      14.856258      14.856258      0              0              0            
    114000   291.3417      -1249.5383      215.66117     -1033.8771     -253.44036      14.722178      14.722178      14.722178      0              0              0            
    115000   301.79134     -1231.9821      223.39636     -1008.5857     -40.59035       14.818486      14.818486      14.818486      0              0              0            
    116000   277.00342     -1199.7343      205.04749     -994.6868       1269.3349      14.877191      14.877191      14.877191      0              0              0            
    117000   322.7167      -1173.1596      238.88603     -934.27353      1292.0287      15.03039       15.03039       15.03039       0              0              0            
    118000   313.33268     -1190.677       231.93966     -958.73735      1695.0485      15.004239      15.004239      15.004239      0              0              0            
    119000   296.29774     -1225.5203      219.32981     -1006.1905      454.88513      14.759543      14.759543      14.759543      0              0              0            
    120000   309.669       -1186.6724      229.22767     -957.4447       1498.4114      14.895457      14.895457      14.895457      0              0              0            
    121000   275.7479      -1194.4847      204.11811     -990.3666       902.83264      14.905489      14.905489      14.905489      0              0              0            
    122000   317.84929     -1215.4681      235.28301     -980.18514     -97.659675      14.689458      14.689458      14.689458      0              0              0            
    123000   302.73008     -1242.3339      224.09125     -1018.2426      3231.1671      14.704791      14.704791      14.704791      0              0              0            
    124000   292.91299     -1220.791       216.8243      -1003.9667     -1759.2769      15.200633      15.200633      15.200633      0              0              0            
    125000   321.65948     -1209.6861      238.10344     -971.58263      632.85317      14.758828      14.758828      14.758828      0              0              0            
    126000   338.46695     -1226.0161      250.54491     -975.47117      488.33767      14.929965      14.929965      14.929965      0              0              0            
    127000   311.63735     -1207.7833      230.68472     -977.09861      382.99811      14.828048      14.828048      14.828048      0              0              0            
    128000   282.67055     -1191.6963      209.24249     -982.45383      996.8151       14.907425      14.907425      14.907425      0              0              0            
    129000   287.3839      -1222.9651      212.73148     -1010.2336     -93.728894      15.020307      15.020307      15.020307      0              0              0            
    130000   274.54598     -1223.9058      203.2284      -1020.6774     -95.438379      14.995827      14.995827      14.995827      0              0              0            
    131000   317.6468      -1179.0885      235.13312     -943.95536      416.56749      15.073515      15.073515      15.073515      0              0              0            
    132000   282.34479     -1207.6244      209.00135     -998.62308      526.30475      14.952464      14.952464      14.952464      0              0              0            
    133000   307.50813     -1181.3055      227.62812     -953.67735     -727.24842      15.109895      15.109895      15.109895      0              0              0            
    134000   311.73212     -1195.7006      230.75487     -964.94578      153.65273      15.112883      15.112883      15.112883      0              0              0            
    135000   282.33551     -1208.4563      208.99449     -999.46185     -1526.0455      14.90422       14.90422       14.90422       0              0              0            
    136000   306.25375     -1192.0395      226.69959     -965.33988      259.46409      14.998417      14.998417      14.998417      0              0              0            
    137000   308.66581     -1210.1222      228.48508     -981.63711     -851.53263      15.080399      15.080399      15.080399      0              0              0            
    138000   309.41595     -1204.8811      229.04036     -975.84077      351.35165      14.86804       14.86804       14.86804       0              0              0            
    139000   286.08205     -1217.9487      211.7678      -1006.1809      605.36269      14.78404       14.78404       14.78404       0              0              0            
    140000   298.17881     -1204.6081      220.72224     -983.88584      677.33493      14.896255      14.896255      14.896255      0              0              0            
    141000   315.0814      -1220.2049      233.23412     -986.97082      1652.5094      14.812977      14.812977      14.812977      0              0              0            
    142000   305.81688     -1192.843       226.37621     -966.4668       219.5603       15.078281      15.078281      15.078281      0              0              0            
    143000   303.47919     -1215.0494      224.64576     -990.40362     -1270.6202      15.013696      15.013696      15.013696      0              0              0            
    144000   296.48646     -1206.5639      219.4695      -987.09441     -694.78025      15.142695      15.142695      15.142695      0              0              0            
    145000   287.96915     -1225.5549      213.1647      -1012.3902      2538.0269      14.94699       14.94699       14.94699       0              0              0            
    146000   261.34786     -1210.1015      193.4587      -1016.6428      40.513077      15.017826      15.017826      15.017826      0              0              0            
    147000   329.20042     -1179.1041      243.68551     -935.41855     -1914.2061      15.218901      15.218901      15.218901      0              0              0            
    148000   304.34428     -1212.487       225.28614     -987.20089     -294.7601       15.190262      15.190262      15.190262      0              0              0            
    149000   313.97195     -1235.7914      232.41287     -1003.3785     -437.78452      14.603532      14.603532      14.603532      0              0              0            
    150000   302.90896     -1203.7355      224.22366     -979.51185     -161.32599      14.92539       14.92539       14.92539       0              0              0            
    151000   298.06835     -1230.3893      220.64048     -1009.7488     -1131.0741      14.846844      14.846844      14.846844      0              0              0            
    152000   279.42155     -1218.9611      206.83747     -1012.1237      212.33044      14.783568      14.783568      14.783568      0              0              0            
    153000   272.56132     -1225.1673      201.75929     -1023.408      -1114.5282      14.755791      14.755791      14.755791      0              0              0            
    154000   318.62254     -1223.3475      235.8554      -987.4921       1973.7186      14.809264      14.809264      14.809264      0              0              0            
    155000   309.10264     -1190.6311      228.80844     -961.8227      -1063.3579      14.996974      14.996974      14.996974      0              0              0            
    156000   318.69373     -1206.0193      235.90809     -970.11123      1271.3937      14.737018      14.737018      14.737018      0              0              0            
    157000   324.77943     -1172.4305      240.41294     -932.01756     -534.67931      15.24203       15.24203       15.24203       0              0              0            
    158000   284.80148     -1205.8101      210.81988     -994.99018      1823.8955      14.900785      14.900785      14.900785      0              0              0            
    159000   290.92223     -1204.0836      215.35067     -988.73288     -1063.9868      14.994313      14.994313      14.994313      0              0              0            
    160000   275.45051     -1217.798       203.89797     -1013.9001     -717.51219      14.955911      14.955911      14.955911      0              0              0            
    161000   334.12694     -1205.944       247.33229     -958.61169     -1811.1708      15.218785      15.218785      15.218785      0              0              0            
    162000   307.98822     -1192.2285      227.9835      -964.24501      1923.0406      14.939556      14.939556      14.939556      0              0              0            
    163000   324.47619     -1208.0589      240.18847     -967.8704       3624.6789      14.994233      14.994233      14.994233      0              0              0            
    164000   278.46424     -1185.7709      206.12884     -979.64209     -947.31412      15.013682      15.013682      15.013682      0              0              0            
    165000   298.51213     -1202.9994      220.96897     -982.03045      880.33289      14.920876      14.920876      14.920876      0              0              0            
    166000   277.0142      -1202.7897      205.05547     -997.73423      1391.7553      15.044651      15.044651      15.044651      0              0              0            
    167000   295.12853     -1213.8862      218.46432     -995.42184      2382.5697      14.754571      14.754571      14.754571      0              0              0            
    168000   299.34702     -1184.069       221.58699     -962.48196     -126.16833      15.110956      15.110956      15.110956      0              0              0            
    169000   305.03438     -1223.0533      225.79697     -997.25637     -1302.7998      15.013629      15.013629      15.013629      0              0              0            
    170000   317.96565     -1218.6192      235.36915     -983.25004      72.335026      14.939587      14.939587      14.939587      0              0              0            
    171000   290.74936     -1181.3601      215.22271     -966.13734      684.65079      15.104019      15.104019      15.104019      0              0              0            
    172000   294.70692     -1191.7728      218.15223     -973.62059     -491.97682      15.052007      15.052007      15.052007      0              0              0            
    173000   308.64662     -1220.3994      228.47087     -991.92856      2900.1834      15.187254      15.187254      15.187254      0              0              0            
    174000   250.57452     -1195.2144      185.4839      -1009.7305     -1855.4406      15.170091      15.170091      15.170091      0              0              0            
    175000   314.02955     -1195.5112      232.45551     -963.05566     -297.52582      15.122921      15.122921      15.122921      0              0              0            
    176000   328.51379     -1227.5125      243.17724     -984.33531      108.58471      15.07947       15.07947       15.07947       0              0              0            
    177000   305.2071      -1218.731       225.92482     -992.80619      328.32556      15.06218       15.06218       15.06218       0              0              0            
    178000   314.03403     -1218.5412      232.45882     -986.08239      1197.5236      15.038901      15.038901      15.038901      0              0              0            
    179000   330.14684     -1212.7556      244.38608     -968.36951     -778.62306      14.946266      14.946266      14.946266      0              0              0            
    180000   288.54433     -1175.7492      213.59047     -962.15871      1804.6329      15.223541      15.223541      15.223541      0              0              0            
    181000   271.61004     -1199.5904      201.05512     -998.53527     -468.52359      15.066331      15.066331      15.066331      0              0              0            
    182000   331.46609     -1221.6361      245.36264     -976.27347      1020.324       15.046744      15.046744      15.046744      0              0              0            
    183000   274.59465     -1208.0201      203.26443     -1004.7557      1477.7061      14.779245      14.779245      14.779245      0              0              0            
    184000   291.95861     -1219.2556      216.11784     -1003.1378      468.10404      14.856805      14.856805      14.856805      0              0              0            
    185000   289.86432     -1203.8646      214.56757     -989.29699     -1167.1049      15.298095      15.298095      15.298095      0              0              0            
    186000   279.46051     -1249.968       206.86631     -1043.1017     -1336.1783      14.857512      14.857512      14.857512      0              0              0            
    187000   311.32605     -1203.7107      230.45428     -973.25644     -896.45959      15.087914      15.087914      15.087914      0              0              0            
    188000   328.22828     -1194.6152      242.9659      -951.64927     -275.7518       14.948115      14.948115      14.948115      0              0              0            
    189000   292.18853     -1203.69        216.28803     -987.402        580.26119      14.845375      14.845375      14.845375      0              0              0            
    190000   305.28887     -1197.4007      225.98535     -971.41535     -683.15948      15.0118        15.0118        15.0118        0              0              0            
    191000   305.58369     -1169.2546      226.20359     -943.05099     -973.89303      15.206136      15.206136      15.206136      0              0              0            
    192000   296.60015     -1183.3177      219.55366     -963.764        1809.14        15.000611      15.000611      15.000611      0              0              0            
    193000   286.2236      -1172.0361      211.87258     -960.16356      472.37198      15.099065      15.099065      15.099065      0              0              0            
    194000   306.39767     -1213.571       226.80612     -986.76492      160.28617      14.985004      14.985004      14.985004      0              0              0            
    195000   271.1436      -1172.9265      200.70984     -972.21661      792.29592      15.104799      15.104799      15.104799      0              0              0            
    196000   308.02144     -1170.7445      228.0081      -942.73645     -1690.9316      15.464955      15.464955      15.464955      0              0              0            
    197000   284.35397     -1171.4035      210.48862     -960.91487     -647.25618      15.201166      15.201166      15.201166      0              0              0            
    198000   318.38363     -1228.9623      235.67854     -993.28374      1508.4696      14.769235      14.769235      14.769235      0              0              0            
    199000   289.08912     -1181.1301      213.99374     -967.1364       774.802        14.712433      14.712433      14.712433      0              0              0            
    200000   316.86102     -1234.6947      234.55146     -1000.1433     -676.72141      15.06316       15.06316       15.06316       0              0              0            
    201000   295.30846     -1222.57        218.59751     -1003.9725      72.681511      14.87347       14.87347       14.87347       0              0              0            
    202000   310.75354     -1201.8866      230.03049     -971.85612     -541.88174      14.847763      14.847763      14.847763      0              0              0            
    203000   281.9082      -1192.0948      208.67818     -983.41667      1775.1076      14.98314       14.98314       14.98314       0              0              0            
    204000   299.75817     -1205.1861      221.89134     -983.29474     -1697.3085      14.830337      14.830337      14.830337      0              0              0            
    205000   296.02657     -1240.5354      219.12908     -1021.4063     -1148.5641      14.844373      14.844373      14.844373      0              0              0            
    206000   315.21344     -1179.5274      233.33186     -946.19557      319.9739       15.06404       15.06404       15.06404       0              0              0            
    207000   325.14786     -1194.0977      240.68566     -953.41207     -439.15673      14.994658      14.994658      14.994658      0              0              0            
    208000   272.20941     -1213.8123      201.4988      -1012.3135     -1232.7084      15.029609      15.029609      15.029609      0              0              0            
    209000   294.17757     -1218.7139      217.76038     -1000.9536      1230.7872      15.13483       15.13483       15.13483       0              0              0            
    210000   284.24967     -1183.5086      210.41141     -973.09722     -1484.2288      15.418653      15.418653      15.418653      0              0              0            
    211000   296.06921     -1200.3234      219.16064     -981.16278     -291.1476       15.263255      15.263255      15.263255      0              0              0            
    212000   316.76509     -1181.4283      234.48044     -946.94785      2902.3679      15.030689      15.030689      15.030689      0              0              0            
    213000   314.36837     -1148.2973      232.70631     -915.59097     -1149.3916      15.370515      15.370515      15.370515      0              0              0            
    214000   305.70712     -1178.0665      226.29496     -951.77151      608.55021      14.874923      14.874923      14.874923      0              0              0            
    215000   298.55088     -1188.2298      220.99766     -967.23214      948.85336      15.003774      15.003774      15.003774      0              0              0            
    216000   289.4697      -1200.9765      214.27546     -986.701        933.05701      14.888966      14.888966      14.888966      0              0              0            
    217000   299.03982     -1213.2648      221.35959     -991.90521     -225.51752      15.201771      15.201771      15.201771      0              0              0            
    218000   284.00452     -1209.7041      210.22994     -999.47412     -424.979        14.991322      14.991322      14.991322      0              0              0            
    219000   289.34564     -1233.4651      214.18363     -1019.2815     -106.46048      15.195285      15.195285      15.195285      0              0              0            
    220000   301.33993     -1185.7594      223.06221     -962.69718      318.83624      15.42534       15.42534       15.42534       0              0              0            
    221000   297.87136     -1164.1759      220.49465     -943.68128      100.92416      15.231562      15.231562      15.231562      0              0              0            
    222000   294.22703     -1187.7154      217.797       -969.91838     -207.07573      14.876425      14.876425      14.876425      0              0              0            
    223000   335.07858     -1180.6431      248.03672     -932.60636      1149.5639      14.630742      14.630742      14.630742      0              0              0            
    224000   292.02566     -1234.6272      216.16747     -1018.4597     -1562.5354      14.829796      14.829796      14.829796      0              0              0            
    225000   299.99745     -1193.8168      222.06846     -971.74829      853.72214      14.815831      14.815831      14.815831      0              0              0            
    226000   328.75604     -1195.3185      243.35656     -951.96192     -883.52856      15.372965      15.372965      15.372965      0              0              0            
    227000   281.76626     -1184.0421      208.57311     -975.46895     -28.470341      15.118339      15.118339      15.118339      0              0              0            
    228000   299.35774     -1207.0629      221.59493     -985.46795     -1029.2167      15.030525      15.030525      15.030525      0              0              0            
    229000   306.04079     -1192.0032      226.54195     -965.46123      1823.2667      14.77214       14.77214       14.77214       0              0              0            
    230000   311.01818     -1238.1076      230.22638     -1007.8812     -1920.9647      14.992645      14.992645      14.992645      0              0              0            
    231000   309.90689     -1229.358       229.40377     -999.95428     -2096.1782      15.038826      15.038826      15.038826      0              0              0            
    232000   323.32495     -1249.4779      239.33628     -1010.1416     -3976.6791      15.317687      15.317687      15.317687      0              0              0            
    233000   289.07693     -1198.6515      213.98472     -984.66678     -1803.5259      15.147842      15.147842      15.147842      0              0              0            
    234000   284.70876     -1182.2154      210.75125     -971.4642      -1862.2288      15.246092      15.246092      15.246092      0              0              0            
    235000   305.33219     -1220.4296      226.01742     -994.41215      2200.7132      14.928471      14.928471      14.928471      0              0              0            
    236000   309.8         -1198.3002      229.32465     -968.97556     -155.05368      15.003604      15.003604      15.003604      0              0              0            
    237000   274.99443     -1189.2558      203.56036     -985.69545      996.45433      14.900365      14.900365      14.900365      0              0              0            
    238000   301.08901     -1182.7793      222.87647     -959.90288      353.04694      15.10851       15.10851       15.10851       0              0              0            
    239000   298.92475     -1184.9107      221.27441     -963.6363      -826.68087      15.210061      15.210061      15.210061      0              0              0            
    240000   292.81276     -1228.1327      216.75011     -1011.3826     -175.5916       14.781247      14.781247      14.781247      0              0              0            
    241000   285.42309     -1205.7581      211.28002     -994.4781       179.43563      14.958324      14.958324      14.958324      0              0              0            
    242000   286.45849     -1216.4417      212.04646     -1004.3953      2326.2045      14.731488      14.731488      14.731488      0              0              0            
    243000   310.88429     -1211.5269      230.12728     -981.39967     -52.294959      14.668224      14.668224      14.668224      0              0              0            
    244000   290.25153     -1200.1656      214.8542      -985.31137      4092.0795      14.749541      14.749541      14.749541      0              0              0            
    245000   298.80547     -1198.3479      221.18611     -977.16183      211.30352      15.001345      15.001345      15.001345      0              0              0            
    246000   297.63651     -1201.8599      220.32081     -981.5391      -517.22593      15.149324      15.149324      15.149324      0              0              0            
    247000   289.04473     -1223.1702      213.96088     -1009.2093      45.197122      14.828341      14.828341      14.828341      0              0              0            
    248000   281.10064     -1222.8324      208.08039     -1014.752      -95.776798      15.078959      15.078959      15.078959      0              0              0            
    249000   318.07313     -1216.8511      235.44871     -981.40237      2531.5496      14.908141      14.908141      14.908141      0              0              0            
    250000   285.82284     -1200.6682      211.57592     -989.09232     -249.09771      14.701072      14.701072      14.701072      0              0              0            
    251000   303.16798     -1192.2601      224.4154      -967.8447      -572.63864      14.806458      14.806458      14.806458      0              0              0            
    252000   313.30276     -1224.1251      231.91751     -992.20758      978.18168      15.077977      15.077977      15.077977      0              0              0            
    253000   296.72523     -1234.7425      219.64625     -1015.0962      1552.0397      14.828726      14.828726      14.828726      0              0              0            
    254000   290.38899     -1179.4936      214.95594     -964.53761      623.32244      15.040506      15.040506      15.040506      0              0              0            
    255000   299.21164     -1195.3835      221.48678     -973.89672      1243.5341      15.095023      15.095023      15.095023      0              0              0            
    256000   308.26304     -1207.2133      228.18694     -979.02634     -207.01215      14.874449      14.874449      14.874449      0              0              0            
    257000   314.65527     -1196.8548      232.91868     -963.93613      942.73906      14.830864      14.830864      14.830864      0              0              0            
    258000   300.78124     -1217.0522      222.64865     -994.40352     -552.07623      14.939921      14.939921      14.939921      0              0              0            
    259000   288.85081     -1202.1451      213.81734     -988.32778      1530.1471      15.060584      15.060584      15.060584      0              0              0            
    260000   256.93862     -1196.1008      190.19483     -1005.9059     -1830.0828      15.110103      15.110103      15.110103      0              0              0            
    261000   279.82333     -1185.6426      207.13488     -978.50767      3.1459419      15.25032       15.25032       15.25032       0              0              0            
    262000   281.61983     -1197.5896      208.46471     -989.12493      72.76305       15.070208      15.070208      15.070208      0              0              0            
    263000   299.83926     -1201.8682      221.95136     -979.91688      744.22179      14.887007      14.887007      14.887007      0              0              0            
    264000   305.02011     -1183.1529      225.78641     -957.36644      1768.8413      14.979305      14.979305      14.979305      0              0              0            
    265000   285.78283     -1195.2343      211.54631     -983.68796      51.395466      15.059063      15.059063      15.059063      0              0              0            
    266000   295.81828     -1216.1048      218.97489     -997.1299      -725.77         15.145423      15.145423      15.145423      0              0              0            
    267000   313.11862     -1198.294       231.7812      -966.51282      112.34027      14.891082      14.891082      14.891082      0              0              0            
    268000   294.72926     -1189.5428      218.16876     -971.374       -679.60499      15.255716      15.255716      15.255716      0              0              0            
    269000   302.36734     -1225.9921      223.82273     -1002.1694     -794.56686      15.043855      15.043855      15.043855      0              0              0            
    270000   321.41514     -1207.5846      237.92257     -969.66207      1943.0172      14.847318      14.847318      14.847318      0              0              0            
    271000   300.79406     -1196.2161      222.65814     -973.55796     -452.89161      14.982448      14.982448      14.982448      0              0              0            
    272000   291.59766     -1175.2542      215.85065     -959.4036       335.66659      15.015548      15.015548      15.015548      0              0              0            
    273000   300.11841     -1200.8294      222.158       -978.67135     -15.978534      15.073864      15.073864      15.073864      0              0              0            
    274000   314.77764     -1178.5232      233.00927     -945.51389     -139.05047      15.078545      15.078545      15.078545      0              0              0            
    275000   283.72196     -1219.8261      210.02078     -1009.8053      2558.885       14.750275      14.750275      14.750275      0              0              0            
    276000   314.34891     -1215.1068      232.69191     -982.41491      514.99854      14.791466      14.791466      14.791466      0              0              0            
    277000   309.06218     -1190.0476      228.77849     -961.26907      185.94922      15.245858      15.245858      15.245858      0              0              0            
    278000   287.03171     -1179.6009      212.47077     -967.13013     -356.96954      15.207688      15.207688      15.207688      0              0              0            
    279000   307.74884     -1201.3615      227.80631     -973.55514      105.07495      15.366155      15.366155      15.366155      0              0              0            
    280000   298.08593     -1241.6924      220.65348     -1021.0389      17.857817      14.975775      14.975775      14.975775      0              0              0            
    281000   300.45455     -1188.8774      222.40682     -966.4706      -3110.1441      15.068164      15.068164      15.068164      0              0              0            
    282000   322.97562     -1183.8288      239.07769     -944.75114     -544.25749      15.013304      15.013304      15.013304      0              0              0            
    283000   314.52536     -1209.805       232.82252     -976.98248      162.2654       14.820838      14.820838      14.820838      0              0              0            
    284000   311.55769     -1204.9519      230.62575     -974.32613     -1802.4954      15.257139      15.257139      15.257139      0              0              0            
    285000   308.59024     -1181.7461      228.42914     -953.31698     -654.07185      15.125255      15.125255      15.125255      0              0              0            
    286000   293.80508     -1225.3313      217.48466     -1007.8466     -796.8177       14.947639      14.947639      14.947639      0              0              0            
    287000   284.10088     -1192.4853      210.30128     -982.18407     -1331.0297      15.027252      15.027252      15.027252      0              0              0            
    288000   307.19952     -1187.4724      227.39968     -960.07272      1084.8774      15.124077      15.124077      15.124077      0              0              0            
    289000   296.81394     -1182.0051      219.71192     -962.29314      7.6286895      15.135169      15.135169      15.135169      0              0              0            
    290000   319.03968     -1203.385       236.16417     -967.22081     -685.02304      15.045938      15.045938      15.045938      0              0              0            
    291000   303.36754     -1230.3971      224.56312     -1005.834      -137.57406      14.809452      14.809452      14.809452      0              0              0            
    292000   278.64355     -1206.9817      206.26156     -1000.7201     -793.37951      14.781539      14.781539      14.781539      0              0              0            
    293000   311.46077     -1184.6279      230.554       -954.07388      510.37996      15.125817      15.125817      15.125817      0              0              0            
    294000   314.66573     -1202.3999      232.92643     -969.47343     -86.035341      15.024869      15.024869      15.024869      0              0              0            
    295000   316.32858     -1188.913       234.15733     -954.75564      3359.1877      14.933751      14.933751      14.933751      0              0              0            
    296000   294.91904     -1197.6884      218.30925     -979.37911      1256.6531      15.116996      15.116996      15.116996      0              0              0            
    297000   293.9592      -1187.9595      217.59874     -970.36074     -60.749398      15.084247      15.084247      15.084247      0              0              0            
    298000   310.35375     -1187.8804      229.73455     -958.14589     -46.249306      15.064566      15.064566      15.064566      0              0              0            
    299000   321.07472     -1178.5985      237.67058     -940.92792      338.81246      15.168155      15.168155      15.168155      0              0              0            
    300000   311.52712     -1179.4225      230.60312     -948.81942     -1078.4637      15.091761      15.091761      15.091761      0              0              0            
    301000   325.93254     -1178.1407      241.26651     -936.87416      899.39834      15.149652      15.149652      15.149652      0              0              0            
    302000   281.70781     -1178.1265      208.52984     -969.59662     -43.813877      15.101567      15.101567      15.101567      0              0              0            
    303000   272.56139     -1183.0464      201.75934     -981.28703     -949.56065      14.866832      14.866832      14.866832      0              0              0            
    304000   283.06539     -1211.3196      209.53477     -1001.7849     -193.99389      14.8708        14.8708        14.8708        0              0              0            
    305000   280.95088     -1222.9039      207.96953     -1014.9344     -449.04498      15.053529      15.053529      15.053529      0              0              0            
    306000   296.34245     -1221.1602      219.36291     -1001.7973     -1629.6336      15.133948      15.133948      15.133948      0              0              0            
    307000   309.89785     -1220.3057      229.39708     -990.90863     -119.39973      15.022616      15.022616      15.022616      0              0              0            
    308000   281.5066      -1196.3106      208.3809      -987.92973      1111.3486      14.810964      14.810964      14.810964      0              0              0            
    309000   306.68107     -1206.7498      227.01591     -979.73389      1726.7878      14.981673      14.981673      14.981673      0              0              0            
    310000   311.99183     -1198.5806      230.94711     -967.63348     -343.36116      15.211694      15.211694      15.211694      0              0              0            
    311000   294.88239     -1178.7874      218.28212     -960.50526      649.13519      15.221468      15.221468      15.221468      0              0              0            
    312000   306.0831      -1193.9189      226.57327     -967.34568     -1933.3483      15.181565      15.181565      15.181565      0              0              0            
    313000   281.96247     -1202.5268      208.71835     -993.80849      607.01661      14.806535      14.806535      14.806535      0              0              0            
    314000   310.1178      -1222.3693      229.5599      -992.80937     -1675.3517      14.909619      14.909619      14.909619      0              0              0            
    315000   299.03259     -1204.5443      221.35424     -983.19004      1045.751       15.05626       15.05626       15.05626       0              0              0            
    316000   294.11516     -1234.224       217.71419     -1016.5098     -2327.7546      15.048705      15.048705      15.048705      0              0              0            
    317000   281.00128     -1189.9678      208.00684     -981.96099     -1284.5933      14.942765      14.942765      14.942765      0              0              0            
    318000   294.31        -1184.7534      217.85842     -966.89503     -1489.7497      15.297985      15.297985      15.297985      0              0              0            
    319000   308.75027     -1207.9383      228.5476      -979.3907       1145.5009      15.01913       15.01913       15.01913       0              0              0            
    320000   303.99871     -1182.908       225.03033     -957.87763     -828.15995      15.274917      15.274917      15.274917      0              0              0            
    321000   309.29876     -1179.6254      228.95361     -950.67178      1339.1927      14.909365      14.909365      14.909365      0              0              0            
    322000   298.71324     -1168.263       221.11784     -947.14518     -439.77647      15.120349      15.120349      15.120349      0              0              0            
    323000   294.12858     -1208.6691      217.72412     -990.94501      688.33295      14.884752      14.884752      14.884752      0              0              0            
    324000   285.37886     -1191.6609      211.24728     -980.41357      382.88876      14.996026      14.996026      14.996026      0              0              0            
    325000   291.39204     -1168.7803      215.69844     -953.08182      604.22572      15.020899      15.020899      15.020899      0              0              0            
    326000   277.9883      -1204.2995      205.77653     -998.52295     -645.64198      15.01116       15.01116       15.01116       0              0              0            
    327000   290.74714     -1198.7163      215.22106     -983.49519      289.93638      14.953527      14.953527      14.953527      0              0              0            
    328000   312.65263     -1190.1229      231.43626     -958.68661      2124.5603      14.937126      14.937126      14.937126      0              0              0            
    329000   291.7091      -1187.9848      215.93314     -972.05164      1188.5945      15.01565       15.01565       15.01565       0              0              0            
    330000   303.8579      -1210.8002      224.9261      -985.87409     -1143.3674      14.950981      14.950981      14.950981      0              0              0            
    331000   301.76563     -1215.7336      223.37733     -992.35626      655.04693      14.900501      14.900501      14.900501      0              0              0            
    332000   326.06182     -1199.7014      241.3622      -958.33922      433.0299       14.94019       14.94019       14.94019       0              0              0            
    333000   287.31987     -1240.9373      212.68408     -1028.2532     -1.6405393      14.900686      14.900686      14.900686      0              0              0            
    334000   289.28749     -1187.0116      214.14058     -972.87101     -2000.9196      15.04591       15.04591       15.04591       0              0              0            
    335000   298.02996     -1229.7308      220.61206     -1009.1187     -1429.6877      14.83013       14.83013       14.83013       0              0              0            
    336000   300.73712     -1190.3929      222.61599     -967.77686      218.77627      15.128884      15.128884      15.128884      0              0              0            
    337000   336.3702      -1179.7111      248.99283     -930.71831     -854.68876      15.008213      15.008213      15.008213      0              0              0            
    338000   278.59789     -1220.1938      206.22777     -1013.966       1250.9909      14.982937      14.982937      14.982937      0              0              0            
    339000   322.81114     -1196.3196      238.95594     -957.36361     -729.60538      14.912891      14.912891      14.912891      0              0              0            
    340000   283.96437     -1208.6197      210.20022     -998.41953      993.13648      15.183002      15.183002      15.183002      0              0              0            
    341000   259.93732     -1188.981       192.41457     -996.56645      293.17684      15.012836      15.012836      15.012836      0              0              0            
    342000   327.77994     -1228.7115      242.63402     -986.07744      1147.4386      14.754615      14.754615      14.754615      0              0              0            
    343000   299.5059      -1208.2689      221.7046      -986.56433      2404.9294      14.966226      14.966226      14.966226      0              0              0            
    344000   315.85843     -1239.8921      233.80931     -1006.0828     -832.87586      14.906454      14.906454      14.906454      0              0              0            
    345000   306.41376     -1198.1967      226.81804     -971.37862     -931.744        14.967478      14.967478      14.967478      0              0              0            
    346000   304.42156     -1211.4849      225.34334     -986.14153     -602.15781      15.091693      15.091693      15.091693      0              0              0            
    347000   326.53459     -1223.8738      241.71217     -982.16168      986.67644      14.940318      14.940318      14.940318      0              0              0            
    348000   283.68157     -1223.1374      209.99088     -1013.1465     -1058.279       15.027197      15.027197      15.027197      0              0              0            
    349000   314.61254     -1192.7679      232.88705     -959.88084      2078.2367      15.010828      15.010828      15.010828      0              0              0            
    350000   266.29515     -1194.5191      197.12086     -997.39821      30.882119      14.881832      14.881832      14.881832      0              0              0            
    351000   302.14227     -1205.1245      223.65613     -981.46835      37.974465      15.12505       15.12505       15.12505       0              0              0            
    352000   302.55694     -1241.5351      223.96308     -1017.572      -818.62127      14.891198      14.891198      14.891198      0              0              0            
    353000   349.42957     -1218.579       258.65982     -959.91918     -138.82897      14.908005      14.908005      14.908005      0              0              0            
    354000   324.97389     -1234.4         240.55688     -993.84313      948.51868      14.785685      14.785685      14.785685      0              0              0            
    355000   303.4065      -1183.3822      224.59196     -958.79029     -967.19941      14.897077      14.897077      14.897077      0              0              0            
    356000   297.76721     -1198.9263      220.41756     -978.50872     -632.48867      15.016347      15.016347      15.016347      0              0              0            
    357000   304.0201      -1163.8225      225.04617     -938.77633     -1484.6308      15.164287      15.164287      15.164287      0              0              0            
    358000   306.80588     -1195.2703      227.1083      -968.16197     -1061.1893      15.000942      15.000942      15.000942      0              0              0            
    359000   281.92941     -1163.9906      208.69387     -955.29677     -449.07742      15.413507      15.413507      15.413507      0              0              0            
    360000   302.33062     -1222.4978      223.79555     -998.70228      701.5954       15.337789      15.337789      15.337789      0              0              0            
    361000   300.80787     -1186.0071      222.66836     -963.33873     -1184.543       15.330914      15.330914      15.330914      0              0              0            
    362000   296.28922     -1224.8674      219.3235      -1005.5439      34.514078      14.912155      14.912155      14.912155      0              0              0            
    363000   304.87354     -1206.0438      225.67791     -980.36592     -1002.0577      15.043418      15.043418      15.043418      0              0              0            
    364000   298.32396     -1224.9309      220.82969     -1004.1012     -272.47954      14.762423      14.762423      14.762423      0              0              0            
    365000   292.74882     -1213.3655      216.70278     -996.6627       558.73676      14.929685      14.929685      14.929685      0              0              0            
    366000   309.18903     -1195.2703      228.87238     -966.39791     -578.29283      15.028999      15.028999      15.028999      0              0              0            
    367000   318.74343     -1213.1671      235.94488     -977.2222      -1287.0769      15.093144      15.093144      15.093144      0              0              0            
    368000   289.64679     -1226.4367      214.40654     -1012.0301      1011.7101      14.828885      14.828885      14.828885      0              0              0            
    369000   278.72973     -1215.1753      206.32536     -1008.85        724.09951      14.740251      14.740251      14.740251      0              0              0            
    370000   324.7813      -1214.8355      240.41432     -974.42121     -1930.9624      14.997344      14.997344      14.997344      0              0              0            
    371000   295.81912     -1199.6088      218.97551     -980.6333      -1716.7584      15.000942      15.000942      15.000942      0              0              0            
    372000   311.43483     -1222.9481      230.5348      -992.41327     -162.90362      15.062661      15.062661      15.062661      0              0              0            
    373000   282.45986     -1209.1996      209.08653     -1000.1131     -705.31978      14.995635      14.995635      14.995635      0              0              0            
    374000   304.80374     -1196.6858      225.62625     -971.05953     -621.99495      14.957393      14.957393      14.957393      0              0              0            
    375000   300.35789     -1195.08        222.33527     -972.74476     -1216.8808      14.957478      14.957478      14.957478      0              0              0            
    376000   299.88769     -1200.6798      221.98721     -978.69262      868.15633      14.972275      14.972275      14.972275      0              0              0            
    377000   317.055       -1211.6561      234.69505     -976.96106     -491.02311      14.905793      14.905793      14.905793      0              0              0            
    378000   312.09332     -1179.5253      231.02224     -948.50308     -961.5417       15.230392      15.230392      15.230392      0              0              0            
    379000   323.42835     -1187.1836      239.41282     -947.77082     -193.34549      15.182101      15.182101      15.182101      0              0              0            
    380000   282.77917     -1229.9449      209.32289     -1020.622      -1682.6474      15.096964      15.096964      15.096964      0              0              0            
    381000   284.33991     -1222.6197      210.47821     -1012.1415     -942.78324      15.064686      15.064686      15.064686      0              0              0            
    382000   309.39292     -1224.2119      229.02331     -995.18858      438.94437      14.672434      14.672434      14.672434      0              0              0            
    383000   306.86859     -1219.3581      227.15471     -992.20335      2497.7777      14.99674       14.99674       14.99674       0              0              0            
    384000   301.69683     -1218.3926      223.3264      -995.06624     -380.10968      15.001335      15.001335      15.001335      0              0              0            
    385000   306.98582     -1188.8691      227.24149     -961.62761      2662.8228      14.981828      14.981828      14.981828      0              0              0            
    386000   300.59617     -1171.3063      222.51165     -948.79463      2589.6443      15.012977      15.012977      15.012977      0              0              0            
    387000   293.04831     -1221.3298      216.92447     -1004.4053     -3300.3984      15.167676      15.167676      15.167676      0              0              0            
    388000   319.40171     -1213.6993      236.43216     -977.26709     -1104.9784      15.037006      15.037006      15.037006      0              0              0            
    389000   283.03798     -1231.9824      209.51447     -1022.4679     -1529.1691      14.935392      14.935392      14.935392      0              0              0            
    390000   323.97963     -1196.4923      239.8209      -956.67136      196.00363      14.961426      14.961426      14.961426      0              0              0            
    391000   287.82376     -1204.2556      213.05708     -991.19857     -1141.0998      15.200116      15.200116      15.200116      0              0              0            
    392000   307.00488     -1211.526       227.2556      -984.27036      697.681        14.60631       14.60631       14.60631       0              0              0            
    393000   303.89983     -1193.383       224.95714     -968.42585      622.34655      14.915405      14.915405      14.915405      0              0              0            
    394000   298.07429     -1219.0302      220.64487     -998.38534     -273.00853      14.944955      14.944955      14.944955      0              0              0            
    395000   294.75714     -1236.7123      218.1894      -1018.5229     -1650.01        14.871863      14.871863      14.871863      0              0              0            
    396000   295.03213     -1207.7171      218.39296     -989.32417     -584.56218      15.030259      15.030259      15.030259      0              0              0            
    397000   302.83971     -1167.3172      224.1724      -943.14477     -1997.6748      15.467071      15.467071      15.467071      0              0              0            
    398000   297.07196     -1223.7032      219.90291     -1003.8003     -269.82761      14.949041      14.949041      14.949041      0              0              0            
    399000   288.60239     -1177.7744      213.63345     -964.14092      630.79524      15.077984      15.077984      15.077984      0              0              0            
    400000   288.39217     -1198.6848      213.47783     -985.20692      342.52431      14.849719      14.849719      14.849719      0              0              0            
    401000   308.94753     -1195.7538      228.69362     -967.06017     -231.45119      14.920771      14.920771      14.920771      0              0              0            
    402000   332.63575     -1222.0859      246.22845     -975.85743     -930.28005      15.181727      15.181727      15.181727      0              0              0            
    403000   324.94925     -1189.3689      240.53865     -948.83021     -896.64124      15.107429      15.107429      15.107429      0              0              0            
    404000   320.05648     -1193.6745      236.91685     -956.7576       1558.6003      14.921457      14.921457      14.921457      0              0              0            
    405000   301.12072     -1207.6494      222.89994     -984.74948     -1361.786       14.944664      14.944664      14.944664      0              0              0            
    406000   304.60578     -1217.1215      225.47971     -991.64176      1799.6657      15.059535      15.059535      15.059535      0              0              0            
    407000   280.81524     -1225.5471      207.86913     -1017.678      -2720.6043      15.179455      15.179455      15.179455      0              0              0            
    408000   292.58354     -1217.0117      216.58043     -1000.4313      1302.7897      14.701916      14.701916      14.701916      0              0              0            
    409000   283.49455     -1196.0117      209.85245     -986.1593       1226.9212      15.128818      15.128818      15.128818      0              0              0            
    410000   285.63635     -1190.4183      211.43788     -978.98041     -964.59153      15.314052      15.314052      15.314052      0              0              0            
    411000   293.99401     -1225.7271      217.62451     -1008.1025      185.40939      15.073582      15.073582      15.073582      0              0              0            
    412000   292.65901     -1200.5555      216.6363      -983.91916      1475.317       15.000514      15.000514      15.000514      0              0              0            
    413000   278.96514     -1178.6517      206.49962     -972.15203     -1781.813       15.228784      15.228784      15.228784      0              0              0            
    414000   297.46896     -1214.5262      220.19679     -994.32937      474.0118       14.934238      14.934238      14.934238      0              0              0            
    415000   299.22494     -1200.8448      221.49662     -979.34819     -307.84334      15.035287      15.035287      15.035287      0              0              0            
    416000   270.42912     -1220.3021      200.18097     -1020.1211     -873.37687      14.96562       14.96562       14.96562       0              0              0            
    417000   311.90853     -1193.3658      230.88545     -962.48031      23.552731      15.157901      15.157901      15.157901      0              0              0            
    418000   300.68678     -1219.9648      222.57873     -997.38612      86.326498      15.069738      15.069738      15.069738      0              0              0            
    419000   299.65448     -1207.0142      221.81458     -985.1996      -147.8389       15.137834      15.137834      15.137834      0              0              0            
    420000   298.26967     -1197.065       220.7895      -976.27549      1888.0336      14.993176      14.993176      14.993176      0              0              0            
    421000   301.10123     -1174.2946      222.88551     -951.4091      -1202.4282      15.076716      15.076716      15.076716      0              0              0            
    422000   306.85292     -1233.4741      227.14312     -1006.331       455.70563      14.788183      14.788183      14.788183      0              0              0            
    423000   283.91525     -1209.1331      210.16386     -998.96925     -146.90015      15.029439      15.029439      15.029439      0              0              0            
    424000   296.14568     -1181.3637      219.21725     -962.14644     -285.05871      15.123857      15.123857      15.123857      0              0              0            
    425000   301.50297     -1224.4562      223.1829      -1001.2733      867.37222      14.793222      14.793222      14.793222      0              0              0            
    426000   303.07287     -1202.6446      224.34499     -978.29964      380.10902      14.966466      14.966466      14.966466      0              0              0            
    427000   305.31927     -1186.2451      226.00786     -960.23722     -974.38562      15.013957      15.013957      15.013957      0              0              0            
    428000   292.58176     -1177.9021      216.57911     -961.32301      726.81593      15.028232      15.028232      15.028232      0              0              0            
    429000   295.89937     -1230.4605      219.03492     -1011.4256      769.44553      14.750436      14.750436      14.750436      0              0              0            
    430000   283.12472     -1170.7961      209.57868     -961.21746      1186.8003      15.237867      15.237867      15.237867      0              0              0            
    431000   303.55717     -1222.6507      224.70349     -997.94725      1689.6129      14.704         14.704         14.704         0              0              0            
    432000   301.09226     -1188.3061      222.87888     -965.42719     -2628.5984      15.003902      15.003902      15.003902      0              0              0            
    433000   294.79502     -1191.8337      218.21744     -973.61622      63.934786      14.872495      14.872495      14.872495      0              0              0            
    434000   312.29024     -1210.7967      231.16801     -979.62871     -866.53701      14.957974      14.957974      14.957974      0              0              0            
    435000   296.54662     -1206.1287      219.51404     -986.61471     -287.66625      15.033833      15.033833      15.033833      0              0              0            
    436000   307.8633      -1188.4142      227.89103     -960.52314     -1504.3055      15.257482      15.257482      15.257482      0              0              0            
    437000   305.85869     -1172.2929      226.40715     -945.8857      -645.2158       15.034013      15.034013      15.034013      0              0              0            
    438000   294.73074     -1152.9694      218.16986     -934.79953     -537.05449      15.209822      15.209822      15.209822      0              0              0            
    439000   300.39768     -1210.9401      222.36472     -988.57542      1415.4242      15.33588       15.33588       15.33588       0              0              0            
    440000   302.56763     -1225.7108      223.971       -1001.7398      211.51211      15.23745       15.23745       15.23745       0              0              0            
    441000   329.02079     -1229.1479      243.55254     -985.5954       365.16131      14.930841      14.930841      14.930841      0              0              0            
    442000   316.45126     -1210.1289      234.24814     -975.88079     -1647.7374      15.230522      15.230522      15.230522      0              0              0            
    443000   285.01143     -1200.9859      210.97529     -990.01063     -1674.7996      14.962309      14.962309      14.962309      0              0              0            
    444000   287.50682     -1174.3742      212.82246     -961.55173     -407.30621      15.127212      15.127212      15.127212      0              0              0            
    445000   292.39368     -1205.2014      216.43989     -988.76152      319.84982      15.027377      15.027377      15.027377      0              0              0            
    446000   319.39605     -1203.2129      236.42798     -966.78488      1396.5283      15.027433      15.027433      15.027433      0              0              0            
    447000   298.88167     -1181.5366      221.24252     -960.29413     -695.51867      15.161707      15.161707      15.161707      0              0              0            
    448000   279.70129     -1190.3902      207.04454     -983.34561      605.72671      14.924135      14.924135      14.924135      0              0              0            
    449000   307.12671     -1167.1407      227.34579     -939.79496     -2142.9319      15.44125       15.44125       15.44125       0              0              0            
    450000   301.17667     -1204.8031      222.94136     -981.86172      2147.8403      14.959569      14.959569      14.959569      0              0              0            
    451000   324.56285     -1204.3345      240.25262     -964.08187      482.93143      14.936869      14.936869      14.936869      0              0              0            
    452000   282.73416     -1199.8807      209.28958     -990.59108      1825.0895      15.025776      15.025776      15.025776      0              0              0            
    453000   295.49585     -1235.3017      218.73622     -1016.5655      377.40029      14.817002      14.817002      14.817002      0              0              0            
    454000   324.46846     -1238.4628      240.18274     -998.28003      202.96887      14.97619       14.97619       14.97619       0              0              0            
    455000   277.96829     -1191.9785      205.76171     -986.21677     -638.74644      15.080688      15.080688      15.080688      0              0              0            
    456000   326.77241     -1245.5281      241.88821     -1003.6399      1059.6512      14.842368      14.842368      14.842368      0              0              0            
    457000   312.37152     -1191.8042      231.22817     -960.57601      552.18517      15.067528      15.067528      15.067528      0              0              0            
    458000   290.87894     -1193.5189      215.31862     -978.20027      185.01833      15.081613      15.081613      15.081613      0              0              0            
    459000   299.92162     -1195.8959      222.01233     -973.88355     -224.25506      15.045489      15.045489      15.045489      0              0              0            
    460000   312.79197     -1185.9227      231.53941     -954.38332      3142.8167      14.812313      14.812313      14.812313      0              0              0            
    461000   293.60261     -1176.6281      217.33478     -959.2933       977.11487      14.758813      14.758813      14.758813      0              0              0            
    462000   299.80126     -1204.5317      221.92324     -982.60845      716.27865      14.766502      14.766502      14.766502      0              0              0            
    463000   314.51684     -1217.574       232.81621     -984.75777     -1656.8955      15.078164      15.078164      15.078164      0              0              0            
    464000   337.86785     -1203.1447      250.10144     -953.04324     -2174.6262      15.008066      15.008066      15.008066      0              0              0            
    465000   333.03568     -1204.5179      246.5245      -957.9934      -508.80872      15.075919      15.075919      15.075919      0              0              0            
    466000   300.60148     -1203.8135      222.51559     -981.29794     -2394.7516      15.166786      15.166786      15.166786      0              0              0            
    467000   265.86137     -1198.1537      196.79976     -1001.354      -1918.7124      14.997198      14.997198      14.997198      0              0              0            
    468000   307.11921     -1230.6456      227.34023     -1003.3053      1007.7971      14.654686      14.654686      14.654686      0              0              0            
    469000   323.42421     -1205.0481      239.40976     -965.63835      1626.146       14.772439      14.772439      14.772439      0              0              0            
    470000   301.16628     -1219.1459      222.93367     -996.21219     -886.16368      15.011533      15.011533      15.011533      0              0              0            
    471000   278.77709     -1232.1566      206.36042     -1025.7961      1391.8858      14.773144      14.773144      14.773144      0              0              0            
    472000   303.40991     -1168.4493      224.59448     -943.85479     -1024.3443      14.885394      14.885394      14.885394      0              0              0            
    473000   278.57736     -1225.8369      206.21257     -1019.6243     -561.12038      14.848492      14.848492      14.848492      0              0              0            
    474000   283.66806     -1233.5389      209.98089     -1023.5581     -1843.0855      14.936995      14.936995      14.936995      0              0              0            
    475000   295.36823     -1201.435       218.64176     -982.79326      1077.0802      14.918968      14.918968      14.918968      0              0              0            
    476000   292.60348     -1194.7211      216.59519     -978.12591     -179.84006      15.012755      15.012755      15.012755      0              0              0            
    477000   307.44462     -1218.1823      227.58111     -990.60115     -2071.5997      14.947427      14.947427      14.947427      0              0              0            
    478000   281.03202     -1227.7694      208.0296      -1019.7398     -225.96972      14.971945      14.971945      14.971945      0              0              0            
    479000   287.31474     -1237.7186      212.68028     -1025.0383     -201.33894      15.115335      15.115335      15.115335      0              0              0            
    480000   304.21243     -1215.4351      225.18853     -990.24655      18.77565       15.071925      15.071925      15.071925      0              0              0            
    481000   291.68209     -1231.0618      215.91314     -1015.1486     -449.59999      14.773678      14.773678      14.773678      0              0              0            
    482000   289.77371     -1250.1857      214.50049     -1035.6852      441.43495      14.801183      14.801183      14.801183      0              0              0            
    483000   302.5216      -1212.6839      223.93692     -988.74693     -594.0092       15.048509      15.048509      15.048509      0              0              0            
    484000   277.72831     -1166.4512      205.58408     -960.86717     -1750.3555      15.164103      15.164103      15.164103      0              0              0            
    485000   309.25322     -1169.7453      228.9199      -940.82537     -1146.6108      15.350135      15.350135      15.350135      0              0              0            
    486000   315.06989     -1182.7154      233.2256      -949.48978     -354.05021      15.057255      15.057255      15.057255      0              0              0            
    487000   294.60349     -1180.455       218.07566     -962.37937     -1409.6483      15.148537      15.148537      15.148537      0              0              0            
    488000   277.09789     -1197.9085      205.11742     -992.79105     -829.43521      15.328375      15.328375      15.328375      0              0              0            
    489000   271.58277     -1188.5109      201.03493     -987.47597     -226.45207      15.245942      15.245942      15.245942      0              0              0            
    490000   283.09543     -1167.5821      209.557       -958.02505     -1205.6151      15.049621      15.049621      15.049621      0              0              0            
    491000   292.4417      -1150.7625      216.47544     -934.28706      159.77376      15.276485      15.276485      15.276485      0              0              0            
    492000   304.99182     -1218.506       225.76546     -992.74051     -2037.5003      15.111815      15.111815      15.111815      0              0              0            
    493000   286.46265     -1234.4299      212.04954     -1022.3804     -47.807834      14.970712      14.970712      14.970712      0              0              0            
    494000   282.50944     -1213.2703      209.12323     -1004.147       943.78545      14.902957      14.902957      14.902957      0              0              0            
    495000   297.97979     -1250.1692      220.57492     -1029.5943      211.77339      14.904491      14.904491      14.904491      0              0              0            
    496000   292.10573     -1221.0997      216.22674     -1004.873      -962.69905      14.999879      14.999879      14.999879      0              0              0            
    497000   312.06192     -1200.163       230.999       -969.16397      256.53981      14.858928      14.858928      14.858928      0              0              0            
    498000   299.25729     -1178.9102      221.52057     -957.3896      -334.81048      14.914678      14.914678      14.914678      0              0              0            
    499000   281.02573     -1209.5322      208.02494     -1001.5073      595.96659      15.069289      15.069289      15.069289      0              0              0            
    500000   299.88257     -1221.9347      221.98342     -999.95124     -406.84036      14.999896      14.999896      14.999896      0              0              0            
    501000   295.84596     -1160.7528      218.99539     -941.75745     -789.03183      15.120988      15.120988      15.120988      0              0              0            
    502000   264.30974     -1240.037       195.65119     -1044.3859     -639.62024      15.084226      15.084226      15.084226      0              0              0            
    503000   288.88561     -1221.5095      213.84309     -1007.6664      918.99391      14.919983      14.919983      14.919983      0              0              0            
    504000   290.87387     -1204.0718      215.31487     -988.75694     -74.541333      14.954326      14.954326      14.954326      0              0              0            
    505000   287.80648     -1195.4445      213.04428     -982.40023      103.74451      15.039634      15.039634      15.039634      0              0              0            
    506000   290.74031     -1199.673       215.21601     -984.45702     -771.56072      15.090563      15.090563      15.090563      0              0              0            
    507000   300.65961     -1193.6573      222.55861     -971.09866      1251.0873      14.730492      14.730492      14.730492      0              0              0            
    508000   339.95158     -1205.7031      251.64388     -954.05924     -2362.09        15.117896      15.117896      15.117896      0              0              0            
    509000   302.28371     -1210.1915      223.76083     -986.43069      2295.1323      14.797977      14.797977      14.797977      0              0              0            
    510000   309.39929     -1201.3412      229.02802     -972.31318     -1306.6866      14.818789      14.818789      14.818789      0              0              0            
    511000   282.37562     -1162.0245      209.02417     -953.00035      956.76042      15.087456      15.087456      15.087456      0              0              0            
    512000   338.75189     -1190.5287      250.75584     -939.77289      3310.2274      14.852089      14.852089      14.852089      0              0              0            
    513000   290.28628     -1206.8649      214.87992     -991.98502     -269.53137      14.806976      14.806976      14.806976      0              0              0            
    514000   313.94878     -1228.546       232.39572     -996.1503       151.92737      14.881061      14.881061      14.881061      0              0              0            
    515000   306.46639     -1198.8142      226.85699     -971.95724     -1522.8808      15.17484       15.17484       15.17484       0              0              0            
    516000   284.10145     -1217.175       210.30169     -1006.8733     -1046.7681      15.133597      15.133597      15.133597      0              0              0            
    517000   297.66469     -1181.5224      220.34167     -961.18069     -482.57815      14.902575      14.902575      14.902575      0              0              0            
    518000   299.05528     -1186.7761      221.37104     -965.40509      588.23738      15.202367      15.202367      15.202367      0              0              0            
    519000   296.09004     -1204.8749      219.17606     -985.69888     -183.97371      15.017041      15.017041      15.017041      0              0              0            
    520000   303.87992     -1200.4682      224.9424      -975.52579     -789.72612      15.0157        15.0157        15.0157        0              0              0            
    521000   328.78235     -1187.2604      243.37604     -943.8844       29.042489      15.201611      15.201611      15.201611      0              0              0            
    522000   312.23428     -1216.4551      231.12658     -985.3285       1166.6783      14.827787      14.827787      14.827787      0              0              0            
    523000   285.42399     -1218.3598      211.28068     -1007.0791      1262.1236      14.899918      14.899918      14.899918      0              0              0            
    524000   280.86074     -1189.0429      207.90281     -981.14012     -2547.8204      15.154366      15.154366      15.154366      0              0              0            
    525000   307.61517     -1181.4663      227.70736     -953.75893     -1458.2556      15.040362      15.040362      15.040362      0              0              0            
    526000   311.62899     -1217.7412      230.67853     -987.06264     -1185.9521      14.925012      14.925012      14.925012      0              0              0            
    527000   284.77563     -1223.5635      210.80074     -1012.7627      437.35565      14.939356      14.939356      14.939356      0              0              0            
    528000   293.55712     -1206.4024      217.30111     -989.10125      1086.9793      15.029471      15.029471      15.029471      0              0              0            
    529000   303.66136     -1199.8195      224.78061     -975.03894      54.235219      14.962746      14.962746      14.962746      0              0              0            
    530000   315.14834     -1217.3084      233.28367     -984.02468      2025.3073      14.939464      14.939464      14.939464      0              0              0            
    531000   294.20762     -1211.7092      217.78263     -993.92658     -832.52491      15.080796      15.080796      15.080796      0              0              0            
    532000   289.37231     -1185.1682      214.20336     -970.96483     -134.35425      15.028532      15.028532      15.028532      0              0              0            
    533000   315.45172     -1189.4755      233.50825     -955.96729      812.65476      14.853715      14.853715      14.853715      0              0              0            
    534000   271.79772     -1202.7609      201.19405     -1001.5669     -345.01178      14.825574      14.825574      14.825574      0              0              0            
    535000   311.58925     -1196.1458      230.64911     -965.49673     -1710.494       14.932471      14.932471      14.932471      0              0              0            
    536000   295.03116     -1215.5491      218.39224     -997.15684      786.47043      14.833287      14.833287      14.833287      0              0              0            
    537000   353.95541     -1176.8843      262.01        -914.87425     -844.12482      15.21921       15.21921       15.21921       0              0              0            
    538000   324.50769     -1198.1328      240.21178     -957.92103     -191.87357      14.910393      14.910393      14.910393      0              0              0            
    539000   314.32291     -1206.2808      232.67266     -973.60818      509.18061      14.825906      14.825906      14.825906      0              0              0            
    540000   294.46595     -1194.5031      217.97385     -976.52927     -633.35056      15.07134       15.07134       15.07134       0              0              0            
    541000   325.8797      -1201.9573      241.22739     -960.72988      1385.5841      14.692291      14.692291      14.692291      0              0              0            
    542000   291.38389     -1205.4458      215.69241     -989.75336      150.20797      14.897868      14.897868      14.897868      0              0              0            
    543000   329.15332     -1191.288       243.65065     -947.63738     -756.27811      15.200609      15.200609      15.200609      0              0              0            
    544000   340.50198     -1192.4731      252.05131     -940.42182     -1226.1678      15.024391      15.024391      15.024391      0              0              0            
    545000   322.54004     -1190.1568      238.75527     -951.40157     -482.99295      15.11261       15.11261       15.11261       0              0              0            
    546000   262.25049     -1215.929       194.12686     -1021.8021     -524.3486       14.967592      14.967592      14.967592      0              0              0            
    547000   321.2018      -1191.9643      237.76465     -954.19965     -755.23318      14.992745      14.992745      14.992745      0              0              0            
    548000   310.27128     -1236.8029      229.67351     -1007.1294     -151.87479      14.844093      14.844093      14.844093      0              0              0            
    549000   296.89548     -1213.249       219.77227     -993.47673     -2383.5331      14.81251       14.81251       14.81251       0              0              0            
    550000   307.1157      -1193.5698      227.33763     -966.23219      159.63348      15.034683      15.034683      15.034683      0              0              0            
    551000   301.7556      -1217.6937      223.36991     -994.32378     -2511.8404      14.909618      14.909618      14.909618      0              0              0            
    552000   330.08198     -1174.4574      244.33807     -930.11934     -741.29778      15.057846      15.057846      15.057846      0              0              0            
    553000   293.78133     -1189.975       217.46707     -972.50789      918.2536       14.836227      14.836227      14.836227      0              0              0            
    554000   321.62824     -1208.3993      238.08032     -970.31896     -1436.7024      14.977327      14.977327      14.977327      0              0              0            
    555000   287.52504     -1157.1009      212.83595     -944.26493      2483.6331      14.964157      14.964157      14.964157      0              0              0            
    556000   286.16816     -1197.0227      211.83154     -985.19118      122.95358      14.85219       14.85219       14.85219       0              0              0            
    557000   284.73881     -1165.1999      210.77349     -954.42643     -664.25754      15.190913      15.190913      15.190913      0              0              0            
    558000   295.79201     -1179.378       218.95545     -960.42254      722.20569      14.72184       14.72184       14.72184       0              0              0            
    559000   302.93298     -1216.0994      224.24144     -991.85796     -686.27393      15.127379      15.127379      15.127379      0              0              0            
    560000   284.99265     -1201.5117      210.96139     -990.55026      401.92812      14.988217      14.988217      14.988217      0              0              0            
    561000   327.48895     -1204.8258      242.41862     -962.40714      292.00663      15.239575      15.239575      15.239575      0              0              0            
    562000   299.1784      -1192.0144      221.46217     -970.55219     -588.33149      14.96135       14.96135       14.96135       0              0              0            
    563000   334.13355     -1185.8828      247.33718     -938.54562     -1217.2587      15.21591       15.21591       15.21591       0              0              0            
    564000   293.20286     -1201.1585      217.03887     -984.11964     -843.00345      14.877144      14.877144      14.877144      0              0              0            
    565000   306.65382     -1224.9374      226.99574     -997.94169     -1817.4099      15.083424      15.083424      15.083424      0              0              0            
    566000   302.46425     -1201.1038      223.89447     -977.20934      1467.0244      14.929115      14.929115      14.929115      0              0              0            
    567000   283.01387     -1224.0933      209.49663     -1014.5967      77.748161      14.687379      14.687379      14.687379      0              0              0            
    568000   292.72652     -1213.2857      216.68627     -996.59941      1049.5592      14.753082      14.753082      14.753082      0              0              0            
    569000   305.87691     -1200.6139      226.42064     -974.19324      739.04055      14.729217      14.729217      14.729217      0              0              0            
    570000   296.06093     -1210.4166      219.15452     -991.26209      1752.8203      14.913296      14.913296      14.913296      0              0              0            
    571000   290.31543     -1201.7139      214.9015      -986.81239      3192.4447      14.982857      14.982857      14.982857      0              0              0            
    572000   290.53481     -1209.6276      215.06389     -994.56368     -2698.3398      15.158303      15.158303      15.158303      0              0              0            
    573000   302.08597     -1225.9772      223.61445     -1002.3627      900.79881      15.101164      15.101164      15.101164      0              0              0            
    574000   297.42696     -1192.2193      220.1657      -972.05356     -1316.4206      15.432378      15.432378      15.432378      0              0              0            
    575000   284.02754     -1195.1016      210.24698     -984.85462     -3.8985568      15.030266      15.030266      15.030266      0              0              0            
    576000   317.14206     -1191.5921      234.75949     -956.83264     -649.21254      15.123059      15.123059      15.123059      0              0              0            
    577000   269.62187     -1186.8558      199.58341     -987.27239     -1135.7363      15.121221      15.121221      15.121221      0              0              0            
    578000   295.95804     -1188.1336      219.07835     -969.05526     -1056.7066      15.117712      15.117712      15.117712      0              0              0            
    579000   266.29171     -1200.6826      197.11831     -1003.5643     -228.26729      15.143612      15.143612      15.143612      0              0              0            
    580000   310.35847     -1201.1948      229.73805     -971.45677     -756.29759      15.125467      15.125467      15.125467      0              0              0            
    581000   308.9396      -1206.4354      228.68775     -977.7477      -1201.4814      15.075656      15.075656      15.075656      0              0              0            
    582000   301.21357     -1167.0081      222.96868     -944.0394      -52.200992      15.159873      15.159873      15.159873      0              0              0            
    583000   285.25886     -1164.3682      211.15845     -953.20972     -671.15537      15.19952       15.19952       15.19952       0              0              0            
    584000   314.94726     -1224.4399      233.13483     -991.30508     -662.74245      15.073768      15.073768      15.073768      0              0              0            
    585000   319.72702     -1203.8502      236.67297     -967.17727      1032.1941      14.924483      14.924483      14.924483      0              0              0            
    586000   288.93947     -1173.0843      213.88296     -959.20138     -564.02691      15.208188      15.208188      15.208188      0              0              0            
    587000   328.43114     -1202.9652      243.11606     -959.84913      981.58596      14.73011       14.73011       14.73011       0              0              0            
    588000   277.38013     -1176.4479      205.32634     -971.12159      216.31811      15.032662      15.032662      15.032662      0              0              0            
    589000   306.38198     -1180.7849      226.79451     -953.99041     -554.25506      15.391694      15.391694      15.391694      0              0              0            
    590000   317.01193     -1190.2676      234.66317     -955.60448      1546.1899      14.795101      14.795101      14.795101      0              0              0            
    591000   285.87837     -1218.405       211.61703     -1006.788       853.75857      15.031454      15.031454      15.031454      0              0              0            
    592000   299.84947     -1202.8213      221.95892     -980.86234     -211.68243      14.977627      14.977627      14.977627      0              0              0            
    593000   295.90165     -1199.5669      219.03661     -980.53028      807.42614      15.107079      15.107079      15.107079      0              0              0            
    594000   289.9021      -1227.8235      214.59554     -1013.228       1190.8365      14.896053      14.896053      14.896053      0              0              0            
    595000   310.3208      -1187.9359      229.71016     -958.22578      428.02595      15.030084      15.030084      15.030084      0              0              0            
    596000   304.59042     -1187.5898      225.46834     -962.1215       7.5466287      14.826798      14.826798      14.826798      0              0              0            
    597000   287.23169     -1206.2164      212.6188      -993.59763      868.44558      14.870727      14.870727      14.870727      0              0              0            
    598000   337.73973     -1190.3346      250.0066      -940.32801     -1417.4985      15.207996      15.207996      15.207996      0              0              0            
    599000   299.11044     -1192.5408      221.41187     -971.12891     -16.208458      15.175093      15.175093      15.175093      0              0              0            
    600000   291.51424     -1179.1182      215.7889      -963.32935      1978.3694      14.956367      14.956367      14.956367      0              0              0            
    601000   274.99261     -1190.2544      203.55902     -986.69535     -1501.2296      15.218163      15.218163      15.218163      0              0              0            
    602000   272.48161     -1194.3182      201.70029     -992.61789     -1067.0593      15.12218       15.12218       15.12218       0              0              0            
    603000   297.51591     -1177.0176      220.23154     -956.7861      -852.3534       14.903307      14.903307      14.903307      0              0              0            
    604000   315.7512      -1219.9105      233.72993     -986.18055      569.626        15.151834      15.151834      15.151834      0              0              0            
    605000   276.57399     -1215.7391      204.72961     -1011.0095     -723.18136      15.123313      15.123313      15.123313      0              0              0            
    606000   313.47734     -1217.3085      232.04674     -985.26177     -375.24472      14.969712      14.969712      14.969712      0              0              0            
    607000   304.33711     -1207.4675      225.28083     -982.18666      298.25633      14.863626      14.863626      14.863626      0              0              0            
    608000   303.27731     -1202.2776      224.49632     -977.78129     -167.74331      14.999789      14.999789      14.999789      0              0              0            
    609000   321.84288     -1194.5135      238.23921     -956.27432      804.82818      15.197293      15.197293      15.197293      0              0              0            
    610000   292.49312     -1212.2064      216.5135      -995.6929      -378.39985      14.801259      14.801259      14.801259      0              0              0            
    611000   283.0414      -1202.9379      209.51701     -993.42086     -267.5599       15.019234      15.019234      15.019234      0              0              0            
    612000   296.90119     -1196.0354      219.7765      -976.25891     -653.16858      15.053256      15.053256      15.053256      0              0              0            
    613000   309.0794      -1214.1671      228.79123     -985.37586     -923.07596      15.065984      15.065984      15.065984      0              0              0            
    614000   315.49101     -1183.1367      233.53733     -949.59937      1276.4516      14.925486      14.925486      14.925486      0              0              0            
    615000   303.53681     -1173.2655      224.68842     -948.57705      333.01441      15.176614      15.176614      15.176614      0              0              0            
    616000   280.4101      -1175.8836      207.56923     -968.31435      128.56557      15.203519      15.203519      15.203519      0              0              0            
    617000   289.50022     -1187.3477      214.29805     -973.04969     -307.97008      15.057461      15.057461      15.057461      0              0              0            
    618000   302.50822     -1218.0156      223.92702     -994.08857     -934.9457       15.20407       15.20407       15.20407       0              0              0            
    619000   290.83287     -1152.919       215.28452     -937.63452     -1224.7548      14.970238      14.970238      14.970238      0              0              0            
    620000   316.89923     -1192.0643      234.57974     -957.48453     -231.52885      15.076946      15.076946      15.076946      0              0              0            
    621000   286.5431      -1197.0901      212.10909     -984.98099      1417.2513      14.890517      14.890517      14.890517      0              0              0            
    622000   356.82575     -1197.3219      264.13473     -933.18721     -614.1903       15.18265       15.18265       15.18265       0              0              0            
    623000   316.6893      -1214.4419      234.42435     -980.0176      -1235.8832      14.976366      14.976366      14.976366      0              0              0            
    624000   311.4047      -1207.5595      230.5125      -977.04696     -959.03164      15.017786      15.017786      15.017786      0              0              0            
    625000   290.67234     -1158.4071      215.16569     -943.24139     -1014.2332      15.460784      15.460784      15.460784      0              0              0            
    626000   280.11435     -1204.1747      207.3503      -996.82438      1798.7461      14.919997      14.919997      14.919997      0              0              0            
    627000   267.3385      -1209.3747      197.89318     -1011.4815      682.90164      15.198466      15.198466      15.198466      0              0              0            
    628000   302.47266     -1230.8248      223.90069     -1006.9241     -403.17851      14.879513      14.879513      14.879513      0              0              0            
    629000   292.10564     -1209.696       216.22667     -993.46931     -1431.3667      15.064876      15.064876      15.064876      0              0              0            
    630000   317.96414     -1202.1497      235.36802     -966.7817      -806.30645      14.928515      14.928515      14.928515      0              0              0            
    631000   327.66797     -1243.6316      242.55113     -1001.0805      180.91382      14.835376      14.835376      14.835376      0              0              0            
    632000   296.24852     -1233.5161      219.29337     -1014.2227      532.22953      15.080846      15.080846      15.080846      0              0              0            
    633000   319.78102     -1250.0745      236.71295     -1013.3615     -1565.3993      14.833666      14.833666      14.833666      0              0              0            
    634000   333.59151     -1215.4702      246.93595     -968.53429      196.77021      15.010338      15.010338      15.010338      0              0              0            
    635000   301.05861     -1185.9819      222.85397     -963.12797      407.34611      15.013899      15.013899      15.013899      0              0              0            
    636000   302.29318     -1209.1321      223.76784     -985.36422     -2487.7195      15.277181      15.277181      15.277181      0              0              0            
    637000   307.09208     -1194.0604      227.32015     -966.7403      -2607.0639      15.331478      15.331478      15.331478      0              0              0            
    638000   298.99791     -1191.9639      221.32856     -970.63536      1908.1843      14.990514      14.990514      14.990514      0              0              0            
    639000   300.26253     -1208.8665      222.26468     -986.60182      2244.5348      15.054341      15.054341      15.054341      0              0              0            
    640000   291.22486     -1199.2163      215.57469     -983.64166      2417.5426      14.801658      14.801658      14.801658      0              0              0            
    641000   312.89834     -1200.9255      231.61815     -969.30738     -1063.6221      15.119467      15.119467      15.119467      0              0              0            
    642000   280.97841     -1182.0656      207.98991     -974.07567      897.88884      14.960842      14.960842      14.960842      0              0              0            
    643000   314.21074     -1184.6411      232.58963     -952.05142      1307.652       15.267576      15.267576      15.267576      0              0              0            
    644000   302.971       -1187.8408      224.26959     -963.57119      2954.9761      15.053011      15.053011      15.053011      0              0              0            
    645000   286.71122     -1234.8867      212.23354     -1022.6531      2188.0796      14.740961      14.740961      14.740961      0              0              0            
    646000   314.99103     -1210.1898      233.16723     -977.02261     -54.085039      15.11494       15.11494       15.11494       0              0              0            
    647000   302.00488     -1199.673       223.55443     -976.11857     -87.752561      14.85645       14.85645       14.85645       0              0              0            
    648000   273.47696     -1181.2684      202.43708     -978.8313      -760.36816      14.959553      14.959553      14.959553      0              0              0            
    649000   305.86108     -1198.1576      226.40892     -971.74864     -844.40644      14.905202      14.905202      14.905202      0              0              0            
    650000   314.3094      -1191.085       232.66266     -958.42229     -705.01756      14.916574      14.916574      14.916574      0              0              0            
    651000   307.1788      -1179.7983      227.38434     -952.41397     -1137.7348      15.394694      15.394694      15.394694      0              0              0            
    652000   301.42981     -1166.8421      223.12874     -943.71333      393.70231      15.198912      15.198912      15.198912      0              0              0            
    653000   318.38409     -1189.995       235.67888     -954.31615      768.20038      15.058631      15.058631      15.058631      0              0              0            
    654000   281.35247     -1190.4071      208.2668      -982.14035     -1035.4797      15.106505      15.106505      15.106505      0              0              0            
    655000   314.37433     -1209.9114      232.71072     -977.20072     -2129.066       15.041389      15.041389      15.041389      0              0              0            
    656000   299.33741     -1197.0166      221.57987     -975.43672      507.34025      14.887199      14.887199      14.887199      0              0              0            
    657000   293.58399     -1184.4035      217.321       -967.08253      153.02874      15.034356      15.034356      15.034356      0              0              0            
    658000   303.9327      -1235.2314      224.98147     -1010.2499      192.63844      15.007319      15.007319      15.007319      0              0              0            
    659000   302.03415     -1188.7328      223.5761      -965.15668     -369.30931      15.381712      15.381712      15.381712      0              0              0            
    660000   298.67857     -1219.4337      221.09218     -998.34157     -321.07321      14.998829      14.998829      14.998829      0              0              0            
    661000   291.76898     -1184.8975      215.97746     -968.91999     -1188.6822      15.113212      15.113212      15.113212      0              0              0            
    662000   307.22799     -1201.0142      227.42076     -973.59348     -390.04344      15.244846      15.244846      15.244846      0              0              0            
    663000   313.20224     -1191.3408      231.84311     -959.49765     -813.25186      15.008837      15.008837      15.008837      0              0              0            
    664000   290.96267     -1202.9571      215.38061     -987.57653     -285.02449      15.033947      15.033947      15.033947      0              0              0            
    665000   272.62402     -1184.8514      201.80571     -983.04569      507.55437      15.006423      15.006423      15.006423      0              0              0            
    666000   296.60294     -1212.0608      219.55573     -992.50504     -2114.0854      15.008041      15.008041      15.008041      0              0              0            
    667000   314.1878      -1225.8213      232.57264     -993.24867      1931.1504      14.842292      14.842292      14.842292      0              0              0            
    668000   297.71831     -1213.7939      220.38136     -993.41254     -310.63587      15.018744      15.018744      15.018744      0              0              0            
    669000   274.80662     -1177.9827      203.42134     -974.56135     -257.05143      15.02175       15.02175       15.02175       0              0              0            
    670000   308.50646     -1182.4304      228.36712     -954.06328      43.742641      15.188074      15.188074      15.188074      0              0              0            
    671000   292.04209     -1187.9666      216.17963     -971.78694     -1410.619       15.103768      15.103768      15.103768      0              0              0            
    672000   294.22461     -1208.5572      217.7952      -990.76198      212.9401       14.760498      14.760498      14.760498      0              0              0            
    673000   313.20922     -1192.7581      231.84827     -960.90986      838.04442      14.711511      14.711511      14.711511      0              0              0            
    674000   302.35534     -1188.4525      223.81385     -964.63864      1454.8282      15.111272      15.111272      15.111272      0              0              0            
    675000   284.29726     -1198.0477      210.44664     -987.60104     -1061.5702      14.945311      14.945311      14.945311      0              0              0            
    676000   290.2282      -1247.5453      214.83692     -1032.7083     -917.92704      14.83682       14.83682       14.83682       0              0              0            
    677000   346.18524     -1222.4245      256.25826     -966.16627      946.44777      14.86342       14.86342       14.86342       0              0              0            
    678000   304.65325     -1211.1524      225.51484     -985.63756      452.99708      14.779327      14.779327      14.779327      0              0              0            
    679000   308.85915     -1229.0181      228.6282      -1000.3899     -1463.214       14.775298      14.775298      14.775298      0              0              0            
    680000   322.92634     -1186.9784      239.04122     -947.93714     -431.77626      15.192257      15.192257      15.192257      0              0              0            
    681000   303.90292     -1192.0382      224.95943     -967.07878      34.077676      14.999348      14.999348      14.999348      0              0              0            
    682000   303.97859     -1202.6856      225.01544     -977.67013      385.85063      15.052739      15.052739      15.052739      0              0              0            
    683000   290.04866     -1207.4418      214.70402     -992.73778      689.6175       14.759434      14.759434      14.759434      0              0              0            
    684000   273.79562     -1189.4917      202.67296     -986.8187      -1046.8514      14.840943      14.840943      14.840943      0              0              0            
    685000   296.83952     -1181.6946      219.73085     -961.96374      3408.7529      14.936365      14.936365      14.936365      0              0              0            
    686000   282.29358     -1177.2917      208.96344     -968.32828     -47.315928      15.099651      15.099651      15.099651      0              0              0            
    687000   301.85336     -1175.2952      223.44227     -951.85295      1775.2672      14.975148      14.975148      14.975148      0              0              0            
    688000   301.89096     -1232.1494      223.4701      -1008.6793     -42.036906      14.752339      14.752339      14.752339      0              0              0            
    689000   267.01277     -1227.7292      197.65206     -1030.0772      2200.2492      15.045426      15.045426      15.045426      0              0              0            
    690000   280.16531     -1210.0837      207.38803     -1002.6957     -2649.1745      15.159131      15.159131      15.159131      0              0              0            
    691000   302.30406     -1213.8149      223.7759      -990.03896     -37.282821      15.072626      15.072626      15.072626      0              0              0            
    692000   277.8045      -1192.0796      205.64048     -986.43917      184.08126      14.710495      14.710495      14.710495      0              0              0            
    693000   278.10728     -1209.3044      205.8646      -1003.4398     -479.59682      14.927009      14.927009      14.927009      0              0              0            
    694000   278.74994     -1237.4107      206.34032     -1031.0704      123.62741      14.980279      14.980279      14.980279      0              0              0            
    695000   306.35046     -1224.1543      226.77118     -997.38308     -511.19549      14.810041      14.810041      14.810041      0              0              0            
    696000   311.96571     -1228.7694      230.92778     -997.84167     -307.55562      15.120179      15.120179      15.120179      0              0              0            
    697000   312.6594      -1204.7074      231.44127     -973.26611      1053.4454      14.993854      14.993854      14.993854      0              0              0            
    698000   309.12473     -1205.9113      228.82479     -977.08655      1041.0733      14.874825      14.874825      14.874825      0              0              0            
    699000   306.36997     -1198.2642      226.78562     -971.47857      2141.104       14.971358      14.971358      14.971358      0              0              0            
    700000   302.86413     -1205.7529      224.19048     -981.56244      632.44689      14.737125      14.737125      14.737125      0              0              0            
    701000   311.21099     -1205.7899      230.36911     -975.4208       53.998467      14.758473      14.758473      14.758473      0              0              0            
    702000   314.043       -1212.0612      232.46546     -979.59576     -1423.9553      14.872784      14.872784      14.872784      0              0              0            
    703000   293.41925     -1190.1409      217.19905     -972.9418       1149.0197      14.942123      14.942123      14.942123      0              0              0            
    704000   306.5306      -1216.1127      226.90453     -989.20813      497.04168      14.944977      14.944977      14.944977      0              0              0            
    705000   309.42514     -1182.6373      229.04717     -953.59017      270.90067      15.160601      15.160601      15.160601      0              0              0            
    706000   292.69535     -1182.785       216.6632      -966.12178     -712.56167      15.095872      15.095872      15.095872      0              0              0            
    707000   292.74157     -1215.258       216.69741     -998.56056     -2236.7229      15.252965      15.252965      15.252965      0              0              0            
    708000   332.44221     -1214.517       246.08519     -968.43186      66.873167      14.910459      14.910459      14.910459      0              0              0            
    709000   313.55309     -1221.6614      232.10281     -989.55855     -1000.9679      15.055905      15.055905      15.055905      0              0              0            
    710000   320.84439     -1202.2452      237.50009     -964.74509     -1467.178       14.93801       14.93801       14.93801       0              0              0            
    711000   325.04136     -1209.2649      240.60683     -968.65805     -1171.549       14.955855      14.955855      14.955855      0              0              0            
    712000   279.73584     -1183.9513      207.07012     -976.88117     -894.24719      15.07471       15.07471       15.07471       0              0              0            
    713000   312.14157     -1205.1504      231.05796     -974.09248     -2720.981       15.09717       15.09717       15.09717       0              0              0            
    714000   294.38443     -1204.1335      217.91351     -986.22003     -2183.6036      15.059925      15.059925      15.059925      0              0              0            
    715000   294.81714     -1186.1767      218.23382     -967.94289      3253.048       15.102236      15.102236      15.102236      0              0              0            
    716000   285.39267     -1215.7178      211.2575      -1004.4603      1437.1134      14.833775      14.833775      14.833775      0              0              0            
    717000   283.21967     -1194.3962      209.64897     -984.74727     -421.5816       14.866701      14.866701      14.866701      0              0              0            
    718000   290.8218      -1192.0338      215.27633     -976.75748     -1611.4425      15.050591      15.050591      15.050591      0              0              0            
    719000   307.55241     -1219.6046      227.6609      -991.94373      1246.4779      15.05888       15.05888       15.05888       0              0              0            
    720000   289.58947     -1194.8192      214.36412     -980.45511     -3292.6798      15.050797      15.050797      15.050797      0              0              0            
    721000   340.08237     -1199.873       251.7407      -948.13231     -121.06989      14.890548      14.890548      14.890548      0              0              0            
    722000   297.83927     -1203.5123      220.4709      -983.04135      57.185083      15.033115      15.033115      15.033115      0              0              0            
    723000   284.17004     -1242.6682      210.35247     -1032.3157     -927.35567      14.933924      14.933924      14.933924      0              0              0            
    724000   269.31849     -1217.1537      199.35884     -1017.7949      629.22399      15.045975      15.045975      15.045975      0              0              0            
    725000   303.56893     -1208.2891      224.71219     -983.57686      248.48059      14.860328      14.860328      14.860328      0              0              0            
    726000   279.48167     -1194.6131      206.88197     -987.73113      606.55926      14.919664      14.919664      14.919664      0              0              0            
    727000   288.85639     -1220.1059      213.82146     -1006.2844     -689.25648      15.041923      15.041923      15.041923      0              0              0            
    728000   296.02729     -1202.6922      219.12961     -983.56264     -920.95703      14.910727      14.910727      14.910727      0              0              0            
    729000   293.1539      -1214.4304      217.00263     -997.42774     -1175.1355      14.745319      14.745319      14.745319      0              0              0            
    730000   313.53001     -1202.0416      232.08573     -969.95588     -294.95289      14.935225      14.935225      14.935225      0              0              0            
    731000   306.44096     -1223.0721      226.83817     -996.23392      341.5952       14.969864      14.969864      14.969864      0              0              0            
    732000   299.6364      -1222.0198      221.8012      -1000.2186      455.30624      14.899407      14.899407      14.899407      0              0              0            
    733000   313.67074     -1198.5129      232.1899      -966.32299     -169.16342      14.958093      14.958093      14.958093      0              0              0            
    734000   329.47156     -1216.9093      243.88621     -973.02312     -2078.1406      15.006219      15.006219      15.006219      0              0              0            
    735000   321.03586     -1201.3634      237.64182     -963.72156      133.35503      14.888794      14.888794      14.888794      0              0              0            
    736000   325.98933     -1225.443       241.30855     -984.13448     -1492.85        14.884472      14.884472      14.884472      0              0              0            
    737000   309.98146     -1225.2934      229.45897     -995.83442      1120.1643      15.058984      15.058984      15.058984      0              0              0            
    738000   308.70921     -1203.4113      228.5172      -974.89406     -817.61189      15.153987      15.153987      15.153987      0              0              0            
    739000   299.21808     -1220.2657      221.49155     -998.77416      263.23763      15.135664      15.135664      15.135664      0              0              0            
    740000   310.96112     -1198.4977      230.18415     -968.31358     -93.708767      15.018739      15.018739      15.018739      0              0              0            
    741000   320.03451     -1162.1209      236.90059     -925.22034      1161.4161      14.889555      14.889555      14.889555      0              0              0            
    742000   279.07534     -1218.9791      206.58119     -1012.3979     -1202.2762      14.801029      14.801029      14.801029      0              0              0            
    743000   305.30113     -1232.3552      225.99443     -1006.3607      798.93539      14.917189      14.917189      14.917189      0              0              0            
    744000   305.36497     -1211.6562      226.04169     -985.61453      484.92567      14.913852      14.913852      14.913852      0              0              0            
    745000   286.3141      -1209.0257      211.93957     -997.08612      1473.6654      14.864055      14.864055      14.864055      0              0              0            
    746000   293.91633     -1192.3812      217.56701     -974.81422      2133.096       15.011437      15.011437      15.011437      0              0              0            
    747000   305.84678     -1164.2448      226.39834     -937.84649     -992.35701      15.136678      15.136678      15.136678      0              0              0            
    748000   316.03556     -1220.571       233.94042     -986.63058     -103.19354      14.898459      14.898459      14.898459      0              0              0            
    749000   289.39923     -1208.1414      214.22329     -993.91807      475.04909      15.086051      15.086051      15.086051      0              0              0            
    750000   290.37444     -1233.6684      214.94518     -1018.7232      2017.3661      14.897435      14.897435      14.897435      0              0              0            
    751000   293.36657     -1234.9228      217.16006     -1017.7628     -2143.2389      15.272034      15.272034      15.272034      0              0              0            
    752000   292.85228     -1217.2283      216.77936     -1000.4489      995.56016      14.95894       14.95894       14.95894       0              0              0            
    753000   288.12971     -1232.5366      213.28355     -1019.2531     -819.51989      14.950928      14.950928      14.950928      0              0              0            
    754000   290.66541     -1192.7734      215.16056     -977.61286      2084.477       14.942206      14.942206      14.942206      0              0              0            
    755000   335.1161      -1213.2333      248.06449     -965.16876      328.13697      14.748147      14.748147      14.748147      0              0              0            
    756000   290.88436     -1184.7661      215.32264     -969.44342      650.19069      15.173229      15.173229      15.173229      0              0              0            
    757000   289.02196     -1217.0386      213.94403     -1003.0946     -821.0301       14.953301      14.953301      14.953301      0              0              0            
    758000   294.70607     -1205.0235      218.1516      -986.87193     -808.33683      14.823761      14.823761      14.823761      0              0              0            
    759000   289.76268     -1234.4276      214.49233     -1019.9353     -454.43502      14.926291      14.926291      14.926291      0              0              0            
    760000   307.99182     -1215.2454      227.98617     -987.25918     -926.6756       14.863861      14.863861      14.863861      0              0              0            
    761000   333.71544     -1187.973       247.02768     -940.94533     -306.00445      14.89093       14.89093       14.89093       0              0              0            
    762000   293.74761     -1219.7537      217.44211     -1002.3116     -2294.4624      14.938607      14.938607      14.938607      0              0              0            
    763000   272.05919     -1198.0194      201.3876      -996.63179      1561.7587      14.935603      14.935603      14.935603      0              0              0            
    764000   280.39876     -1219.1978      207.56083     -1011.637       2814.5633      14.71208       14.71208       14.71208       0              0              0            
    765000   325.82532     -1232.3616      241.18714     -991.17449      1985.0012      14.915817      14.915817      14.915817      0              0              0            
    766000   311.55364     -1208.7534      230.62275     -978.13069      3011.3668      14.791938      14.791938      14.791938      0              0              0            
    767000   318.01971     -1211.139       235.40916     -975.72979     -743.28904      14.961473      14.961473      14.961473      0              0              0            
    768000   323.49682     -1224.5544      239.46351     -985.09087     -1231.0781      14.981064      14.981064      14.981064      0              0              0            
    769000   272.79815     -1208.1249      201.9346      -1006.1903      712.05367      14.944387      14.944387      14.944387      0              0              0            
    770000   296.19048     -1218.3397      219.25041     -999.08932      760.77872      14.889377      14.889377      14.889377      0              0              0            
    771000   284.6123      -1221.1317      210.67984     -1010.4519     -511.41727      15.216315      15.216315      15.216315      0              0              0            
    772000   312.28508     -1204.9668      231.16419     -973.80259      803.20454      14.864345      14.864345      14.864345      0              0              0            
    773000   300.62472     -1220.6945      222.53279     -998.16173     -1964.8574      14.870727      14.870727      14.870727      0              0              0            
    774000   300.07108     -1225.118       222.12297     -1002.995      -53.794733      15.07678       15.07678       15.07678       0              0              0            
    775000   308.28387     -1208.7647      228.20236     -980.5623      -1134.3638      14.920075      14.920075      14.920075      0              0              0            
    776000   295.2479      -1204.6259      218.55268     -986.07321     -1013.0541      14.998449      14.998449      14.998449      0              0              0            
    777000   309.06939     -1211.0912      228.78383     -982.30735      1145.1032      15.065525      15.065525      15.065525      0              0              0            
    778000   291.76959     -1209.4413      215.97792     -993.46342      1177.3274      14.943138      14.943138      14.943138      0              0              0            
    779000   301.312       -1222.222       223.04154     -999.18041     -50.191875      15.045132      15.045132      15.045132      0              0              0            
    780000   279.50787     -1197.9772      206.90137     -991.07582     -1538.7094      15.022705      15.022705      15.022705      0              0              0            
    781000   301.92209     -1217.2795      223.49315     -993.78637     -1119.6238      15.106059      15.106059      15.106059      0              0              0            
    782000   285.63618     -1225.4732      211.43776     -1014.0354      260.71243      14.816876      14.816876      14.816876      0              0              0            
    783000   313.36752     -1216.0011      231.96545     -984.03565     -282.6901       15.032434      15.032434      15.032434      0              0              0            
    784000   297.34676     -1197.8711      220.10633     -977.76477      1146.5017      14.820148      14.820148      14.820148      0              0              0            
    785000   293.72438     -1194.753       217.42492     -977.32813      1081.1518      14.907633      14.907633      14.907633      0              0              0            
    786000   318.32535     -1225.8953      235.63541     -990.25992     -749.88586      15.016791      15.016791      15.016791      0              0              0            
    787000   303.46172     -1246.5915      224.63284     -1021.9587      37.43633       15.090411      15.090411      15.090411      0              0              0            
    788000   284.15353     -1202.442       210.34024     -992.10176      180.38837      15.092051      15.092051      15.092051      0              0              0            
    789000   288.9288      -1204.4327      213.87506     -990.55766      57.517306      14.74317       14.74317       14.74317       0              0              0            
    790000   311.93101     -1215.5438      230.9021      -984.64174      1336.3285      14.933963      14.933963      14.933963      0              0              0            
    791000   330.92224     -1192.9485      244.96006     -947.98845      645.26512      14.999096      14.999096      14.999096      0              0              0            
    792000   305.56966     -1182.5291      226.1932      -956.33586      818.73479      14.966448      14.966448      14.966448      0              0              0            
    793000   330.73553     -1180.9817      244.82185     -936.1599      -895.28365      15.251381      15.251381      15.251381      0              0              0            
    794000   306.75307     -1194.2046      227.0692      -967.1354      -393.56175      15.088944      15.088944      15.088944      0              0              0            
    795000   279.91269     -1183.8967      207.20103     -976.69567      643.18278      15.065317      15.065317      15.065317      0              0              0            
    796000   281.15485     -1208.7339      208.12052     -1000.6134      457.53013      14.883007      14.883007      14.883007      0              0              0            
    797000   312.03111     -1211.7886      230.97619     -980.81245     -180.4543       14.98963       14.98963       14.98963       0              0              0            
    798000   302.81022     -1196.9881      224.15057     -972.83754     -2890.2927      15.119866      15.119866      15.119866      0              0              0            
    799000   266.02345     -1205.9494      196.91973     -1009.0296      876.16354      14.821954      14.821954      14.821954      0              0              0            
    800000   321.91908     -1233.6945      238.29561     -995.39892      974.68154      14.852519      14.852519      14.852519      0              0              0            
    801000   293.8284      -1223.0959      217.50192     -1005.594       2062.5184      14.947539      14.947539      14.947539      0              0              0            
    802000   282.46291     -1218.2791      209.08879     -1009.1903     -1342.3371      15.100149      15.100149      15.100149      0              0              0            
    803000   305.09733     -1227.7121      225.84357     -1001.8685     -640.30936      14.889102      14.889102      14.889102      0              0              0            
    804000   285.70617     -1179.1781      211.48956     -967.6885      -594.6552       15.084655      15.084655      15.084655      0              0              0            
    805000   271.61354     -1189.328       201.05772     -988.27029      871.11224      14.78898       14.78898       14.78898       0              0              0            
    806000   314.54048     -1210.3         232.83371     -977.46632      2205.5266      14.872351      14.872351      14.872351      0              0              0            
    807000   304.24808     -1235.4808      225.21493     -1010.2659      80.105161      15.038006      15.038006      15.038006      0              0              0            
    808000   318.50995     -1179.6761      235.77205     -943.90401     -517.21941      15.195557      15.195557      15.195557      0              0              0            
    809000   302.9828      -1206.0686      224.27832     -981.79031      420.55791      14.949974      14.949974      14.949974      0              0              0            
    810000   290.73775     -1207.3151      215.21411     -992.101       -1238.863       15.169658      15.169658      15.169658      0              0              0            
    811000   275.30256     -1181.8897      203.78845     -978.10126     -1523.6081      14.89749       14.89749       14.89749       0              0              0            
    812000   307.24957     -1222.1042      227.43673     -994.6675       945.20361      14.861679      14.861679      14.861679      0              0              0            
    813000   311.9997      -1188.3403      230.95294     -957.38737      603.34395      15.148855      15.148855      15.148855      0              0              0            
    814000   270.26148     -1212.6453      200.05687     -1012.5885     -1275.8052      14.789876      14.789876      14.789876      0              0              0            
    815000   288.41501     -1186.1328      213.49474     -972.63808      125.55511      14.969868      14.969868      14.969868      0              0              0            
    816000   309.41975     -1223.2312      229.04318     -994.18805     -2175.9287      15.029275      15.029275      15.029275      0              0              0            
    817000   286.49765     -1161.5972      212.07545     -949.52172     -876.46262      15.112688      15.112688      15.112688      0              0              0            
    818000   272.1579      -1217.3707      201.46067     -1015.91       -768.78692      14.920833      14.920833      14.920833      0              0              0            
    819000   298.42184     -1218.2711      220.90214     -997.36899     -1022.71        15.063614      15.063614      15.063614      0              0              0            
    820000   297.57747     -1193.9667      220.27711     -973.68958      1095.9819      14.977093      14.977093      14.977093      0              0              0            
    821000   321.72535     -1209.9777      238.1522      -971.82554     -161.4878       14.903182      14.903182      14.903182      0              0              0            
    822000   301.55358     -1204.3038      223.22036     -981.08344      81.122033      15.041147      15.041147      15.041147      0              0              0            
    823000   285.94621     -1193.8105      211.66725     -982.1433      -307.8459       15.177088      15.177088      15.177088      0              0              0            
    824000   279.06319     -1177.1826      206.5722      -970.61044      282.1177       15.10073       15.10073       15.10073       0              0              0            
    825000   286.43932     -1218.3671      212.03227     -1006.3348     -538.90144      15.09379       15.09379       15.09379       0              0              0            
    826000   298.45183     -1206.6646      220.92434     -985.74022      226.26107      14.74112       14.74112       14.74112       0              0              0            
    827000   299.13078     -1216.7337      221.42693     -995.30682      2016.0558      14.777025      14.777025      14.777025      0              0              0            
    828000   279.67245     -1199.585       207.0232      -992.56181     -863.1854       14.841856      14.841856      14.841856      0              0              0            
    829000   279.27047     -1185.5879      206.72563     -978.86222      45.370534      14.942069      14.942069      14.942069      0              0              0            
    830000   297.00117     -1208.0254      219.85051     -988.17492     -159.04945      15.249811      15.249811      15.249811      0              0              0            
    831000   291.72749     -1216.4573      215.94675     -1000.5106     -730.82973      14.877046      14.877046      14.877046      0              0              0            
    832000   319.71377     -1198.8158      236.66316     -962.15268      1271.2915      14.919084      14.919084      14.919084      0              0              0            
    833000   308.77415     -1206.5404      228.56528     -977.97514     -634.15003      14.882419      14.882419      14.882419      0              0              0            
    834000   313.53928     -1194.2332      232.09259     -962.1406      -103.76232      15.252157      15.252157      15.252157      0              0              0            
    835000   304.10684     -1205.3333      225.11038     -980.22297      262.62303      15.035507      15.035507      15.035507      0              0              0            
    836000   277.19344     -1230.2142      205.18814     -1025.026      -463.47891      14.89267       14.89267       14.89267       0              0              0            
    837000   307.54197     -1206.5333      227.65317     -978.88011     -19.16163       14.916777      14.916777      14.916777      0              0              0            
    838000   307.71762     -1221.1279      227.78319     -993.34472      795.49681      14.877516      14.877516      14.877516      0              0              0            
    839000   306.50778     -1206.6679      226.88763     -979.7803       167.01778      14.945957      14.945957      14.945957      0              0              0            
    840000   288.2656      -1236.6573      213.38414     -1023.2732      1440.1938      14.943761      14.943761      14.943761      0              0              0            
    841000   287.85659     -1178.6107      213.08138     -965.52928     -1307.5177      14.96398       14.96398       14.96398       0              0              0            
    842000   271.97383     -1209.1268      201.32441     -1007.8024      1482.471       14.724088      14.724088      14.724088      0              0              0            
    843000   283.12689     -1229.8103      209.58029     -1020.2301      1515.7491      14.792568      14.792568      14.792568      0              0              0            
    844000   306.87653     -1207.9379      227.16059     -980.77733     -139.25522      15.158333      15.158333      15.158333      0              0              0            
    845000   286.33945     -1194.5443      211.95834     -982.58597     -1123.995       14.931315      14.931315      14.931315      0              0              0            
    846000   311.05612     -1192.2073      230.25447     -961.95281     -1681.8867      15.010999      15.010999      15.010999      0              0              0            
    847000   292.93559     -1181.5988      216.84103     -964.75779     -73.443939      15.120543      15.120543      15.120543      0              0              0            
    848000   300.14048     -1197.6072      222.17433     -975.43285      230.59763      15.054274      15.054274      15.054274      0              0              0            
    849000   291.84922     -1182.315       216.03686     -966.27816     -1319.2425      15.173886      15.173886      15.173886      0              0              0            
    850000   324.24374     -1194.1734      240.0164      -954.15698      1359.6866      14.795686      14.795686      14.795686      0              0              0            
    851000   287.42463     -1193.1333      212.76162     -980.37172      1585.9233      14.986096      14.986096      14.986096      0              0              0            
    852000   316.58742     -1227.7078      234.34893     -993.35883      132.75406      14.827881      14.827881      14.827881      0              0              0            
    853000   291.7983      -1208.3486      215.99917     -992.34945     -727.08933      15.296069      15.296069      15.296069      0              0              0            
    854000   291.96617     -1198.7348      216.12343     -982.61138     -2095.3439      15.192568      15.192568      15.192568      0              0              0            
    855000   294.77454     -1182.3169      218.20228     -964.11461      257.20945      15.053374      15.053374      15.053374      0              0              0            
    856000   314.55293     -1206.1771      232.84293     -973.33413     -294.72693      14.988446      14.988446      14.988446      0              0              0            
    857000   319.92864     -1215.0421      236.82222     -978.21991      68.932765      15.027216      15.027216      15.027216      0              0              0            
    858000   312.03875     -1204.8057      230.98184     -973.82391      1466.6403      15.022917      15.022917      15.022917      0              0              0            
    859000   318.52019     -1214.7594      235.77963     -978.97977      1187.789       14.996434      14.996434      14.996434      0              0              0            
    860000   288.1375      -1152.7862      213.28932     -939.49693      108.93505      15.108716      15.108716      15.108716      0              0              0            
    861000   310.41036     -1189.575       229.77645     -959.79854      275.98511      15.046863      15.046863      15.046863      0              0              0            
    862000   295.73153     -1208.4452      218.91068     -989.53451     -1412.7904      15.086723      15.086723      15.086723      0              0              0            
    863000   321.3184      -1190.2412      237.85096     -952.3902      -48.069261      14.99062       14.99062       14.99062       0              0              0            
    864000   295.20789     -1194.4447      218.52307     -975.92165      577.53522      14.77998       14.77998       14.77998       0              0              0            
    865000   321.38812     -1190.2183      237.90258     -952.3157       3007.1131      14.750963      14.750963      14.750963      0              0              0            
    866000   342.14764     -1168.502       253.26949     -915.23254      1947.5899      14.974109      14.974109      14.974109      0              0              0            
    867000   305.32751     -1220.1166      226.01395     -994.10269     -1865.3175      14.982852      14.982852      14.982852      0              0              0            
    868000   311.76238     -1202.6308      230.77727     -971.85356     -560.22771      14.821548      14.821548      14.821548      0              0              0            
    869000   291.61679     -1182.1443      215.86481     -966.27947      821.48398      14.882259      14.882259      14.882259      0              0              0            
    870000   312.54661     -1197.2557      231.35779     -965.89789      252.84844      14.924526      14.924526      14.924526      0              0              0            
    871000   283.15754     -1217.7236      209.60298     -1008.1206     -282.52164      14.940113      14.940113      14.940113      0              0              0            
    872000   279.05877     -1166.7648      206.56893     -960.19585     -386.07549      15.266761      15.266761      15.266761      0              0              0            
    873000   295.63826     -1210.2103      218.84164     -991.36863      222.91324      14.904355      14.904355      14.904355      0              0              0            
    874000   272.82096     -1204.6123      201.95148     -1002.6608      297.91325      15.283369      15.283369      15.283369      0              0              0            
    875000   311.40756     -1200.9999      230.51462     -970.48531      1325.7773      14.849212      14.849212      14.849212      0              0              0            
    876000   287.45858     -1210.2268      212.78675     -997.44008     -437.64686      14.917797      14.917797      14.917797      0              0              0            
    877000   299.15131     -1214.4297      221.44212     -992.98762      209.41519      14.832277      14.832277      14.832277      0              0              0            
    878000   319.21116     -1214.6474      236.29111     -978.35633     -931.49941      14.972156      14.972156      14.972156      0              0              0            
    879000   326.60855     -1209.0533      241.76692     -967.28637     -235.84622      15.250549      15.250549      15.250549      0              0              0            
    880000   291.77458     -1185.7479      215.98161     -969.76627      2722.5745      14.869572      14.869572      14.869572      0              0              0            
    881000   291.67274     -1198.3213      215.90623     -982.41509      456.25542      15.247714      15.247714      15.247714      0              0              0            
    882000   295.11768     -1200.2657      218.45628     -981.80945     -968.89459      14.890601      14.890601      14.890601      0              0              0            
    883000   299.7578      -1170.3925      221.89106     -948.50144     -1717.8595      15.363279      15.363279      15.363279      0              0              0            
    884000   281.32272     -1191.007       208.24478     -982.7622      -924.73916      14.999473      14.999473      14.999473      0              0              0            
    885000   293.2586      -1196.4941      217.08013     -979.41396     -1730.3811      14.968091      14.968091      14.968091      0              0              0            
    886000   308.35587     -1216.0158      228.25565     -987.76016     -139.79799      15.102746      15.102746      15.102746      0              0              0            
    887000   284.86575     -1198.1817      210.86745     -987.31429      1114.7773      14.920682      14.920682      14.920682      0              0              0            
    888000   280.92878     -1211.0677      207.95317     -1003.1146      195.19723      14.906142      14.906142      14.906142      0              0              0            
    889000   280.86415     -1224.2242      207.90533     -1016.3189      1814.2579      14.826071      14.826071      14.826071      0              0              0            
    890000   286.56481     -1229.9156      212.12516     -1017.7905      1338.733       14.994655      14.994655      14.994655      0              0              0            
    891000   321.44475     -1201.7594      237.94449     -963.81493      1112.9549      14.783008      14.783008      14.783008      0              0              0            
    892000   279.54441     -1204.9441      206.92842     -998.01573     -1427.8804      14.881682      14.881682      14.881682      0              0              0            
    893000   301.93647     -1171.6185      223.50379     -948.11467     -1310.484       14.99435       14.99435       14.99435       0              0              0            
    894000   290.17374     -1210.0006      214.79661     -995.20398      1416.5255      15.052741      15.052741      15.052741      0              0              0            
    895000   308.47824     -1203.1698      228.34624     -974.82352     -415.50518      15.057463      15.057463      15.057463      0              0              0            
    896000   286.96675     -1232.7633      212.42268     -1020.3406      2971.0474      14.738843      14.738843      14.738843      0              0              0            
    897000   288.11409     -1192.1714      213.27199     -978.89944      1230.5133      15.094272      15.094272      15.094272      0              0              0            
    898000   274.69663     -1221.464       203.33992     -1018.124       512.76773      14.966437      14.966437      14.966437      0              0              0            
    899000   303.52297     -1212.3563      224.67817     -987.67811      838.56609      15.062495      15.062495      15.062495      0              0              0            
    900000   295.84333     -1191.7046      218.99344     -972.71118      532.39354      14.93335       14.93335       14.93335       0              0              0            
    901000   298.52323     -1223.9501      220.97719     -1002.973      -792.53888      14.828739      14.828739      14.828739      0              0              0            
    902000   314.90018     -1204.3349      233.09997     -971.23489     -1671.1857      15.211853      15.211853      15.211853      0              0              0            
    903000   263.23131     -1200.1423      194.8529      -1005.2894      843.81877      15.05547       15.05547       15.05547       0              0              0            
    904000   279.31749     -1200.6284      206.76044     -993.86795     -160.52585      14.823992      14.823992      14.823992      0              0              0            
    905000   340.81496     -1209.67        252.28299     -957.38705     -541.74628      15.024782      15.024782      15.024782      0              0              0            
    906000   300.26657     -1191.9418      222.26767     -969.67415     -1590.211       15.03429       15.03429       15.03429       0              0              0            
    907000   296.0898      -1188.3201      219.17589     -969.1442       1358.7284      14.892097      14.892097      14.892097      0              0              0            
    908000   301.33807     -1210.7578      223.06083     -987.69693     -565.06065      15.23836       15.23836       15.23836       0              0              0            
    909000   325.11614     -1213.8565      240.66219     -973.19432      79.353003      15.097667      15.097667      15.097667      0              0              0            
    910000   318.39378     -1205.2369      235.68606     -969.55086      736.83704      14.896619      14.896619      14.896619      0              0              0            
    911000   313.74887     -1204.9852      232.24773     -972.73744      313.29413      14.840965      14.840965      14.840965      0              0              0            
    912000   296.86467     -1204.1935      219.74947     -984.44398      211.08524      15.154344      15.154344      15.154344      0              0              0            
    913000   304.99658     -1184.5645      225.76899     -958.79548     -919.0542       15.221286      15.221286      15.221286      0              0              0            
    914000   310.19785     -1188.5678      229.61915     -958.94866     -566.92883      15.108435      15.108435      15.108435      0              0              0            
    915000   308.25509     -1178.1476      228.18105     -949.96658      697.35133      14.860331      14.860331      14.860331      0              0              0            
    916000   280.66861     -1189.8639      207.76058     -982.10327     -563.16         15.000345      15.000345      15.000345      0              0              0            
    917000   295.99894     -1194.4461      219.10863     -975.3375      -997.92883      14.962423      14.962423      14.962423      0              0              0            
    918000   287.63491     -1191.7777      212.91728     -978.86047     -1355.8803      15.076756      15.076756      15.076756      0              0              0            
    919000   314.11739     -1225.0398      232.52053     -992.51931     -1202.1648      14.874223      14.874223      14.874223      0              0              0            
    920000   290.07248     -1218.7882      214.72166     -1004.0665     -71.350952      15.179871      15.179871      15.179871      0              0              0            
    921000   262.69752     -1217.2036      194.45777     -1022.7458     -762.18812      15.024052      15.024052      15.024052      0              0              0            
    922000   295.90985     -1196.4093      219.04268     -977.36663     -1027.4774      15.312217      15.312217      15.312217      0              0              0            
    923000   282.50725     -1213.8104      209.12161     -1004.6887     -789.68168      14.940592      14.940592      14.940592      0              0              0            
    924000   317.93024     -1209.9261      235.34293     -974.58314     -75.583188      14.888572      14.888572      14.888572      0              0              0            
    925000   284.86234     -1195.0152      210.86493     -984.15023     -1026.9989      15.12055       15.12055       15.12055       0              0              0            
    926000   301.58243     -1219.618       223.24172     -996.37627      2123.9465      14.822878      14.822878      14.822878      0              0              0            
    927000   292.53367     -1203.0524      216.54351     -986.50886      249.03827      14.982165      14.982165      14.982165      0              0              0            
    928000   301.8714      -1199.312       223.45562     -975.85637      732.89878      15.010623      15.010623      15.010623      0              0              0            
    929000   316.33213     -1207.9816      234.15996     -973.82166     -685.19132      15.041666      15.041666      15.041666      0              0              0            
    930000   279.36133     -1208.9151      206.79289     -1002.1222     -475.62582      15.217037      15.217037      15.217037      0              0              0            
    931000   296.17341     -1205.6355      219.23778     -986.3977       698.08926      14.773583      14.773583      14.773583      0              0              0            
    932000   328.07321     -1213.8114      242.8511      -970.96025     -397.92753      14.988814      14.988814      14.988814      0              0              0            
    933000   292.88901     -1224.9284      216.80655     -1008.1219     -452.51456      14.817276      14.817276      14.817276      0              0              0            
    934000   303.53872     -1226.4124      224.68983     -1001.7226     -1440.5636      14.955762      14.955762      14.955762      0              0              0            
    935000   326.53555     -1213.8517      241.71288     -972.13881      360.21406      15.202072      15.202072      15.202072      0              0              0            
    936000   303.42409     -1213.8028      224.60498     -989.19783      36.193888      15.034368      15.034368      15.034368      0              0              0            
    937000   315.20599     -1205.7853      233.32634     -972.45893     -886.60592      15.068696      15.068696      15.068696      0              0              0            
    938000   294.38723     -1237.8335      217.91558     -1019.9179      593.93141      14.955529      14.955529      14.955529      0              0              0            
    939000   333.02334     -1188.8862      246.51536     -942.37084     -1356.1724      15.192363      15.192363      15.192363      0              0              0            
    940000   304.51863     -1207.5988      225.41519     -982.18357      845.83895      14.75476       14.75476       14.75476       0              0              0            
    941000   306.01859     -1233.4879      226.52551     -1006.9624     -238.34732      14.515231      14.515231      14.515231      0              0              0            
    942000   303.29045     -1226.7347      224.50605     -1002.2287      1502.5595      14.917147      14.917147      14.917147      0              0              0            
    943000   293.99554     -1196.9183      217.62564     -979.29265      2460.446       14.943765      14.943765      14.943765      0              0              0            
    944000   296.01409     -1203.2126      219.11984     -984.09279     -692.02748      15.22796       15.22796       15.22796       0              0              0            
    945000   297.89389     -1207.8823      220.51133     -987.37097     -475.20054      15.085082      15.085082      15.085082      0              0              0            
    946000   305.63748     -1193.6765      226.24341     -967.43305      1153.4923      15.114273      15.114273      15.114273      0              0              0            
    947000   278.41744     -1200.1707      206.09419     -994.07646      695.20813      14.776986      14.776986      14.776986      0              0              0            
    948000   304.57066     -1180.7577      225.45371     -955.304       -287.08069      15.224131      15.224131      15.224131      0              0              0            
    949000   284.53768     -1207.1489      210.62461     -996.52433      1696.272       14.745165      14.745165      14.745165      0              0              0            
    950000   334.70058     -1203.8738      247.75691     -956.11691      1027.9563      14.845263      14.845263      14.845263      0              0              0            
    951000   310.27973     -1211.4004      229.67976     -981.72066     -1643.3259      14.758647      14.758647      14.758647      0              0              0            
    952000   315.74938     -1231.7481      233.72858     -998.01953      30.427134      14.824057      14.824057      14.824057      0              0              0            
    953000   288.24583     -1194.6619      213.3695      -981.29242     -979.61258      14.957112      14.957112      14.957112      0              0              0            
    954000   312.07161     -1225.476       231.00617     -994.46982     -618.18964      15.022158      15.022158      15.022158      0              0              0            
    955000   283.37032     -1206.7442      209.76049     -996.9837      -1627.5577      15.091188      15.091188      15.091188      0              0              0            
    956000   313.29478     -1185.0261      231.9116      -953.11449     -217.70982      14.980029      14.980029      14.980029      0              0              0            
    957000   298.90236     -1228.3401      221.25784     -1007.0823     -954.93789      14.954301      14.954301      14.954301      0              0              0            
    958000   294.30457     -1239.1849      217.85439     -1021.3305     -1354.2618      14.847434      14.847434      14.847434      0              0              0            
    959000   324.09841     -1212.4622      239.90882     -972.55337      141.51354      14.928016      14.928016      14.928016      0              0              0            
    960000   302.42041     -1192.8223      223.86202     -968.96027     -413.31351      15.093871      15.093871      15.093871      0              0              0            
    961000   284.69678     -1211.1667      210.74238     -1000.4244      211.09217      14.77776       14.77776       14.77776       0              0              0            
    962000   309.91363     -1196.1498      229.40876     -966.74106      556.62184      15.185434      15.185434      15.185434      0              0              0            
    963000   298.35398     -1205.8405      220.85191     -984.98864     -2385.9898      14.995562      14.995562      14.995562      0              0              0            
    964000   292.77369     -1187.4062      216.72118     -970.68506     -3019.281       15.328801      15.328801      15.328801      0              0              0            
    965000   316.93593     -1178.8549      234.60691     -944.24803      918.82885      14.965621      14.965621      14.965621      0              0              0            
    966000   317.17755     -1185.5795      234.78576     -950.79372      1147.5712      14.714791      14.714791      14.714791      0              0              0            
    967000   293.29218     -1200.7525      217.10499     -983.64748      62.705434      14.792376      14.792376      14.792376      0              0              0            
    968000   312.85299     -1227.4667      231.58457     -995.8821      -1237.288       14.991674      14.991674      14.991674      0              0              0            
    969000   307.22354     -1207.2905      227.41746     -979.87307      2038.3308      14.937299      14.937299      14.937299      0              0              0            
    970000   307.50029     -1217.296       227.62232     -989.67372     -3133.1789      15.134119      15.134119      15.134119      0              0              0            
    971000   280.27959     -1212.983       207.47262     -1005.5104     -863.23659      15.183888      15.183888      15.183888      0              0              0            
    972000   306.02854     -1178.1042      226.53288     -951.57132     -149.55095      14.914465      14.914465      14.914465      0              0              0            
    973000   310.45624     -1196.5407      229.81041     -966.73026      1655.6905      14.886931      14.886931      14.886931      0              0              0            
    974000   299.07335     -1206.3487      221.38441     -984.96425     -403.74076      14.86046       14.86046       14.86046       0              0              0            
    975000   317.25271     -1179.4055      234.8414      -944.56405      1855.2517      14.830803      14.830803      14.830803      0              0              0            
    976000   311.64996     -1214.7548      230.69405     -984.06073      727.01365      15.075741      15.075741      15.075741      0              0              0            
    977000   292.76064     -1202.7032      216.71153     -985.99165      365.52336      14.879849      14.879849      14.879849      0              0              0            
    978000   310.95448     -1210.7848      230.17923     -980.60552     -518.04312      14.933718      14.933718      14.933718      0              0              0            
    979000   324.39304     -1203.4356      240.12692     -963.30865      1707.7769      15.152486      15.152486      15.152486      0              0              0            
    980000   289.30385     -1205.429       214.15269     -991.27629     -1109.9572      15.083926      15.083926      15.083926      0              0              0            
    981000   282.55273     -1187.4056      209.15528     -978.25034      1489.1957      15.002334      15.002334      15.002334      0              0              0            
    982000   294.56953     -1201.5165      218.05053     -983.46596      1517.8271      14.770237      14.770237      14.770237      0              0              0            
    983000   272.81712     -1222.1602      201.94864     -1020.2116      354.81459      14.842439      14.842439      14.842439      0              0              0            
    984000   292.99971     -1230.119       216.88849     -1013.2305      1339.5839      14.869072      14.869072      14.869072      0              0              0            
    985000   311.87072     -1217.5538      230.85746     -986.69637      158.98568      14.848974      14.848974      14.848974      0              0              0            
    986000   313.63416     -1181.8633      232.16283     -949.70043     -1233.285       15.076591      15.076591      15.076591      0              0              0            
    987000   309.27337     -1207.4876      228.93482     -978.55275     -129.63167      14.778916      14.778916      14.778916      0              0              0            
    988000   311.57038     -1205.7594      230.63514     -975.1243      -162.09613      15.083463      15.083463      15.083463      0              0              0            
    989000   309.42715     -1204.5636      229.04865     -975.515        2178.422       14.928191      14.928191      14.928191      0              0              0            
    990000   301.51362     -1213.0204      223.19078     -989.82961      380.38155      14.991034      14.991034      14.991034      0              0              0            
    991000   322.5417      -1223.8698      238.7565      -985.11335     -1247.5126      15.076089      15.076089      15.076089      0              0              0            
    992000   301.30269     -1194.6944      223.03465     -971.6597       1086.7615      15.092311      15.092311      15.092311      0              0              0            
    993000   306.42242     -1220.479       226.82445     -993.65454      873.47487      14.934744      14.934744      14.934744      0              0              0            
    994000   280.34038     -1199.3224      207.51762     -991.80482     -2163.171       15.149872      15.149872      15.149872      0              0              0            
    995000   314.11397     -1210.3738      232.518       -977.85579     -505.47631      14.93093       14.93093       14.93093       0              0              0            
    996000   293.48543     -1222.4505      217.24804     -1005.2025     -2309.2436      15.054597      15.054597      15.054597      0              0              0            
    997000   275.47661     -1191.8226      203.91729     -987.90529      296.1464       14.834209      14.834209      14.834209      0              0              0            
    998000   334.89338     -1210.8927      247.89964     -962.99303      1614.722       14.704355      14.704355      14.704355      0              0              0            
    999000   308.21122     -1196.8624      228.14858     -968.71385     -974.55501      15.181148      15.181148      15.181148      0              0              0            
   1000000   295.08986     -1210.5522      218.43569     -992.11653     -2204.7986      15.119597      15.119597      15.119597      0              0              0            
Loop time of 211.585 on 12 procs for 1000000 steps with 320 atoms

Performance: 816.692 ns/day, 0.029 hours/ns, 4726.227 timesteps/s, 1.512 Matom-step/s
89.1% CPU use with 12 MPI tasks x 1 OpenMP threads

MPI task timing breakdown:
Section |  min time  |  avg time  |  max time  |%varavg| %total
---------------------------------------------------------------
Pair    | 22.964     | 24.905     | 26.545     |  25.1 | 11.77
Bond    | 0.6224     | 0.65552    | 0.69929    |   2.6 |  0.31
Kspace  | 81.804     | 84.137     | 87.413     |  17.5 | 39.76
Neigh   | 4.72       | 4.8919     | 5.0385     |   5.8 |  2.31
Comm    | 23.847     | 25.788     | 28.299     |  24.6 | 12.19
Output  | 12.912     | 13.889     | 16.635     |  25.4 |  6.56
Modify  | 51.6       | 55.784     | 56.978     |  19.6 | 26.36
Other   |            | 1.535      |            |       |  0.73

Nlocal:        26.6667 ave          35 max          17 min
Histogram: 1 0 0 2 2 2 2 1 1 1
Nghost:         799.25 ave         838 max         769 min
Histogram: 1 3 1 2 0 1 0 2 0 2
Neighs:              0 ave           0 max           0 min
Histogram: 12 0 0 0 0 0 0 0 0 0

Total # of neighbors = 0
Ave neighs/atom = 0
Ave special neighs/atom = 1.9875
Neighbor list builds = 74068
Dangerous builds = 5293


Total wall time: 0:03:31
